<?xml version="1.0"?>
<VTKFile type="UnstructuredGrid" version="0.1">
<UnstructuredGrid>
<Piece NumberOfPoints="      1156" NumberOfCells="      1024">
<Points>
<DataArray type="Float64"                                    Name="coordinates"                                                      NumberOfComponents=" 3" format="ascii">
              0.133000000               0.000000000               0.000000000               0.155937500               0.000000000               0.000000000               0.178875000               0.000000000               0.000000000               0.201812500               0.000000000               0.000000000               0.224750000               0.000000000               0.000000000               0.247687500               0.000000000               0.000000000               0.270625000               0.000000000               0.000000000               0.293562500               0.000000000               0.000000000               0.316500000               0.000000000               0.000000000               0.339437500               0.000000000               0.000000000               0.362375000               0.000000000               0.000000000               0.385312500               0.000000000               0.000000000               0.408250000               0.000000000               0.000000000               0.431187500               0.000000000               0.000000000               0.454125000               0.000000000               0.000000000               0.477062500               0.000000000               0.000000000               0.500000000               0.000000000               0.000000000               0.132359569               0.013036280               0.000000000               0.155337096               0.016127762               0.000000000               0.178314623               0.019219245               0.000000000               0.201292150               0.022310727               0.000000000               0.224269676               0.025402210               0.000000000               0.247247203               0.028493692               0.000000000               0.270224730               0.031585175               0.000000000               0.293202257               0.034676657               0.000000000               0.316179784               0.037768140               0.000000000               0.339157311               0.040859622               0.000000000               0.362134838               0.043951105               0.000000000               0.385112365               0.047042587               0.000000000               0.408089892               0.050134070               0.000000000               0.431067419               0.053225552               0.000000000               0.454044946               0.056317035               0.000000000               0.477022473               0.059408517               0.000000000               0.500000000               0.062500000               0.000000000               0.130444442               0.025947013               0.000000000               0.153541665               0.032137825               0.000000000               0.176638887               0.038328636               0.000000000               0.199736109               0.044519448               0.000000000               0.222833332               0.050710260               0.000000000               0.245930554               0.056901071               0.000000000               0.269027776               0.063091883               0.000000000               0.292124999               0.069282695               0.000000000               0.315222221               0.075473506               0.000000000               0.338319444               0.081664318               0.000000000               0.361416666               0.087855130               0.000000000               0.384513888               0.094045942               0.000000000               0.407611111               0.100236753               0.000000000               0.430708333               0.106427565               0.000000000               0.453805555               0.112618377               0.000000000               0.476902778               0.118809188               0.000000000               0.500000000               0.125000000               0.000000000               0.127273065               0.038607862               0.000000000               0.150568498               0.047913621               0.000000000               0.173863932               0.057219379               0.000000000               0.197159365               0.066525138               0.000000000               0.220454798               0.075830897               0.000000000               0.243750232               0.085136655               0.000000000               0.267045665               0.094442414               0.000000000               0.290341099               0.103748172               0.000000000               0.313636532               0.113053931               0.000000000               0.336931966               0.122359690               0.000000000               0.360227399               0.131665448               0.000000000               0.383522833               0.140971207               0.000000000               0.406818266               0.150276966               0.000000000               0.430113700               0.159582724               0.000000000               0.453409133               0.168888483               0.000000000               0.476704567               0.178194241               0.000000000               0.500000000               0.187500000               0.000000000               0.122875978               0.050896897               0.000000000               0.146446229               0.063340840               0.000000000               0.170016481               0.075784784               0.000000000               0.193586732               0.088228728               0.000000000               0.217156983               0.100672672               0.000000000               0.240727235               0.113116616               0.000000000               0.264297486               0.125560560               0.000000000               0.287867738               0.138004504               0.000000000               0.311437989               0.150448448               0.000000000               0.335008240               0.162892392               0.000000000               0.358578492               0.175336336               0.000000000               0.382148743               0.187780280               0.000000000               0.405718994               0.200224224               0.000000000               0.429289246               0.212668168               0.000000000               0.452859497               0.225112112               0.000000000               0.476429749               0.237556056               0.000000000               0.500000000               0.250000000               0.000000000               0.117295528               0.062695766               0.000000000               0.141214558               0.078308531               0.000000000               0.165133587               0.093921295               0.000000000               0.189052617               0.109534060               0.000000000               0.212971646               0.125146824               0.000000000               0.236890676               0.140759589               0.000000000               0.260809705               0.156372354               0.000000000               0.284728735               0.171985118               0.000000000               0.308647764               0.187597883               0.000000000               0.332566794               0.203210648               0.000000000               0.356485823               0.218823412               0.000000000               0.380404853               0.234436177               0.000000000               0.404323882               0.250048941               0.000000000               0.428242912               0.265661706               0.000000000               0.452161941               0.281274471               0.000000000               0.476080971               0.296887235               0.000000000               0.500000000               0.312500000               0.000000000               0.110585458               0.073890841               0.000000000               0.134923867               0.092710163               0.000000000               0.159262276               0.111529486               0.000000000               0.183600685               0.130348808               0.000000000               0.207939094               0.149168131               0.000000000               0.232277503               0.167987453               0.000000000               0.256615912               0.186806776               0.000000000               0.280954320               0.205626098               0.000000000               0.305292729               0.224445420               0.000000000               0.329631138               0.243264743               0.000000000               0.353969547               0.262084065               0.000000000               0.378307956               0.280903388               0.000000000               0.402646365               0.299722710               0.000000000               0.426984773               0.318542033               0.000000000               0.451323182               0.337361355               0.000000000               0.475661591               0.356180678               0.000000000               0.500000000               0.375000000               0.000000000               0.102810390               0.084374307               0.000000000               0.127634741               0.106444663               0.000000000               0.152459092               0.128515018               0.000000000               0.177283442               0.150585374               0.000000000               0.202107793               0.172655730               0.000000000               0.226932143               0.194726086               0.000000000               0.251756494               0.216796442               0.000000000               0.276580845               0.238866798               0.000000000               0.301405195               0.260937153               0.000000000               0.326229546               0.283007509               0.000000000               0.351053896               0.305077865               0.000000000               0.375878247               0.327148221               0.000000000               0.400702598               0.349218577               0.000000000               0.425526948               0.371288933               0.000000000               0.450351299               0.393359288               0.000000000               0.475175649               0.415429644               0.000000000               0.500000000               0.437500000               0.000000000               0.094045202               0.094045202               0.000000000               0.119417377               0.119417377               0.000000000               0.144789552               0.144789552               0.000000000               0.170161727               0.170161727               0.000000000               0.195533901               0.195533901               0.000000000               0.220906076               0.220906076               0.000000000               0.246278251               0.246278251               0.000000000               0.271650426               0.271650426               0.000000000               0.297022601               0.297022601               0.000000000               0.322394776               0.322394776               0.000000000               0.347766951               0.347766951               0.000000000               0.373139126               0.373139126               0.000000000               0.398511300               0.398511300               0.000000000               0.423883475               0.423883475               0.000000000               0.449255650               0.449255650               0.000000000               0.474627825               0.474627825               0.000000000               0.500000000               0.500000000               0.000000000               0.084374307               0.102810390               0.000000000               0.106444663               0.127634741               0.000000000               0.128515018               0.152459092               0.000000000               0.150585374               0.177283442               0.000000000               0.172655730               0.202107793               0.000000000               0.194726086               0.226932143               0.000000000               0.216796442               0.251756494               0.000000000               0.238866798               0.276580845               0.000000000               0.260937153               0.301405195               0.000000000               0.283007509               0.326229546               0.000000000               0.305077865               0.351053896               0.000000000               0.327148221               0.375878247               0.000000000               0.349218577               0.400702598               0.000000000               0.371288933               0.425526948               0.000000000               0.393359288               0.450351299               0.000000000               0.415429644               0.475175649               0.000000000               0.437500000               0.500000000               0.000000000               0.073890841               0.110585458               0.000000000               0.092710163               0.134923867               0.000000000               0.111529486               0.159262276               0.000000000               0.130348808               0.183600685               0.000000000               0.149168131               0.207939094               0.000000000               0.167987453               0.232277503               0.000000000               0.186806776               0.256615912               0.000000000               0.205626098               0.280954320               0.000000000               0.224445420               0.305292729               0.000000000               0.243264743               0.329631138               0.000000000               0.262084065               0.353969547               0.000000000               0.280903388               0.378307956               0.000000000               0.299722710               0.402646365               0.000000000               0.318542033               0.426984773               0.000000000               0.337361355               0.451323182               0.000000000               0.356180678               0.475661591               0.000000000               0.375000000               0.500000000               0.000000000               0.062695766               0.117295528               0.000000000               0.078308531               0.141214558               0.000000000               0.093921295               0.165133587               0.000000000               0.109534060               0.189052617               0.000000000               0.125146824               0.212971646               0.000000000               0.140759589               0.236890676               0.000000000               0.156372354               0.260809705               0.000000000               0.171985118               0.284728735               0.000000000               0.187597883               0.308647764               0.000000000               0.203210648               0.332566794               0.000000000               0.218823412               0.356485823               0.000000000               0.234436177               0.380404853               0.000000000               0.250048941               0.404323882               0.000000000               0.265661706               0.428242912               0.000000000               0.281274471               0.452161941               0.000000000               0.296887235               0.476080971               0.000000000               0.312500000               0.500000000               0.000000000               0.050896897               0.122875978               0.000000000               0.063340840               0.146446229               0.000000000               0.075784784               0.170016481               0.000000000               0.088228728               0.193586732               0.000000000               0.100672672               0.217156983               0.000000000               0.113116616               0.240727235               0.000000000               0.125560560               0.264297486               0.000000000               0.138004504               0.287867738               0.000000000               0.150448448               0.311437989               0.000000000               0.162892392               0.335008240               0.000000000               0.175336336               0.358578492               0.000000000               0.187780280               0.382148743               0.000000000               0.200224224               0.405718994               0.000000000               0.212668168               0.429289246               0.000000000               0.225112112               0.452859497               0.000000000               0.237556056               0.476429749               0.000000000               0.250000000               0.500000000               0.000000000               0.038607862               0.127273065               0.000000000               0.047913621               0.150568498               0.000000000               0.057219379               0.173863932               0.000000000               0.066525138               0.197159365               0.000000000               0.075830897               0.220454798               0.000000000               0.085136655               0.243750232               0.000000000               0.094442414               0.267045665               0.000000000               0.103748172               0.290341099               0.000000000               0.113053931               0.313636532               0.000000000               0.122359690               0.336931966               0.000000000               0.131665448               0.360227399               0.000000000               0.140971207               0.383522833               0.000000000               0.150276966               0.406818266               0.000000000               0.159582724               0.430113700               0.000000000               0.168888483               0.453409133               0.000000000               0.178194241               0.476704567               0.000000000               0.187500000               0.500000000               0.000000000               0.025947013               0.130444442               0.000000000               0.032137825               0.153541665               0.000000000               0.038328636               0.176638887               0.000000000               0.044519448               0.199736109               0.000000000               0.050710260               0.222833332               0.000000000               0.056901071               0.245930554               0.000000000               0.063091883               0.269027776               0.000000000               0.069282695               0.292124999               0.000000000               0.075473506               0.315222221               0.000000000               0.081664318               0.338319444               0.000000000               0.087855130               0.361416666               0.000000000               0.094045942               0.384513888               0.000000000               0.100236753               0.407611111               0.000000000               0.106427565               0.430708333               0.000000000               0.112618377               0.453805555               0.000000000               0.118809188               0.476902778               0.000000000               0.125000000               0.500000000               0.000000000               0.013036280               0.132359569               0.000000000               0.016127762               0.155337096               0.000000000               0.019219245               0.178314623               0.000000000               0.022310727               0.201292150               0.000000000               0.025402210               0.224269676               0.000000000               0.028493692               0.247247203               0.000000000               0.031585175               0.270224730               0.000000000               0.034676657               0.293202257               0.000000000               0.037768140               0.316179784               0.000000000               0.040859622               0.339157311               0.000000000               0.043951105               0.362134838               0.000000000               0.047042587               0.385112365               0.000000000               0.050134070               0.408089892               0.000000000               0.053225552               0.431067419               0.000000000               0.056317035               0.454044946               0.000000000               0.059408517               0.477022473               0.000000000               0.062500000               0.500000000               0.000000000               0.000000000               0.133000000               0.000000000               0.000000000               0.155937500               0.000000000               0.000000000               0.178875000               0.000000000               0.000000000               0.201812500               0.000000000               0.000000000               0.224750000               0.000000000               0.000000000               0.247687500               0.000000000               0.000000000               0.270625000               0.000000000               0.000000000               0.293562500               0.000000000               0.000000000               0.316500000               0.000000000               0.000000000               0.339437500               0.000000000               0.000000000               0.362375000               0.000000000               0.000000000               0.385312500               0.000000000               0.000000000               0.408250000               0.000000000               0.000000000               0.431187500               0.000000000               0.000000000               0.454125000               0.000000000               0.000000000               0.477062500               0.000000000               0.000000000               0.500000000               0.000000000               0.133000000               0.000000000               0.000000000               0.155937500               0.000000000               0.000000000               0.178875000               0.000000000               0.000000000               0.201812500               0.000000000               0.000000000               0.224750000               0.000000000               0.000000000               0.247687500               0.000000000               0.000000000               0.270625000               0.000000000               0.000000000               0.293562500               0.000000000               0.000000000               0.316500000               0.000000000               0.000000000               0.339437500               0.000000000               0.000000000               0.362375000               0.000000000               0.000000000               0.385312500               0.000000000               0.000000000               0.408250000               0.000000000               0.000000000               0.431187500               0.000000000               0.000000000               0.454125000               0.000000000               0.000000000               0.477062500               0.000000000               0.000000000               0.500000000               0.000000000               0.000000000               0.132359569              -0.013036280               0.000000000               0.155337096              -0.016127762               0.000000000               0.178314623              -0.019219245               0.000000000               0.201292150              -0.022310727               0.000000000               0.224269676              -0.025402210               0.000000000               0.247247203              -0.028493692               0.000000000               0.270224730              -0.031585175               0.000000000               0.293202257              -0.034676657               0.000000000               0.316179784              -0.037768140               0.000000000               0.339157311              -0.040859622               0.000000000               0.362134838              -0.043951105               0.000000000               0.385112365              -0.047042587               0.000000000               0.408089892              -0.050134070               0.000000000               0.431067419              -0.053225552               0.000000000               0.454044946              -0.056317035               0.000000000               0.477022473              -0.059408517               0.000000000               0.500000000              -0.062500000               0.000000000               0.130444442              -0.025947013               0.000000000               0.153541665              -0.032137825               0.000000000               0.176638887              -0.038328636               0.000000000               0.199736109              -0.044519448               0.000000000               0.222833332              -0.050710260               0.000000000               0.245930554              -0.056901071               0.000000000               0.269027776              -0.063091883               0.000000000               0.292124999              -0.069282695               0.000000000               0.315222221              -0.075473506               0.000000000               0.338319444              -0.081664318               0.000000000               0.361416666              -0.087855130               0.000000000               0.384513888              -0.094045942               0.000000000               0.407611111              -0.100236753               0.000000000               0.430708333              -0.106427565               0.000000000               0.453805555              -0.112618377               0.000000000               0.476902778              -0.118809188               0.000000000               0.500000000              -0.125000000               0.000000000               0.127273065              -0.038607862               0.000000000               0.150568498              -0.047913621               0.000000000               0.173863932              -0.057219379               0.000000000               0.197159365              -0.066525138               0.000000000               0.220454798              -0.075830897               0.000000000               0.243750232              -0.085136655               0.000000000               0.267045665              -0.094442414               0.000000000               0.290341099              -0.103748172               0.000000000               0.313636532              -0.113053931               0.000000000               0.336931966              -0.122359690               0.000000000               0.360227399              -0.131665448               0.000000000               0.383522833              -0.140971207               0.000000000               0.406818266              -0.150276966               0.000000000               0.430113700              -0.159582724               0.000000000               0.453409133              -0.168888483               0.000000000               0.476704567              -0.178194241               0.000000000               0.500000000              -0.187500000               0.000000000               0.122875978              -0.050896897               0.000000000               0.146446229              -0.063340840               0.000000000               0.170016481              -0.075784784               0.000000000               0.193586732              -0.088228728               0.000000000               0.217156983              -0.100672672               0.000000000               0.240727235              -0.113116616               0.000000000               0.264297486              -0.125560560               0.000000000               0.287867738              -0.138004504               0.000000000               0.311437989              -0.150448448               0.000000000               0.335008240              -0.162892392               0.000000000               0.358578492              -0.175336336               0.000000000               0.382148743              -0.187780280               0.000000000               0.405718994              -0.200224224               0.000000000               0.429289246              -0.212668168               0.000000000               0.452859497              -0.225112112               0.000000000               0.476429749              -0.237556056               0.000000000               0.500000000              -0.250000000               0.000000000               0.117295528              -0.062695766               0.000000000               0.141214558              -0.078308531               0.000000000               0.165133587              -0.093921295               0.000000000               0.189052617              -0.109534060               0.000000000               0.212971646              -0.125146824               0.000000000               0.236890676              -0.140759589               0.000000000               0.260809705              -0.156372354               0.000000000               0.284728735              -0.171985118               0.000000000               0.308647764              -0.187597883               0.000000000               0.332566794              -0.203210648               0.000000000               0.356485823              -0.218823412               0.000000000               0.380404853              -0.234436177               0.000000000               0.404323882              -0.250048941               0.000000000               0.428242912              -0.265661706               0.000000000               0.452161941              -0.281274471               0.000000000               0.476080971              -0.296887235               0.000000000               0.500000000              -0.312500000               0.000000000               0.110585458              -0.073890841               0.000000000               0.134923867              -0.092710163               0.000000000               0.159262276              -0.111529486               0.000000000               0.183600685              -0.130348808               0.000000000               0.207939094              -0.149168131               0.000000000               0.232277503              -0.167987453               0.000000000               0.256615912              -0.186806776               0.000000000               0.280954320              -0.205626098               0.000000000               0.305292729              -0.224445420               0.000000000               0.329631138              -0.243264743               0.000000000               0.353969547              -0.262084065               0.000000000               0.378307956              -0.280903388               0.000000000               0.402646365              -0.299722710               0.000000000               0.426984773              -0.318542033               0.000000000               0.451323182              -0.337361355               0.000000000               0.475661591              -0.356180678               0.000000000               0.500000000              -0.375000000               0.000000000               0.102810390              -0.084374307               0.000000000               0.127634741              -0.106444663               0.000000000               0.152459092              -0.128515018               0.000000000               0.177283442              -0.150585374               0.000000000               0.202107793              -0.172655730               0.000000000               0.226932143              -0.194726086               0.000000000               0.251756494              -0.216796442               0.000000000               0.276580845              -0.238866798               0.000000000               0.301405195              -0.260937153               0.000000000               0.326229546              -0.283007509               0.000000000               0.351053896              -0.305077865               0.000000000               0.375878247              -0.327148221               0.000000000               0.400702598              -0.349218577               0.000000000               0.425526948              -0.371288933               0.000000000               0.450351299              -0.393359288               0.000000000               0.475175649              -0.415429644               0.000000000               0.500000000              -0.437500000               0.000000000               0.094045202              -0.094045202               0.000000000               0.119417377              -0.119417377               0.000000000               0.144789552              -0.144789552               0.000000000               0.170161727              -0.170161727               0.000000000               0.195533901              -0.195533901               0.000000000               0.220906076              -0.220906076               0.000000000               0.246278251              -0.246278251               0.000000000               0.271650426              -0.271650426               0.000000000               0.297022601              -0.297022601               0.000000000               0.322394776              -0.322394776               0.000000000               0.347766951              -0.347766951               0.000000000               0.373139126              -0.373139126               0.000000000               0.398511300              -0.398511300               0.000000000               0.423883475              -0.423883475               0.000000000               0.449255650              -0.449255650               0.000000000               0.474627825              -0.474627825               0.000000000               0.500000000              -0.500000000               0.000000000               0.084374307              -0.102810390               0.000000000               0.106444663              -0.127634741               0.000000000               0.128515018              -0.152459092               0.000000000               0.150585374              -0.177283442               0.000000000               0.172655730              -0.202107793               0.000000000               0.194726086              -0.226932143               0.000000000               0.216796442              -0.251756494               0.000000000               0.238866798              -0.276580845               0.000000000               0.260937153              -0.301405195               0.000000000               0.283007509              -0.326229546               0.000000000               0.305077865              -0.351053896               0.000000000               0.327148221              -0.375878247               0.000000000               0.349218577              -0.400702598               0.000000000               0.371288933              -0.425526948               0.000000000               0.393359288              -0.450351299               0.000000000               0.415429644              -0.475175649               0.000000000               0.437500000              -0.500000000               0.000000000               0.073890841              -0.110585458               0.000000000               0.092710163              -0.134923867               0.000000000               0.111529486              -0.159262276               0.000000000               0.130348808              -0.183600685               0.000000000               0.149168131              -0.207939094               0.000000000               0.167987453              -0.232277503               0.000000000               0.186806776              -0.256615912               0.000000000               0.205626098              -0.280954320               0.000000000               0.224445420              -0.305292729               0.000000000               0.243264743              -0.329631138               0.000000000               0.262084065              -0.353969547               0.000000000               0.280903388              -0.378307956               0.000000000               0.299722710              -0.402646365               0.000000000               0.318542033              -0.426984773               0.000000000               0.337361355              -0.451323182               0.000000000               0.356180678              -0.475661591               0.000000000               0.375000000              -0.500000000               0.000000000               0.062695766              -0.117295528               0.000000000               0.078308531              -0.141214558               0.000000000               0.093921295              -0.165133587               0.000000000               0.109534060              -0.189052617               0.000000000               0.125146824              -0.212971646               0.000000000               0.140759589              -0.236890676               0.000000000               0.156372354              -0.260809705               0.000000000               0.171985118              -0.284728735               0.000000000               0.187597883              -0.308647764               0.000000000               0.203210648              -0.332566794               0.000000000               0.218823412              -0.356485823               0.000000000               0.234436177              -0.380404853               0.000000000               0.250048941              -0.404323882               0.000000000               0.265661706              -0.428242912               0.000000000               0.281274471              -0.452161941               0.000000000               0.296887235              -0.476080971               0.000000000               0.312500000              -0.500000000               0.000000000               0.050896897              -0.122875978               0.000000000               0.063340840              -0.146446229               0.000000000               0.075784784              -0.170016481               0.000000000               0.088228728              -0.193586732               0.000000000               0.100672672              -0.217156983               0.000000000               0.113116616              -0.240727235               0.000000000               0.125560560              -0.264297486               0.000000000               0.138004504              -0.287867738               0.000000000               0.150448448              -0.311437989               0.000000000               0.162892392              -0.335008240               0.000000000               0.175336336              -0.358578492               0.000000000               0.187780280              -0.382148743               0.000000000               0.200224224              -0.405718994               0.000000000               0.212668168              -0.429289246               0.000000000               0.225112112              -0.452859497               0.000000000               0.237556056              -0.476429749               0.000000000               0.250000000              -0.500000000               0.000000000               0.038607862              -0.127273065               0.000000000               0.047913621              -0.150568498               0.000000000               0.057219379              -0.173863932               0.000000000               0.066525138              -0.197159365               0.000000000               0.075830897              -0.220454798               0.000000000               0.085136655              -0.243750232               0.000000000               0.094442414              -0.267045665               0.000000000               0.103748172              -0.290341099               0.000000000               0.113053931              -0.313636532               0.000000000               0.122359690              -0.336931966               0.000000000               0.131665448              -0.360227399               0.000000000               0.140971207              -0.383522833               0.000000000               0.150276966              -0.406818266               0.000000000               0.159582724              -0.430113700               0.000000000               0.168888483              -0.453409133               0.000000000               0.178194241              -0.476704567               0.000000000               0.187500000              -0.500000000               0.000000000               0.025947013              -0.130444442               0.000000000               0.032137825              -0.153541665               0.000000000               0.038328636              -0.176638887               0.000000000               0.044519448              -0.199736109               0.000000000               0.050710260              -0.222833332               0.000000000               0.056901071              -0.245930554               0.000000000               0.063091883              -0.269027776               0.000000000               0.069282695              -0.292124999               0.000000000               0.075473506              -0.315222221               0.000000000               0.081664318              -0.338319444               0.000000000               0.087855130              -0.361416666               0.000000000               0.094045942              -0.384513888               0.000000000               0.100236753              -0.407611111               0.000000000               0.106427565              -0.430708333               0.000000000               0.112618377              -0.453805555               0.000000000               0.118809188              -0.476902778               0.000000000               0.125000000              -0.500000000               0.000000000               0.013036280              -0.132359569               0.000000000               0.016127762              -0.155337096               0.000000000               0.019219245              -0.178314623               0.000000000               0.022310727              -0.201292150               0.000000000               0.025402210              -0.224269676               0.000000000               0.028493692              -0.247247203               0.000000000               0.031585175              -0.270224730               0.000000000               0.034676657              -0.293202257               0.000000000               0.037768140              -0.316179784               0.000000000               0.040859622              -0.339157311               0.000000000               0.043951105              -0.362134838               0.000000000               0.047042587              -0.385112365               0.000000000               0.050134070              -0.408089892               0.000000000               0.053225552              -0.431067419               0.000000000               0.056317035              -0.454044946               0.000000000               0.059408517              -0.477022473               0.000000000               0.062500000              -0.500000000               0.000000000               0.000000000              -0.133000000               0.000000000               0.000000000              -0.155937500               0.000000000               0.000000000              -0.178875000               0.000000000               0.000000000              -0.201812500               0.000000000               0.000000000              -0.224750000               0.000000000               0.000000000              -0.247687500               0.000000000               0.000000000              -0.270625000               0.000000000               0.000000000              -0.293562500               0.000000000               0.000000000              -0.316500000               0.000000000               0.000000000              -0.339437500               0.000000000               0.000000000              -0.362375000               0.000000000               0.000000000              -0.385312500               0.000000000               0.000000000              -0.408250000               0.000000000               0.000000000              -0.431187500               0.000000000               0.000000000              -0.454125000               0.000000000               0.000000000              -0.477062500               0.000000000               0.000000000              -0.500000000               0.000000000              -0.133000000               0.000000000               0.000000000              -0.155937500               0.000000000               0.000000000              -0.178875000               0.000000000               0.000000000              -0.201812500               0.000000000               0.000000000              -0.224750000               0.000000000               0.000000000              -0.247687500               0.000000000               0.000000000              -0.270625000               0.000000000               0.000000000              -0.293562500               0.000000000               0.000000000              -0.316500000               0.000000000               0.000000000              -0.339437500               0.000000000               0.000000000              -0.362375000               0.000000000               0.000000000              -0.385312500               0.000000000               0.000000000              -0.408250000               0.000000000               0.000000000              -0.431187500               0.000000000               0.000000000              -0.454125000               0.000000000               0.000000000              -0.477062500               0.000000000               0.000000000              -0.500000000               0.000000000               0.000000000              -0.132359569              -0.013036280               0.000000000              -0.155337096              -0.016127762               0.000000000              -0.178314623              -0.019219245               0.000000000              -0.201292150              -0.022310727               0.000000000              -0.224269676              -0.025402210               0.000000000              -0.247247203              -0.028493692               0.000000000              -0.270224730              -0.031585175               0.000000000              -0.293202257              -0.034676657               0.000000000              -0.316179784              -0.037768140               0.000000000              -0.339157311              -0.040859622               0.000000000              -0.362134838              -0.043951105               0.000000000              -0.385112365              -0.047042587               0.000000000              -0.408089892              -0.050134070               0.000000000              -0.431067419              -0.053225552               0.000000000              -0.454044946              -0.056317035               0.000000000              -0.477022473              -0.059408517               0.000000000              -0.500000000              -0.062500000               0.000000000              -0.130444442              -0.025947013               0.000000000              -0.153541665              -0.032137825               0.000000000              -0.176638887              -0.038328636               0.000000000              -0.199736109              -0.044519448               0.000000000              -0.222833332              -0.050710260               0.000000000              -0.245930554              -0.056901071               0.000000000              -0.269027776              -0.063091883               0.000000000              -0.292124999              -0.069282695               0.000000000              -0.315222221              -0.075473506               0.000000000              -0.338319444              -0.081664318               0.000000000              -0.361416666              -0.087855130               0.000000000              -0.384513888              -0.094045942               0.000000000              -0.407611111              -0.100236753               0.000000000              -0.430708333              -0.106427565               0.000000000              -0.453805555              -0.112618377               0.000000000              -0.476902778              -0.118809188               0.000000000              -0.500000000              -0.125000000               0.000000000              -0.127273065              -0.038607862               0.000000000              -0.150568498              -0.047913621               0.000000000              -0.173863932              -0.057219379               0.000000000              -0.197159365              -0.066525138               0.000000000              -0.220454798              -0.075830897               0.000000000              -0.243750232              -0.085136655               0.000000000              -0.267045665              -0.094442414               0.000000000              -0.290341099              -0.103748172               0.000000000              -0.313636532              -0.113053931               0.000000000              -0.336931966              -0.122359690               0.000000000              -0.360227399              -0.131665448               0.000000000              -0.383522833              -0.140971207               0.000000000              -0.406818266              -0.150276966               0.000000000              -0.430113700              -0.159582724               0.000000000              -0.453409133              -0.168888483               0.000000000              -0.476704567              -0.178194241               0.000000000              -0.500000000              -0.187500000               0.000000000              -0.122875978              -0.050896897               0.000000000              -0.146446229              -0.063340840               0.000000000              -0.170016481              -0.075784784               0.000000000              -0.193586732              -0.088228728               0.000000000              -0.217156983              -0.100672672               0.000000000              -0.240727235              -0.113116616               0.000000000              -0.264297486              -0.125560560               0.000000000              -0.287867738              -0.138004504               0.000000000              -0.311437989              -0.150448448               0.000000000              -0.335008240              -0.162892392               0.000000000              -0.358578492              -0.175336336               0.000000000              -0.382148743              -0.187780280               0.000000000              -0.405718994              -0.200224224               0.000000000              -0.429289246              -0.212668168               0.000000000              -0.452859497              -0.225112112               0.000000000              -0.476429749              -0.237556056               0.000000000              -0.500000000              -0.250000000               0.000000000              -0.117295528              -0.062695766               0.000000000              -0.141214558              -0.078308531               0.000000000              -0.165133587              -0.093921295               0.000000000              -0.189052617              -0.109534060               0.000000000              -0.212971646              -0.125146824               0.000000000              -0.236890676              -0.140759589               0.000000000              -0.260809705              -0.156372354               0.000000000              -0.284728735              -0.171985118               0.000000000              -0.308647764              -0.187597883               0.000000000              -0.332566794              -0.203210648               0.000000000              -0.356485823              -0.218823412               0.000000000              -0.380404853              -0.234436177               0.000000000              -0.404323882              -0.250048941               0.000000000              -0.428242912              -0.265661706               0.000000000              -0.452161941              -0.281274471               0.000000000              -0.476080971              -0.296887235               0.000000000              -0.500000000              -0.312500000               0.000000000              -0.110585458              -0.073890841               0.000000000              -0.134923867              -0.092710163               0.000000000              -0.159262276              -0.111529486               0.000000000              -0.183600685              -0.130348808               0.000000000              -0.207939094              -0.149168131               0.000000000              -0.232277503              -0.167987453               0.000000000              -0.256615912              -0.186806776               0.000000000              -0.280954320              -0.205626098               0.000000000              -0.305292729              -0.224445420               0.000000000              -0.329631138              -0.243264743               0.000000000              -0.353969547              -0.262084065               0.000000000              -0.378307956              -0.280903388               0.000000000              -0.402646365              -0.299722710               0.000000000              -0.426984773              -0.318542033               0.000000000              -0.451323182              -0.337361355               0.000000000              -0.475661591              -0.356180678               0.000000000              -0.500000000              -0.375000000               0.000000000              -0.102810390              -0.084374307               0.000000000              -0.127634741              -0.106444663               0.000000000              -0.152459092              -0.128515018               0.000000000              -0.177283442              -0.150585374               0.000000000              -0.202107793              -0.172655730               0.000000000              -0.226932143              -0.194726086               0.000000000              -0.251756494              -0.216796442               0.000000000              -0.276580845              -0.238866798               0.000000000              -0.301405195              -0.260937153               0.000000000              -0.326229546              -0.283007509               0.000000000              -0.351053896              -0.305077865               0.000000000              -0.375878247              -0.327148221               0.000000000              -0.400702598              -0.349218577               0.000000000              -0.425526948              -0.371288933               0.000000000              -0.450351299              -0.393359288               0.000000000              -0.475175649              -0.415429644               0.000000000              -0.500000000              -0.437500000               0.000000000              -0.094045202              -0.094045202               0.000000000              -0.119417377              -0.119417377               0.000000000              -0.144789552              -0.144789552               0.000000000              -0.170161727              -0.170161727               0.000000000              -0.195533901              -0.195533901               0.000000000              -0.220906076              -0.220906076               0.000000000              -0.246278251              -0.246278251               0.000000000              -0.271650426              -0.271650426               0.000000000              -0.297022601              -0.297022601               0.000000000              -0.322394776              -0.322394776               0.000000000              -0.347766951              -0.347766951               0.000000000              -0.373139126              -0.373139126               0.000000000              -0.398511300              -0.398511300               0.000000000              -0.423883475              -0.423883475               0.000000000              -0.449255650              -0.449255650               0.000000000              -0.474627825              -0.474627825               0.000000000              -0.500000000              -0.500000000               0.000000000              -0.084374307              -0.102810390               0.000000000              -0.106444663              -0.127634741               0.000000000              -0.128515018              -0.152459092               0.000000000              -0.150585374              -0.177283442               0.000000000              -0.172655730              -0.202107793               0.000000000              -0.194726086              -0.226932143               0.000000000              -0.216796442              -0.251756494               0.000000000              -0.238866798              -0.276580845               0.000000000              -0.260937153              -0.301405195               0.000000000              -0.283007509              -0.326229546               0.000000000              -0.305077865              -0.351053896               0.000000000              -0.327148221              -0.375878247               0.000000000              -0.349218577              -0.400702598               0.000000000              -0.371288933              -0.425526948               0.000000000              -0.393359288              -0.450351299               0.000000000              -0.415429644              -0.475175649               0.000000000              -0.437500000              -0.500000000               0.000000000              -0.073890841              -0.110585458               0.000000000              -0.092710163              -0.134923867               0.000000000              -0.111529486              -0.159262276               0.000000000              -0.130348808              -0.183600685               0.000000000              -0.149168131              -0.207939094               0.000000000              -0.167987453              -0.232277503               0.000000000              -0.186806776              -0.256615912               0.000000000              -0.205626098              -0.280954320               0.000000000              -0.224445420              -0.305292729               0.000000000              -0.243264743              -0.329631138               0.000000000              -0.262084065              -0.353969547               0.000000000              -0.280903388              -0.378307956               0.000000000              -0.299722710              -0.402646365               0.000000000              -0.318542033              -0.426984773               0.000000000              -0.337361355              -0.451323182               0.000000000              -0.356180678              -0.475661591               0.000000000              -0.375000000              -0.500000000               0.000000000              -0.062695766              -0.117295528               0.000000000              -0.078308531              -0.141214558               0.000000000              -0.093921295              -0.165133587               0.000000000              -0.109534060              -0.189052617               0.000000000              -0.125146824              -0.212971646               0.000000000              -0.140759589              -0.236890676               0.000000000              -0.156372354              -0.260809705               0.000000000              -0.171985118              -0.284728735               0.000000000              -0.187597883              -0.308647764               0.000000000              -0.203210648              -0.332566794               0.000000000              -0.218823412              -0.356485823               0.000000000              -0.234436177              -0.380404853               0.000000000              -0.250048941              -0.404323882               0.000000000              -0.265661706              -0.428242912               0.000000000              -0.281274471              -0.452161941               0.000000000              -0.296887235              -0.476080971               0.000000000              -0.312500000              -0.500000000               0.000000000              -0.050896897              -0.122875978               0.000000000              -0.063340840              -0.146446229               0.000000000              -0.075784784              -0.170016481               0.000000000              -0.088228728              -0.193586732               0.000000000              -0.100672672              -0.217156983               0.000000000              -0.113116616              -0.240727235               0.000000000              -0.125560560              -0.264297486               0.000000000              -0.138004504              -0.287867738               0.000000000              -0.150448448              -0.311437989               0.000000000              -0.162892392              -0.335008240               0.000000000              -0.175336336              -0.358578492               0.000000000              -0.187780280              -0.382148743               0.000000000              -0.200224224              -0.405718994               0.000000000              -0.212668168              -0.429289246               0.000000000              -0.225112112              -0.452859497               0.000000000              -0.237556056              -0.476429749               0.000000000              -0.250000000              -0.500000000               0.000000000              -0.038607862              -0.127273065               0.000000000              -0.047913621              -0.150568498               0.000000000              -0.057219379              -0.173863932               0.000000000              -0.066525138              -0.197159365               0.000000000              -0.075830897              -0.220454798               0.000000000              -0.085136655              -0.243750232               0.000000000              -0.094442414              -0.267045665               0.000000000              -0.103748172              -0.290341099               0.000000000              -0.113053931              -0.313636532               0.000000000              -0.122359690              -0.336931966               0.000000000              -0.131665448              -0.360227399               0.000000000              -0.140971207              -0.383522833               0.000000000              -0.150276966              -0.406818266               0.000000000              -0.159582724              -0.430113700               0.000000000              -0.168888483              -0.453409133               0.000000000              -0.178194241              -0.476704567               0.000000000              -0.187500000              -0.500000000               0.000000000              -0.025947013              -0.130444442               0.000000000              -0.032137825              -0.153541665               0.000000000              -0.038328636              -0.176638887               0.000000000              -0.044519448              -0.199736109               0.000000000              -0.050710260              -0.222833332               0.000000000              -0.056901071              -0.245930554               0.000000000              -0.063091883              -0.269027776               0.000000000              -0.069282695              -0.292124999               0.000000000              -0.075473506              -0.315222221               0.000000000              -0.081664318              -0.338319444               0.000000000              -0.087855130              -0.361416666               0.000000000              -0.094045942              -0.384513888               0.000000000              -0.100236753              -0.407611111               0.000000000              -0.106427565              -0.430708333               0.000000000              -0.112618377              -0.453805555               0.000000000              -0.118809188              -0.476902778               0.000000000              -0.125000000              -0.500000000               0.000000000              -0.013036280              -0.132359569               0.000000000              -0.016127762              -0.155337096               0.000000000              -0.019219245              -0.178314623               0.000000000              -0.022310727              -0.201292150               0.000000000              -0.025402210              -0.224269676               0.000000000              -0.028493692              -0.247247203               0.000000000              -0.031585175              -0.270224730               0.000000000              -0.034676657              -0.293202257               0.000000000              -0.037768140              -0.316179784               0.000000000              -0.040859622              -0.339157311               0.000000000              -0.043951105              -0.362134838               0.000000000              -0.047042587              -0.385112365               0.000000000              -0.050134070              -0.408089892               0.000000000              -0.053225552              -0.431067419               0.000000000              -0.056317035              -0.454044946               0.000000000              -0.059408517              -0.477022473               0.000000000              -0.062500000              -0.500000000               0.000000000               0.000000000              -0.133000000               0.000000000               0.000000000              -0.155937500               0.000000000               0.000000000              -0.178875000               0.000000000               0.000000000              -0.201812500               0.000000000               0.000000000              -0.224750000               0.000000000               0.000000000              -0.247687500               0.000000000               0.000000000              -0.270625000               0.000000000               0.000000000              -0.293562500               0.000000000               0.000000000              -0.316500000               0.000000000               0.000000000              -0.339437500               0.000000000               0.000000000              -0.362375000               0.000000000               0.000000000              -0.385312500               0.000000000               0.000000000              -0.408250000               0.000000000               0.000000000              -0.431187500               0.000000000               0.000000000              -0.454125000               0.000000000               0.000000000              -0.477062500               0.000000000               0.000000000              -0.500000000               0.000000000              -0.133000000               0.000000000               0.000000000              -0.155937500               0.000000000               0.000000000              -0.178875000               0.000000000               0.000000000              -0.201812500               0.000000000               0.000000000              -0.224750000               0.000000000               0.000000000              -0.247687500               0.000000000               0.000000000              -0.270625000               0.000000000               0.000000000              -0.293562500               0.000000000               0.000000000              -0.316500000               0.000000000               0.000000000              -0.339437500               0.000000000               0.000000000              -0.362375000               0.000000000               0.000000000              -0.385312500               0.000000000               0.000000000              -0.408250000               0.000000000               0.000000000              -0.431187500               0.000000000               0.000000000              -0.454125000               0.000000000               0.000000000              -0.477062500               0.000000000               0.000000000              -0.500000000               0.000000000               0.000000000              -0.132359569               0.013036280               0.000000000              -0.155337096               0.016127762               0.000000000              -0.178314623               0.019219245               0.000000000              -0.201292150               0.022310727               0.000000000              -0.224269676               0.025402210               0.000000000              -0.247247203               0.028493692               0.000000000              -0.270224730               0.031585175               0.000000000              -0.293202257               0.034676657               0.000000000              -0.316179784               0.037768140               0.000000000              -0.339157311               0.040859622               0.000000000              -0.362134838               0.043951105               0.000000000              -0.385112365               0.047042587               0.000000000              -0.408089892               0.050134070               0.000000000              -0.431067419               0.053225552               0.000000000              -0.454044946               0.056317035               0.000000000              -0.477022473               0.059408517               0.000000000              -0.500000000               0.062500000               0.000000000              -0.130444442               0.025947013               0.000000000              -0.153541665               0.032137825               0.000000000              -0.176638887               0.038328636               0.000000000              -0.199736109               0.044519448               0.000000000              -0.222833332               0.050710260               0.000000000              -0.245930554               0.056901071               0.000000000              -0.269027776               0.063091883               0.000000000              -0.292124999               0.069282695               0.000000000              -0.315222221               0.075473506               0.000000000              -0.338319444               0.081664318               0.000000000              -0.361416666               0.087855130               0.000000000              -0.384513888               0.094045942               0.000000000              -0.407611111               0.100236753               0.000000000              -0.430708333               0.106427565               0.000000000              -0.453805555               0.112618377               0.000000000              -0.476902778               0.118809188               0.000000000              -0.500000000               0.125000000               0.000000000              -0.127273065               0.038607862               0.000000000              -0.150568498               0.047913621               0.000000000              -0.173863932               0.057219379               0.000000000              -0.197159365               0.066525138               0.000000000              -0.220454798               0.075830897               0.000000000              -0.243750232               0.085136655               0.000000000              -0.267045665               0.094442414               0.000000000              -0.290341099               0.103748172               0.000000000              -0.313636532               0.113053931               0.000000000              -0.336931966               0.122359690               0.000000000              -0.360227399               0.131665448               0.000000000              -0.383522833               0.140971207               0.000000000              -0.406818266               0.150276966               0.000000000              -0.430113700               0.159582724               0.000000000              -0.453409133               0.168888483               0.000000000              -0.476704567               0.178194241               0.000000000              -0.500000000               0.187500000               0.000000000              -0.122875978               0.050896897               0.000000000              -0.146446229               0.063340840               0.000000000              -0.170016481               0.075784784               0.000000000              -0.193586732               0.088228728               0.000000000              -0.217156983               0.100672672               0.000000000              -0.240727235               0.113116616               0.000000000              -0.264297486               0.125560560               0.000000000              -0.287867738               0.138004504               0.000000000              -0.311437989               0.150448448               0.000000000              -0.335008240               0.162892392               0.000000000              -0.358578492               0.175336336               0.000000000              -0.382148743               0.187780280               0.000000000              -0.405718994               0.200224224               0.000000000              -0.429289246               0.212668168               0.000000000              -0.452859497               0.225112112               0.000000000              -0.476429749               0.237556056               0.000000000              -0.500000000               0.250000000               0.000000000              -0.117295528               0.062695766               0.000000000              -0.141214558               0.078308531               0.000000000              -0.165133587               0.093921295               0.000000000              -0.189052617               0.109534060               0.000000000              -0.212971646               0.125146824               0.000000000              -0.236890676               0.140759589               0.000000000              -0.260809705               0.156372354               0.000000000              -0.284728735               0.171985118               0.000000000              -0.308647764               0.187597883               0.000000000              -0.332566794               0.203210648               0.000000000              -0.356485823               0.218823412               0.000000000              -0.380404853               0.234436177               0.000000000              -0.404323882               0.250048941               0.000000000              -0.428242912               0.265661706               0.000000000              -0.452161941               0.281274471               0.000000000              -0.476080971               0.296887235               0.000000000              -0.500000000               0.312500000               0.000000000              -0.110585458               0.073890841               0.000000000              -0.134923867               0.092710163               0.000000000              -0.159262276               0.111529486               0.000000000              -0.183600685               0.130348808               0.000000000              -0.207939094               0.149168131               0.000000000              -0.232277503               0.167987453               0.000000000              -0.256615912               0.186806776               0.000000000              -0.280954320               0.205626098               0.000000000              -0.305292729               0.224445420               0.000000000              -0.329631138               0.243264743               0.000000000              -0.353969547               0.262084065               0.000000000              -0.378307956               0.280903388               0.000000000              -0.402646365               0.299722710               0.000000000              -0.426984773               0.318542033               0.000000000              -0.451323182               0.337361355               0.000000000              -0.475661591               0.356180678               0.000000000              -0.500000000               0.375000000               0.000000000              -0.102810390               0.084374307               0.000000000              -0.127634741               0.106444663               0.000000000              -0.152459092               0.128515018               0.000000000              -0.177283442               0.150585374               0.000000000              -0.202107793               0.172655730               0.000000000              -0.226932143               0.194726086               0.000000000              -0.251756494               0.216796442               0.000000000              -0.276580845               0.238866798               0.000000000              -0.301405195               0.260937153               0.000000000              -0.326229546               0.283007509               0.000000000              -0.351053896               0.305077865               0.000000000              -0.375878247               0.327148221               0.000000000              -0.400702598               0.349218577               0.000000000              -0.425526948               0.371288933               0.000000000              -0.450351299               0.393359288               0.000000000              -0.475175649               0.415429644               0.000000000              -0.500000000               0.437500000               0.000000000              -0.094045202               0.094045202               0.000000000              -0.119417377               0.119417377               0.000000000              -0.144789552               0.144789552               0.000000000              -0.170161727               0.170161727               0.000000000              -0.195533901               0.195533901               0.000000000              -0.220906076               0.220906076               0.000000000              -0.246278251               0.246278251               0.000000000              -0.271650426               0.271650426               0.000000000              -0.297022601               0.297022601               0.000000000              -0.322394776               0.322394776               0.000000000              -0.347766951               0.347766951               0.000000000              -0.373139126               0.373139126               0.000000000              -0.398511300               0.398511300               0.000000000              -0.423883475               0.423883475               0.000000000              -0.449255650               0.449255650               0.000000000              -0.474627825               0.474627825               0.000000000              -0.500000000               0.500000000               0.000000000              -0.084374307               0.102810390               0.000000000              -0.106444663               0.127634741               0.000000000              -0.128515018               0.152459092               0.000000000              -0.150585374               0.177283442               0.000000000              -0.172655730               0.202107793               0.000000000              -0.194726086               0.226932143               0.000000000              -0.216796442               0.251756494               0.000000000              -0.238866798               0.276580845               0.000000000              -0.260937153               0.301405195               0.000000000              -0.283007509               0.326229546               0.000000000              -0.305077865               0.351053896               0.000000000              -0.327148221               0.375878247               0.000000000              -0.349218577               0.400702598               0.000000000              -0.371288933               0.425526948               0.000000000              -0.393359288               0.450351299               0.000000000              -0.415429644               0.475175649               0.000000000              -0.437500000               0.500000000               0.000000000              -0.073890841               0.110585458               0.000000000              -0.092710163               0.134923867               0.000000000              -0.111529486               0.159262276               0.000000000              -0.130348808               0.183600685               0.000000000              -0.149168131               0.207939094               0.000000000              -0.167987453               0.232277503               0.000000000              -0.186806776               0.256615912               0.000000000              -0.205626098               0.280954320               0.000000000              -0.224445420               0.305292729               0.000000000              -0.243264743               0.329631138               0.000000000              -0.262084065               0.353969547               0.000000000              -0.280903388               0.378307956               0.000000000              -0.299722710               0.402646365               0.000000000              -0.318542033               0.426984773               0.000000000              -0.337361355               0.451323182               0.000000000              -0.356180678               0.475661591               0.000000000              -0.375000000               0.500000000               0.000000000              -0.062695766               0.117295528               0.000000000              -0.078308531               0.141214558               0.000000000              -0.093921295               0.165133587               0.000000000              -0.109534060               0.189052617               0.000000000              -0.125146824               0.212971646               0.000000000              -0.140759589               0.236890676               0.000000000              -0.156372354               0.260809705               0.000000000              -0.171985118               0.284728735               0.000000000              -0.187597883               0.308647764               0.000000000              -0.203210648               0.332566794               0.000000000              -0.218823412               0.356485823               0.000000000              -0.234436177               0.380404853               0.000000000              -0.250048941               0.404323882               0.000000000              -0.265661706               0.428242912               0.000000000              -0.281274471               0.452161941               0.000000000              -0.296887235               0.476080971               0.000000000              -0.312500000               0.500000000               0.000000000              -0.050896897               0.122875978               0.000000000              -0.063340840               0.146446229               0.000000000              -0.075784784               0.170016481               0.000000000              -0.088228728               0.193586732               0.000000000              -0.100672672               0.217156983               0.000000000              -0.113116616               0.240727235               0.000000000              -0.125560560               0.264297486               0.000000000              -0.138004504               0.287867738               0.000000000              -0.150448448               0.311437989               0.000000000              -0.162892392               0.335008240               0.000000000              -0.175336336               0.358578492               0.000000000              -0.187780280               0.382148743               0.000000000              -0.200224224               0.405718994               0.000000000              -0.212668168               0.429289246               0.000000000              -0.225112112               0.452859497               0.000000000              -0.237556056               0.476429749               0.000000000              -0.250000000               0.500000000               0.000000000              -0.038607862               0.127273065               0.000000000              -0.047913621               0.150568498               0.000000000              -0.057219379               0.173863932               0.000000000              -0.066525138               0.197159365               0.000000000              -0.075830897               0.220454798               0.000000000              -0.085136655               0.243750232               0.000000000              -0.094442414               0.267045665               0.000000000              -0.103748172               0.290341099               0.000000000              -0.113053931               0.313636532               0.000000000              -0.122359690               0.336931966               0.000000000              -0.131665448               0.360227399               0.000000000              -0.140971207               0.383522833               0.000000000              -0.150276966               0.406818266               0.000000000              -0.159582724               0.430113700               0.000000000              -0.168888483               0.453409133               0.000000000              -0.178194241               0.476704567               0.000000000              -0.187500000               0.500000000               0.000000000              -0.025947013               0.130444442               0.000000000              -0.032137825               0.153541665               0.000000000              -0.038328636               0.176638887               0.000000000              -0.044519448               0.199736109               0.000000000              -0.050710260               0.222833332               0.000000000              -0.056901071               0.245930554               0.000000000              -0.063091883               0.269027776               0.000000000              -0.069282695               0.292124999               0.000000000              -0.075473506               0.315222221               0.000000000              -0.081664318               0.338319444               0.000000000              -0.087855130               0.361416666               0.000000000              -0.094045942               0.384513888               0.000000000              -0.100236753               0.407611111               0.000000000              -0.106427565               0.430708333               0.000000000              -0.112618377               0.453805555               0.000000000              -0.118809188               0.476902778               0.000000000              -0.125000000               0.500000000               0.000000000              -0.013036280               0.132359569               0.000000000              -0.016127762               0.155337096               0.000000000              -0.019219245               0.178314623               0.000000000              -0.022310727               0.201292150               0.000000000              -0.025402210               0.224269676               0.000000000              -0.028493692               0.247247203               0.000000000              -0.031585175               0.270224730               0.000000000              -0.034676657               0.293202257               0.000000000              -0.037768140               0.316179784               0.000000000              -0.040859622               0.339157311               0.000000000              -0.043951105               0.362134838               0.000000000              -0.047042587               0.385112365               0.000000000              -0.050134070               0.408089892               0.000000000              -0.053225552               0.431067419               0.000000000              -0.056317035               0.454044946               0.000000000              -0.059408517               0.477022473               0.000000000              -0.062500000               0.500000000               0.000000000               0.000000000               0.133000000               0.000000000               0.000000000               0.155937500               0.000000000               0.000000000               0.178875000               0.000000000               0.000000000               0.201812500               0.000000000               0.000000000               0.224750000               0.000000000               0.000000000               0.247687500               0.000000000               0.000000000               0.270625000               0.000000000               0.000000000               0.293562500               0.000000000               0.000000000               0.316500000               0.000000000               0.000000000               0.339437500               0.000000000               0.000000000               0.362375000               0.000000000               0.000000000               0.385312500               0.000000000               0.000000000               0.408250000               0.000000000               0.000000000               0.431187500               0.000000000               0.000000000               0.454125000               0.000000000               0.000000000               0.477062500               0.000000000               0.000000000               0.500000000               0.000000000 </DataArray>
</Points>
<Cells>
<DataArray type="Int32"                                    Name="connectivity"                                                      NumberOfComponents=" 1" format="ascii">
         0          1         18         17          1          2         19         18          2          3         20         19          3          4         21         20          4          5         22         21          5          6         23         22          6          7         24         23          7          8         25         24          8          9         26         25          9         10         27         26         10         11         28         27         11         12         29         28         12         13         30         29         13         14         31         30         14         15         32         31         15         16         33         32         17         18         35         34         18         19         36         35         19         20         37         36         20         21         38         37         21         22         39         38         22         23         40         39         23         24         41         40         24         25         42         41         25         26         43         42         26         27         44         43         27         28         45         44         28         29         46         45         29         30         47         46         30         31         48         47         31         32         49         48         32         33         50         49         34         35         52         51         35         36         53         52         36         37         54         53         37         38         55         54         38         39         56         55         39         40         57         56         40         41         58         57         41         42         59         58         42         43         60         59         43         44         61         60         44         45         62         61         45         46         63         62         46         47         64         63         47         48         65         64         48         49         66         65         49         50         67         66         51         52         69         68         52         53         70         69         53         54         71         70         54         55         72         71         55         56         73         72         56         57         74         73         57         58         75         74         58         59         76         75         59         60         77         76         60         61         78         77         61         62         79         78         62         63         80         79         63         64         81         80         64         65         82         81         65         66         83         82         66         67         84         83         68         69         86         85         69         70         87         86         70         71         88         87         71         72         89         88         72         73         90         89         73         74         91         90         74         75         92         91         75         76         93         92         76         77         94         93         77         78         95         94         78         79         96         95         79         80         97         96         80         81         98         97         81         82         99         98         82         83        100         99         83         84        101        100         85         86        103        102         86         87        104        103         87         88        105        104         88         89        106        105         89         90        107        106         90         91        108        107         91         92        109        108         92         93        110        109         93         94        111        110         94         95        112        111         95         96        113        112         96         97        114        113         97         98        115        114         98         99        116        115         99        100        117        116        100        101        118        117        102        103        120        119        103        104        121        120        104        105        122        121        105        106        123        122        106        107        124        123        107        108        125        124        108        109        126        125        109        110        127        126        110        111        128        127        111        112        129        128        112        113        130        129        113        114        131        130        114        115        132        131        115        116        133        132        116        117        134        133        117        118        135        134        119        120        137        136        120        121        138        137        121        122        139        138        122        123        140        139        123        124        141        140        124        125        142        141        125        126        143        142        126        127        144        143        127        128        145        144        128        129        146        145        129        130        147        146        130        131        148        147        131        132        149        148        132        133        150        149        133        134        151        150        134        135        152        151        136        137        154        153        137        138        155        154        138        139        156        155        139        140        157        156        140        141        158        157        141        142        159        158        142        143        160        159        143        144        161        160        144        145        162        161        145        146        163        162        146        147        164        163        147        148        165        164        148        149        166        165        149        150        167        166        150        151        168        167        151        152        169        168        153        154        171        170        154        155        172        171        155        156        173        172        156        157        174        173        157        158        175        174        158        159        176        175        159        160        177        176        160        161        178        177        161        162        179        178        162        163        180        179        163        164        181        180        164        165        182        181        165        166        183        182        166        167        184        183        167        168        185        184        168        169        186        185        170        171        188        187        171        172        189        188        172        173        190        189        173        174        191        190        174        175        192        191        175        176        193        192        176        177        194        193        177        178        195        194        178        179        196        195        179        180        197        196        180        181        198        197        181        182        199        198        182        183        200        199        183        184        201        200        184        185        202        201        185        186        203        202        187        188        205        204        188        189        206        205        189        190        207        206        190        191        208        207        191        192        209        208        192        193        210        209        193        194        211        210        194        195        212        211        195        196        213        212        196        197        214        213        197        198        215        214        198        199        216        215        199        200        217        216        200        201        218        217        201        202        219        218        202        203        220        219        204        205        222        221        205        206        223        222        206        207        224        223        207        208        225        224        208        209        226        225        209        210        227        226        210        211        228        227        211        212        229        228        212        213        230        229        213        214        231        230        214        215        232        231        215        216        233        232        216        217        234        233        217        218        235        234        218        219        236        235        219        220        237        236        221        222        239        238        222        223        240        239        223        224        241        240        224        225        242        241        225        226        243        242        226        227        244        243        227        228        245        244        228        229        246        245        229        230        247        246        230        231        248        247        231        232        249        248        232        233        250        249        233        234        251        250        234        235        252        251        235        236        253        252        236        237        254        253        238        239        256        255        239        240        257        256        240        241        258        257        241        242        259        258        242        243        260        259        243        244        261        260        244        245        262        261        245        246        263        262        246        247        264        263        247        248        265        264        248        249        266        265        249        250        267        266        250        251        268        267        251        252        269        268        252        253        270        269        253        254        271        270        255        256        273        272        256        257        274        273        257        258        275        274        258        259        276        275        259        260        277        276        260        261        278        277        261        262        279        278        262        263        280        279        263        264        281        280        264        265        282        281        265        266        283        282        266        267        284        283        267        268        285        284        268        269        286        285        269        270        287        286        270        271        288        287        306        307          1          0        307        308          2          1        308        309          3          2        309        310          4          3        310        311          5          4        311        312          6          5        312        313          7          6        313        314          8          7        314        315          9          8        315        316         10          9        316        317         11         10        317        318         12         11        318        319         13         12        319        320         14         13        320        321         15         14        321        322         16         15        323        324        307        306        324        325        308        307        325        326        309        308        326        327        310        309        327        328        311        310        328        329        312        311        329        330        313        312        330        331        314        313        331        332        315        314        332        333        316        315        333        334        317        316        334        335        318        317        335        336        319        318        336        337        320        319        337        338        321        320        338        339        322        321        340        341        324        323        341        342        325        324        342        343        326        325        343        344        327        326        344        345        328        327        345        346        329        328        346        347        330        329        347        348        331        330        348        349        332        331        349        350        333        332        350        351        334        333        351        352        335        334        352        353        336        335        353        354        337        336        354        355        338        337        355        356        339        338        357        358        341        340        358        359        342        341        359        360        343        342        360        361        344        343        361        362        345        344        362        363        346        345        363        364        347        346        364        365        348        347        365        366        349        348        366        367        350        349        367        368        351        350        368        369        352        351        369        370        353        352        370        371        354        353        371        372        355        354        372        373        356        355        374        375        358        357        375        376        359        358        376        377        360        359        377        378        361        360        378        379        362        361        379        380        363        362        380        381        364        363        381        382        365        364        382        383        366        365        383        384        367        366        384        385        368        367        385        386        369        368        386        387        370        369        387        388        371        370        388        389        372        371        389        390        373        372        391        392        375        374        392        393        376        375        393        394        377        376        394        395        378        377        395        396        379        378        396        397        380        379        397        398        381        380        398        399        382        381        399        400        383        382        400        401        384        383        401        402        385        384        402        403        386        385        403        404        387        386        404        405        388        387        405        406        389        388        406        407        390        389        408        409        392        391        409        410        393        392        410        411        394        393        411        412        395        394        412        413        396        395        413        414        397        396        414        415        398        397        415        416        399        398        416        417        400        399        417        418        401        400        418        419        402        401        419        420        403        402        420        421        404        403        421        422        405        404        422        423        406        405        423        424        407        406        425        426        409        408        426        427        410        409        427        428        411        410        428        429        412        411        429        430        413        412        430        431        414        413        431        432        415        414        432        433        416        415        433        434        417        416        434        435        418        417        435        436        419        418        436        437        420        419        437        438        421        420        438        439        422        421        439        440        423        422        440        441        424        423        442        443        426        425        443        444        427        426        444        445        428        427        445        446        429        428        446        447        430        429        447        448        431        430        448        449        432        431        449        450        433        432        450        451        434        433        451        452        435        434        452        453        436        435        453        454        437        436        454        455        438        437        455        456        439        438        456        457        440        439        457        458        441        440        459        460        443        442        460        461        444        443        461        462        445        444        462        463        446        445        463        464        447        446        464        465        448        447        465        466        449        448        466        467        450        449        467        468        451        450        468        469        452        451        469        470        453        452        470        471        454        453        471        472        455        454        472        473        456        455        473        474        457        456        474        475        458        457        476        477        460        459        477        478        461        460        478        479        462        461        479        480        463        462        480        481        464        463        481        482        465        464        482        483        466        465        483        484        467        466        484        485        468        467        485        486        469        468        486        487        470        469        487        488        471        470        488        489        472        471        489        490        473        472        490        491        474        473        491        492        475        474        493        494        477        476        494        495        478        477        495        496        479        478        496        497        480        479        497        498        481        480        498        499        482        481        499        500        483        482        500        501        484        483        501        502        485        484        502        503        486        485        503        504        487        486        504        505        488        487        505        506        489        488        506        507        490        489        507        508        491        490        508        509        492        491        510        511        494        493        511        512        495        494        512        513        496        495        513        514        497        496        514        515        498        497        515        516        499        498        516        517        500        499        517        518        501        500        518        519        502        501        519        520        503        502        520        521        504        503        521        522        505        504        522        523        506        505        523        524        507        506        524        525        508        507        525        526        509        508        527        528        511        510        528        529        512        511        529        530        513        512        530        531        514        513        531        532        515        514        532        533        516        515        533        534        517        516        534        535        518        517        535        536        519        518        536        537        520        519        537        538        521        520        538        539        522        521        539        540        523        522        540        541        524        523        541        542        525        524        542        543        526        525        544        545        528        527        545        546        529        528        546        547        530        529        547        548        531        530        548        549        532        531        549        550        533        532        550        551        534        533        551        552        535        534        552        553        536        535        553        554        537        536        554        555        538        537        555        556        539        538        556        557        540        539        557        558        541        540        558        559        542        541        559        560        543        542        561        562        545        544        562        563        546        545        563        564        547        546        564        565        548        547        565        566        549        548        566        567        550        549        567        568        551        550        568        569        552        551        569        570        553        552        570        571        554        553        571        572        555        554        572        573        556        555        573        574        557        556        574        575        558        557        575        576        559        558        576        577        560        559        578        579        596        595        579        580        597        596        580        581        598        597        581        582        599        598        582        583        600        599        583        584        601        600        584        585        602        601        585        586        603        602        586        587        604        603        587        588        605        604        588        589        606        605        589        590        607        606        590        591        608        607        591        592        609        608        592        593        610        609        593        594        611        610        595        596        613        612        596        597        614        613        597        598        615        614        598        599        616        615        599        600        617        616        600        601        618        617        601        602        619        618        602        603        620        619        603        604        621        620        604        605        622        621        605        606        623        622        606        607        624        623        607        608        625        624        608        609        626        625        609        610        627        626        610        611        628        627        612        613        630        629        613        614        631        630        614        615        632        631        615        616        633        632        616        617        634        633        617        618        635        634        618        619        636        635        619        620        637        636        620        621        638        637        621        622        639        638        622        623        640        639        623        624        641        640        624        625        642        641        625        626        643        642        626        627        644        643        627        628        645        644        629        630        647        646        630        631        648        647        631        632        649        648        632        633        650        649        633        634        651        650        634        635        652        651        635        636        653        652        636        637        654        653        637        638        655        654        638        639        656        655        639        640        657        656        640        641        658        657        641        642        659        658        642        643        660        659        643        644        661        660        644        645        662        661        646        647        664        663        647        648        665        664        648        649        666        665        649        650        667        666        650        651        668        667        651        652        669        668        652        653        670        669        653        654        671        670        654        655        672        671        655        656        673        672        656        657        674        673        657        658        675        674        658        659        676        675        659        660        677        676        660        661        678        677        661        662        679        678        663        664        681        680        664        665        682        681        665        666        683        682        666        667        684        683        667        668        685        684        668        669        686        685        669        670        687        686        670        671        688        687        671        672        689        688        672        673        690        689        673        674        691        690        674        675        692        691        675        676        693        692        676        677        694        693        677        678        695        694        678        679        696        695        680        681        698        697        681        682        699        698        682        683        700        699        683        684        701        700        684        685        702        701        685        686        703        702        686        687        704        703        687        688        705        704        688        689        706        705        689        690        707        706        690        691        708        707        691        692        709        708        692        693        710        709        693        694        711        710        694        695        712        711        695        696        713        712        697        698        715        714        698        699        716        715        699        700        717        716        700        701        718        717        701        702        719        718        702        703        720        719        703        704        721        720        704        705        722        721        705        706        723        722        706        707        724        723        707        708        725        724        708        709        726        725        709        710        727        726        710        711        728        727        711        712        729        728        712        713        730        729        714        715        732        731        715        716        733        732        716        717        734        733        717        718        735        734        718        719        736        735        719        720        737        736        720        721        738        737        721        722        739        738        722        723        740        739        723        724        741        740        724        725        742        741        725        726        743        742        726        727        744        743        727        728        745        744        728        729        746        745        729        730        747        746        731        732        749        748        732        733        750        749        733        734        751        750        734        735        752        751        735        736        753        752        736        737        754        753        737        738        755        754        738        739        756        755        739        740        757        756        740        741        758        757        741        742        759        758        742        743        760        759        743        744        761        760        744        745        762        761        745        746        763        762        746        747        764        763        748        749        766        765        749        750        767        766        750        751        768        767        751        752        769        768        752        753        770        769        753        754        771        770        754        755        772        771        755        756        773        772        756        757        774        773        757        758        775        774        758        759        776        775        759        760        777        776        760        761        778        777        761        762        779        778        762        763        780        779        763        764        781        780        765        766        783        782        766        767        784        783        767        768        785        784        768        769        786        785        769        770        787        786        770        771        788        787        771        772        789        788        772        773        790        789        773        774        791        790        774        775        792        791        775        776        793        792        776        777        794        793        777        778        795        794        778        779        796        795        779        780        797        796        780        781        798        797        782        783        800        799        783        784        801        800        784        785        802        801        785        786        803        802        786        787        804        803        787        788        805        804        788        789        806        805        789        790        807        806        790        791        808        807        791        792        809        808        792        793        810        809        793        794        811        810        794        795        812        811        795        796        813        812        796        797        814        813        797        798        815        814        799        800        817        816        800        801        818        817        801        802        819        818        802        803        820        819        803        804        821        820        804        805        822        821        805        806        823        822        806        807        824        823        807        808        825        824        808        809        826        825        809        810        827        826        810        811        828        827        811        812        829        828        812        813        830        829        813        814        831        830        814        815        832        831        816        817        834        833        817        818        835        834        818        819        836        835        819        820        837        836        820        821        838        837        821        822        839        838        822        823        840        839        823        824        841        840        824        825        842        841        825        826        843        842        826        827        844        843        827        828        845        844        828        829        846        845        829        830        847        846        830        831        848        847        831        832        849        848        833        834        562        561        834        835        563        562        835        836        564        563        836        837        565        564        837        838        566        565        838        839        567        566        839        840        568        567        840        841        569        568        841        842        570        569        842        843        571        570        843        844        572        571        844        845        573        572        845        846        574        573        846        847        575        574        847        848        576        575        848        849        577        576        884        885        579        578        885        886        580        579        886        887        581        580        887        888        582        581        888        889        583        582        889        890        584        583        890        891        585        584        891        892        586        585        892        893        587        586        893        894        588        587        894        895        589        588        895        896        590        589        896        897        591        590        897        898        592        591        898        899        593        592        899        900        594        593        901        902        885        884        902        903        886        885        903        904        887        886        904        905        888        887        905        906        889        888        906        907        890        889        907        908        891        890        908        909        892        891        909        910        893        892        910        911        894        893        911        912        895        894        912        913        896        895        913        914        897        896        914        915        898        897        915        916        899        898        916        917        900        899        918        919        902        901        919        920        903        902        920        921        904        903        921        922        905        904        922        923        906        905        923        924        907        906        924        925        908        907        925        926        909        908        926        927        910        909        927        928        911        910        928        929        912        911        929        930        913        912        930        931        914        913        931        932        915        914        932        933        916        915        933        934        917        916        935        936        919        918        936        937        920        919        937        938        921        920        938        939        922        921        939        940        923        922        940        941        924        923        941        942        925        924        942        943        926        925        943        944        927        926        944        945        928        927        945        946        929        928        946        947        930        929        947        948        931        930        948        949        932        931        949        950        933        932        950        951        934        933        952        953        936        935        953        954        937        936        954        955        938        937        955        956        939        938        956        957        940        939        957        958        941        940        958        959        942        941        959        960        943        942        960        961        944        943        961        962        945        944        962        963        946        945        963        964        947        946        964        965        948        947        965        966        949        948        966        967        950        949        967        968        951        950        969        970        953        952        970        971        954        953        971        972        955        954        972        973        956        955        973        974        957        956        974        975        958        957        975        976        959        958        976        977        960        959        977        978        961        960        978        979        962        961        979        980        963        962        980        981        964        963        981        982        965        964        982        983        966        965        983        984        967        966        984        985        968        967        986        987        970        969        987        988        971        970        988        989        972        971        989        990        973        972        990        991        974        973        991        992        975        974        992        993        976        975        993        994        977        976        994        995        978        977        995        996        979        978        996        997        980        979        997        998        981        980        998        999        982        981        999       1000        983        982       1000       1001        984        983       1001       1002        985        984       1003       1004        987        986       1004       1005        988        987       1005       1006        989        988       1006       1007        990        989       1007       1008        991        990       1008       1009        992        991       1009       1010        993        992       1010       1011        994        993       1011       1012        995        994       1012       1013        996        995       1013       1014        997        996       1014       1015        998        997       1015       1016        999        998       1016       1017       1000        999       1017       1018       1001       1000       1018       1019       1002       1001       1020       1021       1004       1003       1021       1022       1005       1004       1022       1023       1006       1005       1023       1024       1007       1006       1024       1025       1008       1007       1025       1026       1009       1008       1026       1027       1010       1009       1027       1028       1011       1010       1028       1029       1012       1011       1029       1030       1013       1012       1030       1031       1014       1013       1031       1032       1015       1014       1032       1033       1016       1015       1033       1034       1017       1016       1034       1035       1018       1017       1035       1036       1019       1018       1037       1038       1021       1020       1038       1039       1022       1021       1039       1040       1023       1022       1040       1041       1024       1023       1041       1042       1025       1024       1042       1043       1026       1025       1043       1044       1027       1026       1044       1045       1028       1027       1045       1046       1029       1028       1046       1047       1030       1029       1047       1048       1031       1030       1048       1049       1032       1031       1049       1050       1033       1032       1050       1051       1034       1033       1051       1052       1035       1034       1052       1053       1036       1035       1054       1055       1038       1037       1055       1056       1039       1038       1056       1057       1040       1039       1057       1058       1041       1040       1058       1059       1042       1041       1059       1060       1043       1042       1060       1061       1044       1043       1061       1062       1045       1044       1062       1063       1046       1045       1063       1064       1047       1046       1064       1065       1048       1047       1065       1066       1049       1048       1066       1067       1050       1049       1067       1068       1051       1050       1068       1069       1052       1051       1069       1070       1053       1052       1071       1072       1055       1054       1072       1073       1056       1055       1073       1074       1057       1056       1074       1075       1058       1057       1075       1076       1059       1058       1076       1077       1060       1059       1077       1078       1061       1060       1078       1079       1062       1061       1079       1080       1063       1062       1080       1081       1064       1063       1081       1082       1065       1064       1082       1083       1066       1065       1083       1084       1067       1066       1084       1085       1068       1067       1085       1086       1069       1068       1086       1087       1070       1069       1088       1089       1072       1071       1089       1090       1073       1072       1090       1091       1074       1073       1091       1092       1075       1074       1092       1093       1076       1075       1093       1094       1077       1076       1094       1095       1078       1077       1095       1096       1079       1078       1096       1097       1080       1079       1097       1098       1081       1080       1098       1099       1082       1081       1099       1100       1083       1082       1100       1101       1084       1083       1101       1102       1085       1084       1102       1103       1086       1085       1103       1104       1087       1086       1105       1106       1089       1088       1106       1107       1090       1089       1107       1108       1091       1090       1108       1109       1092       1091       1109       1110       1093       1092       1110       1111       1094       1093       1111       1112       1095       1094       1112       1113       1096       1095       1113       1114       1097       1096       1114       1115       1098       1097       1115       1116       1099       1098       1116       1117       1100       1099       1117       1118       1101       1100       1118       1119       1102       1101       1119       1120       1103       1102       1120       1121       1104       1103       1122       1123       1106       1105       1123       1124       1107       1106       1124       1125       1108       1107       1125       1126       1109       1108       1126       1127       1110       1109       1127       1128       1111       1110       1128       1129       1112       1111       1129       1130       1113       1112       1130       1131       1114       1113       1131       1132       1115       1114       1132       1133       1116       1115       1133       1134       1117       1116       1134       1135       1118       1117       1135       1136       1119       1118       1136       1137       1120       1119       1137       1138       1121       1120        272        273       1123       1122        273        274       1124       1123        274        275       1125       1124        275        276       1126       1125        276        277       1127       1126        277        278       1128       1127        278        279       1129       1128        279        280       1130       1129        280        281       1131       1130        281        282       1132       1131        282        283       1133       1132        283        284       1134       1133        284        285       1135       1134        285        286       1136       1135        286        287       1137       1136        287        288       1138       1137 </DataArray>
<DataArray type="Int32"                                    Name="offsets"                                                      NumberOfComponents=" 1" format="ascii">
         4          8         12         16         20         24         28         32         36         40         44         48         52         56         60         64         68         72         76         80         84         88         92         96        100        104        108        112        116        120        124        128        132        136        140        144        148        152        156        160        164        168        172        176        180        184        188        192        196        200        204        208        212        216        220        224        228        232        236        240        244        248        252        256        260        264        268        272        276        280        284        288        292        296        300        304        308        312        316        320        324        328        332        336        340        344        348        352        356        360        364        368        372        376        380        384        388        392        396        400        404        408        412        416        420        424        428        432        436        440        444        448        452        456        460        464        468        472        476        480        484        488        492        496        500        504        508        512        516        520        524        528        532        536        540        544        548        552        556        560        564        568        572        576        580        584        588        592        596        600        604        608        612        616        620        624        628        632        636        640        644        648        652        656        660        664        668        672        676        680        684        688        692        696        700        704        708        712        716        720        724        728        732        736        740        744        748        752        756        760        764        768        772        776        780        784        788        792        796        800        804        808        812        816        820        824        828        832        836        840        844        848        852        856        860        864        868        872        876        880        884        888        892        896        900        904        908        912        916        920        924        928        932        936        940        944        948        952        956        960        964        968        972        976        980        984        988        992        996       1000       1004       1008       1012       1016       1020       1024       1028       1032       1036       1040       1044       1048       1052       1056       1060       1064       1068       1072       1076       1080       1084       1088       1092       1096       1100       1104       1108       1112       1116       1120       1124       1128       1132       1136       1140       1144       1148       1152       1156       1160       1164       1168       1172       1176       1180       1184       1188       1192       1196       1200       1204       1208       1212       1216       1220       1224       1228       1232       1236       1240       1244       1248       1252       1256       1260       1264       1268       1272       1276       1280       1284       1288       1292       1296       1300       1304       1308       1312       1316       1320       1324       1328       1332       1336       1340       1344       1348       1352       1356       1360       1364       1368       1372       1376       1380       1384       1388       1392       1396       1400       1404       1408       1412       1416       1420       1424       1428       1432       1436       1440       1444       1448       1452       1456       1460       1464       1468       1472       1476       1480       1484       1488       1492       1496       1500       1504       1508       1512       1516       1520       1524       1528       1532       1536       1540       1544       1548       1552       1556       1560       1564       1568       1572       1576       1580       1584       1588       1592       1596       1600       1604       1608       1612       1616       1620       1624       1628       1632       1636       1640       1644       1648       1652       1656       1660       1664       1668       1672       1676       1680       1684       1688       1692       1696       1700       1704       1708       1712       1716       1720       1724       1728       1732       1736       1740       1744       1748       1752       1756       1760       1764       1768       1772       1776       1780       1784       1788       1792       1796       1800       1804       1808       1812       1816       1820       1824       1828       1832       1836       1840       1844       1848       1852       1856       1860       1864       1868       1872       1876       1880       1884       1888       1892       1896       1900       1904       1908       1912       1916       1920       1924       1928       1932       1936       1940       1944       1948       1952       1956       1960       1964       1968       1972       1976       1980       1984       1988       1992       1996       2000       2004       2008       2012       2016       2020       2024       2028       2032       2036       2040       2044       2048       2052       2056       2060       2064       2068       2072       2076       2080       2084       2088       2092       2096       2100       2104       2108       2112       2116       2120       2124       2128       2132       2136       2140       2144       2148       2152       2156       2160       2164       2168       2172       2176       2180       2184       2188       2192       2196       2200       2204       2208       2212       2216       2220       2224       2228       2232       2236       2240       2244       2248       2252       2256       2260       2264       2268       2272       2276       2280       2284       2288       2292       2296       2300       2304       2308       2312       2316       2320       2324       2328       2332       2336       2340       2344       2348       2352       2356       2360       2364       2368       2372       2376       2380       2384       2388       2392       2396       2400       2404       2408       2412       2416       2420       2424       2428       2432       2436       2440       2444       2448       2452       2456       2460       2464       2468       2472       2476       2480       2484       2488       2492       2496       2500       2504       2508       2512       2516       2520       2524       2528       2532       2536       2540       2544       2548       2552       2556       2560       2564       2568       2572       2576       2580       2584       2588       2592       2596       2600       2604       2608       2612       2616       2620       2624       2628       2632       2636       2640       2644       2648       2652       2656       2660       2664       2668       2672       2676       2680       2684       2688       2692       2696       2700       2704       2708       2712       2716       2720       2724       2728       2732       2736       2740       2744       2748       2752       2756       2760       2764       2768       2772       2776       2780       2784       2788       2792       2796       2800       2804       2808       2812       2816       2820       2824       2828       2832       2836       2840       2844       2848       2852       2856       2860       2864       2868       2872       2876       2880       2884       2888       2892       2896       2900       2904       2908       2912       2916       2920       2924       2928       2932       2936       2940       2944       2948       2952       2956       2960       2964       2968       2972       2976       2980       2984       2988       2992       2996       3000       3004       3008       3012       3016       3020       3024       3028       3032       3036       3040       3044       3048       3052       3056       3060       3064       3068       3072       3076       3080       3084       3088       3092       3096       3100       3104       3108       3112       3116       3120       3124       3128       3132       3136       3140       3144       3148       3152       3156       3160       3164       3168       3172       3176       3180       3184       3188       3192       3196       3200       3204       3208       3212       3216       3220       3224       3228       3232       3236       3240       3244       3248       3252       3256       3260       3264       3268       3272       3276       3280       3284       3288       3292       3296       3300       3304       3308       3312       3316       3320       3324       3328       3332       3336       3340       3344       3348       3352       3356       3360       3364       3368       3372       3376       3380       3384       3388       3392       3396       3400       3404       3408       3412       3416       3420       3424       3428       3432       3436       3440       3444       3448       3452       3456       3460       3464       3468       3472       3476       3480       3484       3488       3492       3496       3500       3504       3508       3512       3516       3520       3524       3528       3532       3536       3540       3544       3548       3552       3556       3560       3564       3568       3572       3576       3580       3584       3588       3592       3596       3600       3604       3608       3612       3616       3620       3624       3628       3632       3636       3640       3644       3648       3652       3656       3660       3664       3668       3672       3676       3680       3684       3688       3692       3696       3700       3704       3708       3712       3716       3720       3724       3728       3732       3736       3740       3744       3748       3752       3756       3760       3764       3768       3772       3776       3780       3784       3788       3792       3796       3800       3804       3808       3812       3816       3820       3824       3828       3832       3836       3840       3844       3848       3852       3856       3860       3864       3868       3872       3876       3880       3884       3888       3892       3896       3900       3904       3908       3912       3916       3920       3924       3928       3932       3936       3940       3944       3948       3952       3956       3960       3964       3968       3972       3976       3980       3984       3988       3992       3996       4000       4004       4008       4012       4016       4020       4024       4028       4032       4036       4040       4044       4048       4052       4056       4060       4064       4068       4072       4076       4080       4084       4088       4092       4096 </DataArray>
<DataArray type="UInt8"                                    Name="types"                                                      NumberOfComponents=" 1" format="ascii">
         9          9          9          9          9          9          9          9          9          9          9          9          9          9          9          9          9          9          9          9          9          9          9          9          9          9          9          9          9          9          9          9          9          9          9          9          9          9          9          9          9          9          9          9          9          9          9          9          9          9          9          9          9          9          9          9          9          9          9          9          9          9          9          9          9          9          9          9          9          9          9          9          9          9          9          9          9          9          9          9          9          9          9          9          9          9          9          9          9          9          9          9          9          9          9          9          9          9          9          9          9          9          9          9          9          9          9          9          9          9          9          9          9          9          9          9          9          9          9          9          9          9          9          9          9          9          9          9          9          9          9          9          9          9          9          9          9          9          9          9          9          9          9          9          9          9          9          9          9          9          9          9          9          9          9          9          9          9          9          9          9          9          9          9          9          9          9          9          9          9          9          9          9          9          9          9          9          9          9          9          9          9          9          9          9          9          9          9          9          9          9          9          9          9          9          9          9          9          9          9          9          9          9          9          9          9          9          9          9          9          9          9          9          9          9          9          9          9          9          9          9          9          9          9          9          9          9          9          9          9          9          9          9          9          9          9          9          9          9          9          9          9          9          9          9          9          9          9          9          9          9          9          9          9          9          9          9          9          9          9          9          9          9          9          9          9          9          9          9          9          9          9          9          9          9          9          9          9          9          9          9          9          9          9          9          9          9          9          9          9          9          9          9          9          9          9          9          9          9          9          9          9          9          9          9          9          9          9          9          9          9          9          9          9          9          9          9          9          9          9          9          9          9          9          9          9          9          9          9          9          9          9          9          9          9          9          9          9          9          9          9          9          9          9          9          9          9          9          9          9          9          9          9          9          9          9          9          9          9          9          9          9          9          9          9          9          9          9          9          9          9          9          9          9          9          9          9          9          9          9          9          9          9          9          9          9          9          9          9          9          9          9          9          9          9          9          9          9          9          9          9          9          9          9          9          9          9          9          9          9          9          9          9          9          9          9          9          9          9          9          9          9          9          9          9          9          9          9          9          9          9          9          9          9          9          9          9          9          9          9          9          9          9          9          9          9          9          9          9          9          9          9          9          9          9          9          9          9          9          9          9          9          9          9          9          9          9          9          9          9          9          9          9          9          9          9          9          9          9          9          9          9          9          9          9          9          9          9          9          9          9          9          9          9          9          9          9          9          9          9          9          9          9          9          9          9          9          9          9          9          9          9          9          9          9          9          9          9          9          9          9          9          9          9          9          9          9          9          9          9          9          9          9          9          9          9          9          9          9          9          9          9          9          9          9          9          9          9          9          9          9          9          9          9          9          9          9          9          9          9          9          9          9          9          9          9          9          9          9          9          9          9          9          9          9          9          9          9          9          9          9          9          9          9          9          9          9          9          9          9          9          9          9          9          9          9          9          9          9          9          9          9          9          9          9          9          9          9          9          9          9          9          9          9          9          9          9          9          9          9          9          9          9          9          9          9          9          9          9          9          9          9          9          9          9          9          9          9          9          9          9          9          9          9          9          9          9          9          9          9          9          9          9          9          9          9          9          9          9          9          9          9          9          9          9          9          9          9          9          9          9          9          9          9          9          9          9          9          9          9          9          9          9          9          9          9          9          9          9          9          9          9          9          9          9          9          9          9          9          9          9          9          9          9          9          9          9          9          9          9          9          9          9          9          9          9          9          9          9          9          9          9          9          9          9          9          9          9          9          9          9          9          9          9          9          9          9          9          9          9          9          9          9          9          9          9          9          9          9          9          9          9          9          9          9          9          9          9          9          9          9          9          9          9          9          9          9          9          9          9          9          9          9          9          9          9          9          9          9          9          9          9          9          9          9          9          9          9          9          9          9          9          9          9          9          9          9          9          9          9          9          9          9          9          9          9          9          9          9          9          9          9          9          9          9          9          9          9          9          9          9          9          9          9          9          9          9          9          9          9          9          9          9          9          9          9          9          9          9          9          9          9          9          9          9          9          9          9          9          9          9          9          9          9          9          9          9          9          9          9          9          9          9          9          9          9          9          9          9          9          9          9          9          9          9          9          9          9          9          9          9          9          9          9          9          9          9          9          9          9          9          9          9          9          9          9          9          9          9          9          9          9          9          9          9          9          9          9          9          9          9          9          9          9          9          9          9          9          9          9          9          9          9          9          9          9          9          9          9          9          9          9          9          9          9          9          9          9          9          9          9          9          9          9          9          9          9          9          9          9          9          9          9          9          9          9          9          9          9          9          9          9          9          9          9          9          9          9          9          9          9          9          9          9          9          9          9          9          9          9          9          9          9          9          9          9          9          9          9          9          9          9          9          9          9          9          9          9          9          9          9          9          9          9          9          9          9          9          9          9          9          9          9          9          9          9          9          9          9          9          9          9          9          9 </DataArray>
</Cells>
<CellData>
<DataArray type="Int32"                                    Name="material"                                                      NumberOfComponents=" 1" format="ascii">
         1          1          1          1          1          1          1          1          1          1          1          1          1          1          1          1          1          1          1          1          1          1          1          1          1          1          1          1          1          1          1          1          1          1          1          1          1          1          1          1          1          1          1          1          1          1          1          1          1          1          1          1          1          1          1          1          1          1          1          1          1          1          1          1          1          1          1          1          1          1          1          1          1          1          1          1          1          1          1          1          1          1          1          1          1          1          1          1          1          1          1          1          1          1          1          1          1          1          1          1          1          1          1          1          1          1          1          1          1          1          1          1          1          1          1          1          1          1          1          1          1          1          1          1          1          1          1          1          1          1          1          1          1          1          1          1          1          1          1          1          1          1          1          1          1          1          1          1          1          1          1          1          1          1          1          1          1          1          1          1          1          1          1          1          1          1          1          1          1          1          1          1          1          1          1          1          1          1          1          1          1          1          1          1          1          1          1          1          1          1          1          1          1          1          1          1          1          1          1          1          1          1          1          1          1          1          1          1          1          1          1          1          1          1          1          1          1          1          1          1          1          1          1          1          1          1          1          1          1          1          1          1          1          1          1          1          1          1          1          1          1          1          1          1          1          1          1          1          1          1          1          1          1          1          1          1          1          1          1          1          1          1          1          1          1          1          1          1          1          1          1          1          1          1          1          1          1          1          1          1          1          1          1          1          1          1          1          1          1          1          1          1          1          1          1          1          1          1          1          1          1          1          1          1          1          1          1          1          1          1          1          1          1          1          1          1          1          1          1          1          1          1          1          1          1          1          1          1          1          1          1          1          1          1          1          1          1          1          1          1          1          1          1          1          1          1          1          1          1          1          1          1          1          1          1          1          1          1          1          1          1          1          1          1          1          1          1          1          1          1          1          1          1          1          1          1          1          1          1          1          1          1          1          1          1          1          1          1          1          1          1          1          1          1          1          1          1          1          1          1          1          1          1          1          1          1          1          1          1          1          1          1          1          1          1          1          1          1          1          1          1          1          1          1          1          1          1          1          1          1          1          1          1          1          1          1          1          1          1          1          1          1          1          1          1          1          1          1          1          1          1          1          1          1          1          1          1          1          1          1          1          1          1          1          1          1          1          1          1          1          1          1          1          1          1          1          1          1          1          1          1          1          1          1          1          1          1          1          1          1          1          1          1          1          1          1          1          1          1          1          1          1          1          1          1          1          1          1          1          1          1          1          1          1          1          1          1          1          1          1          1          1          1          1          1          1          1          1          1          1          1          1          1          1          1          1          1          1          1          1          1          1          1          1          1          1          1          1          1          1          1          1          1          1          1          1          1          1          1          1          1          1          1          1          1          1          1          1          1          1          1          1          1          1          1          1          1          1          1          1          1          1          1          1          1          1          1          1          1          1          1          1          1          1          1          1          1          1          1          1          1          1          1          1          1          1          1          1          1          1          1          1          1          1          1          1          1          1          1          1          1          1          1          1          1          1          1          1          1          1          1          1          1          1          1          1          1          1          1          1          1          1          1          1          1          1          1          1          1          1          1          1          1          1          1          1          1          1          1          1          1          1          1          1          1          1          1          1          1          1          1          1          1          1          1          1          1          1          1          1          1          1          1          1          1          1          1          1          1          1          1          1          1          1          1          1          1          1          1          1          1          1          1          1          1          1          1          1          1          1          1          1          1          1          1          1          1          1          1          1          1          1          1          1          1          1          1          1          1          1          1          1          1          1          1          1          1          1          1          1          1          1          1          1          1          1          1          1          1          1          1          1          1          1          1          1          1          1          1          1          1          1          1          1          1          1          1          1          1          1          1          1          1          1          1          1          1          1          1          1          1          1          1          1          1          1          1          1          1          1          1          1          1          1          1          1          1          1          1          1          1          1          1          1          1          1          1          1          1          1          1          1          1          1          1          1          1          1          1          1          1          1          1          1          1          1          1          1          1          1          1          1          1          1          1          1          1          1          1          1          1          1          1          1          1          1          1          1          1          1          1          1          1          1          1          1          1          1          1          1          1          1          1          1          1          1          1          1          1          1          1          1          1          1          1          1          1          1          1          1          1          1          1          1          1          1          1          1          1          1          1          1          1          1          1          1          1          1          1          1          1          1          1          1          1          1          1          1          1          1          1          1          1          1          1          1          1          1          1          1          1          1          1          1          1          1          1          1          1          1          1          1          1          1          1          1          1          1          1          1          1          1          1          1          1          1          1          1          1          1          1          1          1          1          1          1          1          1          1          1          1          1          1          1          1          1          1          1          1          1          1          1          1          1          1          1          1          1          1          1          1          1          1          1          1          1          1          1          1          1          1          1          1          1          1          1          1          1          1          1          1          1          1          1          1          1          1          1          1          1          1          1          1          1          1          1          1          1          1          1          1          1          1          1 </DataArray>
</CellData>
<PointData>
<DataArray type="Float64"                                    Name="u"                                                      NumberOfComponents=" 3" format="ascii">
             -0.000837630               0.000000000               0.999999989              -0.000882669               0.000000000               0.999999989              -0.000901597               0.000000000               0.999999989              -0.000911928              -0.000000000               0.999999989              -0.000920102               0.000000000               0.999999989              -0.000928328               0.000000000               0.999999989              -0.000937456               0.000000000               0.999999989              -0.000947498               0.000000000               0.999999989              -0.000958140              -0.000000000               0.999999989              -0.000968995              -0.000000000               0.999999989              -0.000979715              -0.000000000               0.999999989              -0.000989812              -0.000000000               0.999999989              -0.000999097               0.000000000               0.999999989              -0.001007318               0.000000000               0.999999989              -0.001013988              -0.000000000               0.999999989              -0.001018714               0.000000000               0.999999989              -0.001020745               0.000000000               0.999999989              -0.000833091               0.000117768               0.999999989              -0.000874285               0.000093191               0.999999989              -0.000890726               0.000081589               0.999999989              -0.000899346               0.000076415               0.999999989              -0.000906294               0.000074390               0.999999989              -0.000913655               0.000073908               0.999999989              -0.000921957               0.000073884               0.999999989              -0.000931095               0.000073660               0.999999989              -0.000940769               0.000072862               0.999999989              -0.000950481               0.000071116               0.999999989              -0.000959798               0.000068164               0.999999989              -0.000968429               0.000063774               0.999999989              -0.000976086               0.000057606               0.999999989              -0.000982416               0.000049192               0.999999989              -0.000987000               0.000037875               0.999999989              -0.000989473               0.000022834               0.999999989              -0.000989316               0.000003108               0.999999989              -0.000819667               0.000234519               0.999999989              -0.000849595               0.000186082               0.999999989              -0.000858889               0.000164008               0.999999989              -0.000862881               0.000154638               0.999999989              -0.000866620               0.000151509               0.999999989              -0.000871456               0.000151080               0.999999989              -0.000877442               0.000151457               0.999999989              -0.000884235               0.000151277               0.999999989              -0.000891214               0.000149767               0.999999989              -0.000897786               0.000146311               0.999999989              -0.000903423               0.000140575               0.999999989              -0.000907818               0.000132153               0.999999989              -0.000910619               0.000120267               0.999999989              -0.000911480               0.000104117               0.999999989              -0.000910153               0.000082859               0.999999989              -0.000906462               0.000055522               0.999999989              -0.000900311               0.000020770               0.999999989              -0.000797474               0.000349298               0.999999989              -0.000809575               0.000278433               0.999999989              -0.000808435               0.000248042               0.999999989              -0.000806179               0.000236244               0.999999989              -0.000805777               0.000233136               0.999999989              -0.000807336               0.000233666               0.999999989              -0.000810279               0.000234938               0.999999989              -0.000813644               0.000235230               0.999999989              -0.000816591               0.000233228               0.999999989              -0.000818497               0.000228185               0.999999989              -0.000818857               0.000219709               0.999999989              -0.000817185               0.000207291               0.999999989              -0.000813034               0.000190007               0.999999989              -0.000806184               0.000167191               0.999999989              -0.000796596               0.000138172               0.999999989              -0.000784469               0.000102297               0.999999989              -0.000769980               0.000058868               0.999999989              -0.000766702               0.000461120               0.999999989              -0.000756007               0.000370308               0.999999989              -0.000743245               0.000334355               0.999999989              -0.000734808               0.000321987               0.999999989              -0.000730642               0.000319998               0.999999989              -0.000729285               0.000322038               0.999999989              -0.000728957               0.000324421               0.999999989              -0.000728287               0.000325146               0.999999989              -0.000726438               0.000322692               0.999999989              -0.000722647               0.000316121               0.999999989              -0.000716337               0.000304835               0.999999989              -0.000706925               0.000288483               0.999999989              -0.000694183               0.000266335               0.999999989              -0.000678136               0.000237949               0.999999989              -0.000658930               0.000203214               0.999999989              -0.000636943               0.000162058               0.999999989              -0.000612754               0.000114754               0.999999989              -0.000728018               0.000568904               0.999999989              -0.000691626               0.000461885               0.999999989              -0.000668064               0.000423173               0.999999989              -0.000654977               0.000411726               0.999999989              -0.000648282               0.000411533               0.999999989              -0.000644490               0.000415276               0.999999989              -0.000640934               0.000418533               0.999999989              -0.000636010               0.000419344               0.999999989              -0.000628612               0.000416167               0.999999989              -0.000617983               0.000407833               0.999999989              -0.000603561               0.000393798               0.999999989              -0.000584930               0.000373768               0.999999989              -0.000562120               0.000347647               0.999999989              -0.000535480               0.000315467               0.999999989              -0.000505543               0.000277246               0.999999989              -0.000473081               0.000233808               0.999999989              -0.000439139               0.000186652               0.999999989              -0.000682175               0.000671684               0.999999989              -0.000619644               0.000553277               0.999999989              -0.000587897               0.000514165               0.999999989              -0.000572458               0.000504543               0.999999989              -0.000564531               0.000506261               0.999999989              -0.000558897               0.000511445               0.999999989              -0.000552215               0.000515126               0.999999989              -0.000542542               0.000515474               0.999999989              -0.000528823               0.000511219               0.999999989              -0.000510281               0.000500859               0.999999989              -0.000486386               0.000484175               0.999999989              -0.000457322               0.000461204               0.999999989              -0.000423446               0.000432305               0.999999989              -0.000385597               0.000397796               0.999999989              -0.000344680               0.000358393               0.999999989              -0.000301899               0.000315614               0.999999989              -0.000258677               0.000271648               0.999999989              -0.000630032               0.000768551               0.999999989              -0.000543562               0.000644306               0.999999989              -0.000507181               0.000606518               0.999999989              -0.000491843               0.000598847               0.999999989              -0.000483855               0.000602066               0.999999989              -0.000476691               0.000608088               0.999999989              -0.000466487               0.000611777               0.999999989              -0.000451491               0.000611348               0.999999989              -0.000430464               0.000605697               0.999999989              -0.000402712               0.000593355               0.999999989              -0.000368190               0.000574494               0.999999989              -0.000327689               0.000549498               0.999999989              -0.000282110               0.000519073               0.999999989              -0.000232626               0.000484085               0.999999989              -0.000180611               0.000445824               0.999999989              -0.000127761               0.000406042               0.999999989              -0.000075219               0.000366929               0.999999989              -0.000573269               0.000857715               0.999999989              -0.000465827               0.000735076               0.999999989              -0.000429821               0.000698880               0.999999989              -0.000416451               0.000692524               0.999999989              -0.000408990               0.000696801               0.999999989              -0.000400155               0.000703199               0.999999989              -0.000385996               0.000706683               0.999999989              -0.000364696               0.000705416               0.999999989              -0.000335131               0.000698035               0.999999989              -0.000296746               0.000683928               0.999999989              -0.000250458               0.000663562               0.999999989              -0.000197602               0.000637815               0.999999989              -0.000139406               0.000607666               0.999999989              -0.000077541               0.000574445               0.999999989              -0.000013875               0.000540026               0.999999989               0.000050026               0.000506097               0.999999989               0.000113297               0.000473567               0.999999989              -0.000514202               0.000942511               0.999999989              -0.000400375               0.000837912               0.999999989              -0.000362315               0.000798628               0.999999989              -0.000348492               0.000788419               0.999999989              -0.000341577               0.000790300               0.999999989              -0.000334503               0.000796513               0.999999989              -0.000323514               0.000802544               0.999999989              -0.000306392               0.000805756               0.999999989              -0.000281934               0.000804987               0.999999989              -0.000249212               0.000799330               0.999999989              -0.000208703               0.000788846               0.999999989              -0.000161216               0.000773990               0.999999989              -0.000107383               0.000755502               0.999999989              -0.000048267               0.000734190               0.999999989               0.000014673               0.000711102               0.999999989               0.000079862               0.000687631               0.999999989               0.000145770               0.000665097               0.999999989              -0.000449600               0.001020110               0.999999989              -0.000337217               0.000937928               0.999999989              -0.000297137               0.000901570               0.999999989              -0.000282163               0.000889573               0.999999989              -0.000275153               0.000890095               0.999999989              -0.000269097               0.000896350               0.999999989              -0.000260518               0.000904499               0.999999989              -0.000247050               0.000911878               0.999999989              -0.000227118               0.000916910               0.999999989              -0.000200047               0.000918735               0.999999989              -0.000165481               0.000916844               0.999999989              -0.000123872               0.000911542               0.999999989              -0.000075433               0.000903126               0.999999989              -0.000020911               0.000892371               0.999999989               0.000038888               0.000879810               0.999999989               0.000102890               0.000866425               0.999999989               0.000169054               0.000853046               0.999999989              -0.000380824               0.001088445               0.999999989              -0.000276334               0.001032083               0.999999989              -0.000235985               0.001002854               0.999999989              -0.000219762               0.000992179               0.999999989              -0.000212207               0.000992782               0.999999989              -0.000206696               0.000999733               0.999999989              -0.000199681               0.001009934               0.999999989              -0.000189101               0.001021078               0.999999989              -0.000173375               0.001031434               0.999999989              -0.000151596               0.001039981               0.999999989              -0.000123186               0.001046087               0.999999989              -0.000087861               0.001049454               0.999999989              -0.000045594               0.001050278               0.999999989               0.000003205               0.001048981               0.999999989               0.000058207               0.001045914               0.999999989               0.000118900               0.001041819               0.999999989               0.000184203               0.001037423               0.999999989              -0.000308713               0.001145982               0.999999989              -0.000217911               0.001116077               0.999999989              -0.000179837               0.001097185               0.999999989              -0.000163288               0.001090510               0.999999989              -0.000155284               0.001092993               0.999999989              -0.000149852               0.001101621               0.999999989              -0.000143883               0.001114178               0.999999989              -0.000135697               0.001128757               0.999999989              -0.000123694               0.001144003               0.999999989              -0.000106798               0.001158728               0.999999989              -0.000084332               0.001172227               0.999999989              -0.000055755               0.001183940               0.999999989              -0.000020691               0.001193597               0.999999989               0.000021191               0.001201263               0.999999989               0.000069927               0.001207257               0.999999989               0.000125839               0.001212013               0.999999989               0.000188994               0.001216294               0.999999989              -0.000233821               0.001191868               0.999999989              -0.000161614               0.001185901               0.999999989              -0.000129098               0.001178568               0.999999989              -0.000113940               0.001177630               0.999999989              -0.000106116               0.001183392               0.999999989              -0.000100862               0.001194693               0.999999989              -0.000095824               0.001209911               0.999999989              -0.000089789               0.001227829               0.999999989              -0.000081142               0.001247394               0.999999989              -0.000068710               0.001267649               0.999999989              -0.000052076               0.001287872               0.999999989              -0.000030444               0.001307368               0.999999989              -0.000003172               0.001325683               0.999999989               0.000030288               0.001342477               0.999999989               0.000070731               0.001357739               0.999999989               0.000119220               0.001371676               0.999999989               0.000177007               0.001384592               0.999999989              -0.000156932               0.001225148               0.999999989              -0.000106925               0.001238141               0.999999989              -0.000083158               0.001241369               0.999999989              -0.000071404               0.001246545               0.999999989              -0.000064907               0.001256093               0.999999989              -0.000060598               0.001270133               0.999999989              -0.000056897               0.001288010               0.999999989              -0.000052804               0.001308939               0.999999989              -0.000047107               0.001332177               0.999999989              -0.000039040               0.001357059               0.999999989              -0.000028015               0.001382906               0.999999989              -0.000013415               0.001409028               0.999999989               0.000005321               0.001434819               0.999999989               0.000028740               0.001459857               0.999999989               0.000058037               0.001483797               0.999999989               0.000094572               0.001506412               0.999999989               0.000140234               0.001527554               0.999999989              -0.000078780               0.001245337               0.999999989              -0.000053207               0.001270479               0.999999989              -0.000040658               0.001281104               0.999999989              -0.000034207               0.001290770               0.999999989              -0.000030544               0.001303332               0.999999989              -0.000028038               0.001319602               0.999999989              -0.000026044               0.001339438               0.999999989              -0.000023890               0.001362516               0.999999989              -0.000021075               0.001388292               0.999999989              -0.000017145               0.001416248               0.999999989              -0.000011692               0.001445846               0.999999989              -0.000004362               0.001476471               0.999999989               0.000005098               0.001507497               0.999999989               0.000017232               0.001538484               0.999999989               0.000032662               0.001568960               0.999999989               0.000052429               0.001598348               0.999999989               0.000078073               0.001625914               0.999999989               0.000000000               0.001252171               0.999999989              -0.000000000               0.001281452               0.999999989              -0.000000000               0.001294693               0.999999989              -0.000000000               0.001306058               0.999999989              -0.000000000               0.001319794               0.999999989               0.000000000               0.001336918               0.999999989               0.000000000               0.001357522               0.999999989              -0.000000000               0.001381424               0.999999989              -0.000000000               0.001408158               0.999999989               0.000000000               0.001437291               0.999999989               0.000000000               0.001468220               0.999999989               0.000000000               0.001500378               0.999999989               0.000000000               0.001533275               0.999999989              -0.000000000               0.001566413               0.999999989               0.000000000               0.001599314               0.999999989              -0.000000000               0.001631296               0.999999989              -0.000000000               0.001661358               0.999999989              -0.000837630               0.000000000               0.999999989              -0.000882669               0.000000000               0.999999989              -0.000901597               0.000000000               0.999999989              -0.000911928              -0.000000000               0.999999989              -0.000920102               0.000000000               0.999999989              -0.000928328               0.000000000               0.999999989              -0.000937456               0.000000000               0.999999989              -0.000947498               0.000000000               0.999999989              -0.000958140              -0.000000000               0.999999989              -0.000968995              -0.000000000               0.999999989              -0.000979715              -0.000000000               0.999999989              -0.000989812              -0.000000000               0.999999989              -0.000999097               0.000000000               0.999999989              -0.001007318               0.000000000               0.999999989              -0.001013988              -0.000000000               0.999999989              -0.001018714               0.000000000               0.999999989              -0.001020745               0.000000000               0.999999989              -0.000833091              -0.000117768               0.999999989              -0.000874285              -0.000093191               0.999999989              -0.000890726              -0.000081589               0.999999989              -0.000899346              -0.000076415               0.999999989              -0.000906294              -0.000074390               0.999999989              -0.000913655              -0.000073908               0.999999989              -0.000921957              -0.000073884               0.999999989              -0.000931095              -0.000073660               0.999999989              -0.000940769              -0.000072862               0.999999989              -0.000950481              -0.000071116               0.999999989              -0.000959798              -0.000068164               0.999999989              -0.000968429              -0.000063774               0.999999989              -0.000976086              -0.000057606               0.999999989              -0.000982416              -0.000049192               0.999999989              -0.000987000              -0.000037875               0.999999989              -0.000989473              -0.000022834               0.999999989              -0.000989316              -0.000003108               0.999999989              -0.000819667              -0.000234519               0.999999989              -0.000849595              -0.000186082               0.999999989              -0.000858889              -0.000164008               0.999999989              -0.000862881              -0.000154638               0.999999989              -0.000866620              -0.000151509               0.999999989              -0.000871456              -0.000151080               0.999999989              -0.000877442              -0.000151457               0.999999989              -0.000884235              -0.000151277               0.999999989              -0.000891214              -0.000149767               0.999999989              -0.000897786              -0.000146311               0.999999989              -0.000903423              -0.000140575               0.999999989              -0.000907818              -0.000132153               0.999999989              -0.000910619              -0.000120267               0.999999989              -0.000911480              -0.000104117               0.999999989              -0.000910153              -0.000082859               0.999999989              -0.000906462              -0.000055522               0.999999989              -0.000900311              -0.000020770               0.999999989              -0.000797474              -0.000349298               0.999999989              -0.000809575              -0.000278433               0.999999989              -0.000808435              -0.000248042               0.999999989              -0.000806179              -0.000236244               0.999999989              -0.000805777              -0.000233136               0.999999989              -0.000807336              -0.000233666               0.999999989              -0.000810279              -0.000234938               0.999999989              -0.000813644              -0.000235230               0.999999989              -0.000816591              -0.000233228               0.999999989              -0.000818497              -0.000228185               0.999999989              -0.000818857              -0.000219709               0.999999989              -0.000817185              -0.000207291               0.999999989              -0.000813034              -0.000190007               0.999999989              -0.000806184              -0.000167191               0.999999989              -0.000796596              -0.000138172               0.999999989              -0.000784469              -0.000102297               0.999999989              -0.000769980              -0.000058868               0.999999989              -0.000766702              -0.000461120               0.999999989              -0.000756007              -0.000370308               0.999999989              -0.000743245              -0.000334355               0.999999989              -0.000734808              -0.000321987               0.999999989              -0.000730642              -0.000319998               0.999999989              -0.000729285              -0.000322038               0.999999989              -0.000728957              -0.000324421               0.999999989              -0.000728287              -0.000325146               0.999999989              -0.000726438              -0.000322692               0.999999989              -0.000722647              -0.000316121               0.999999989              -0.000716337              -0.000304835               0.999999989              -0.000706925              -0.000288483               0.999999989              -0.000694183              -0.000266335               0.999999989              -0.000678136              -0.000237949               0.999999989              -0.000658930              -0.000203214               0.999999989              -0.000636943              -0.000162058               0.999999989              -0.000612754              -0.000114754               0.999999989              -0.000728018              -0.000568904               0.999999989              -0.000691626              -0.000461885               0.999999989              -0.000668064              -0.000423173               0.999999989              -0.000654977              -0.000411726               0.999999989              -0.000648282              -0.000411533               0.999999989              -0.000644490              -0.000415276               0.999999989              -0.000640934              -0.000418533               0.999999989              -0.000636010              -0.000419344               0.999999989              -0.000628612              -0.000416167               0.999999989              -0.000617983              -0.000407833               0.999999989              -0.000603561              -0.000393798               0.999999989              -0.000584930              -0.000373768               0.999999989              -0.000562120              -0.000347647               0.999999989              -0.000535480              -0.000315467               0.999999989              -0.000505543              -0.000277246               0.999999989              -0.000473081              -0.000233808               0.999999989              -0.000439139              -0.000186652               0.999999989              -0.000682175              -0.000671684               0.999999989              -0.000619644              -0.000553277               0.999999989              -0.000587897              -0.000514165               0.999999989              -0.000572458              -0.000504543               0.999999989              -0.000564531              -0.000506261               0.999999989              -0.000558897              -0.000511445               0.999999989              -0.000552215              -0.000515126               0.999999989              -0.000542542              -0.000515474               0.999999989              -0.000528823              -0.000511219               0.999999989              -0.000510281              -0.000500859               0.999999989              -0.000486386              -0.000484175               0.999999989              -0.000457322              -0.000461204               0.999999989              -0.000423446              -0.000432305               0.999999989              -0.000385597              -0.000397796               0.999999989              -0.000344680              -0.000358393               0.999999989              -0.000301899              -0.000315614               0.999999989              -0.000258677              -0.000271648               0.999999989              -0.000630032              -0.000768551               0.999999989              -0.000543562              -0.000644306               0.999999989              -0.000507181              -0.000606518               0.999999989              -0.000491843              -0.000598847               0.999999989              -0.000483855              -0.000602066               0.999999989              -0.000476691              -0.000608088               0.999999989              -0.000466487              -0.000611777               0.999999989              -0.000451491              -0.000611348               0.999999989              -0.000430464              -0.000605697               0.999999989              -0.000402712              -0.000593355               0.999999989              -0.000368190              -0.000574494               0.999999989              -0.000327689              -0.000549498               0.999999989              -0.000282110              -0.000519073               0.999999989              -0.000232626              -0.000484085               0.999999989              -0.000180611              -0.000445824               0.999999989              -0.000127761              -0.000406042               0.999999989              -0.000075219              -0.000366929               0.999999989              -0.000573269              -0.000857715               0.999999989              -0.000465827              -0.000735076               0.999999989              -0.000429821              -0.000698880               0.999999989              -0.000416451              -0.000692524               0.999999989              -0.000408990              -0.000696801               0.999999989              -0.000400155              -0.000703199               0.999999989              -0.000385996              -0.000706683               0.999999989              -0.000364696              -0.000705416               0.999999989              -0.000335131              -0.000698035               0.999999989              -0.000296746              -0.000683928               0.999999989              -0.000250458              -0.000663562               0.999999989              -0.000197602              -0.000637815               0.999999989              -0.000139406              -0.000607666               0.999999989              -0.000077541              -0.000574445               0.999999989              -0.000013875              -0.000540026               0.999999989               0.000050026              -0.000506097               0.999999989               0.000113297              -0.000473567               0.999999989              -0.000514202              -0.000942511               0.999999989              -0.000400375              -0.000837912               0.999999989              -0.000362315              -0.000798628               0.999999989              -0.000348492              -0.000788419               0.999999989              -0.000341577              -0.000790300               0.999999989              -0.000334503              -0.000796513               0.999999989              -0.000323514              -0.000802544               0.999999989              -0.000306392              -0.000805756               0.999999989              -0.000281934              -0.000804987               0.999999989              -0.000249212              -0.000799330               0.999999989              -0.000208703              -0.000788846               0.999999989              -0.000161216              -0.000773990               0.999999989              -0.000107383              -0.000755502               0.999999989              -0.000048267              -0.000734190               0.999999989               0.000014673              -0.000711102               0.999999989               0.000079862              -0.000687631               0.999999989               0.000145770              -0.000665097               0.999999989              -0.000449600              -0.001020110               0.999999989              -0.000337217              -0.000937928               0.999999989              -0.000297137              -0.000901570               0.999999989              -0.000282163              -0.000889573               0.999999989              -0.000275153              -0.000890095               0.999999989              -0.000269097              -0.000896350               0.999999989              -0.000260518              -0.000904499               0.999999989              -0.000247050              -0.000911878               0.999999989              -0.000227118              -0.000916910               0.999999989              -0.000200047              -0.000918735               0.999999989              -0.000165481              -0.000916844               0.999999989              -0.000123872              -0.000911542               0.999999989              -0.000075433              -0.000903126               0.999999989              -0.000020911              -0.000892371               0.999999989               0.000038888              -0.000879810               0.999999989               0.000102890              -0.000866425               0.999999989               0.000169054              -0.000853046               0.999999989              -0.000380824              -0.001088445               0.999999989              -0.000276334              -0.001032083               0.999999989              -0.000235985              -0.001002854               0.999999989              -0.000219762              -0.000992179               0.999999989              -0.000212207              -0.000992782               0.999999989              -0.000206696              -0.000999733               0.999999989              -0.000199681              -0.001009934               0.999999989              -0.000189101              -0.001021078               0.999999989              -0.000173375              -0.001031434               0.999999989              -0.000151596              -0.001039981               0.999999989              -0.000123186              -0.001046087               0.999999989              -0.000087861              -0.001049454               0.999999989              -0.000045594              -0.001050278               0.999999989               0.000003205              -0.001048981               0.999999989               0.000058207              -0.001045914               0.999999989               0.000118900              -0.001041819               0.999999989               0.000184203              -0.001037423               0.999999989              -0.000308713              -0.001145982               0.999999989              -0.000217911              -0.001116077               0.999999989              -0.000179837              -0.001097185               0.999999989              -0.000163288              -0.001090510               0.999999989              -0.000155284              -0.001092993               0.999999989              -0.000149852              -0.001101621               0.999999989              -0.000143883              -0.001114178               0.999999989              -0.000135697              -0.001128757               0.999999989              -0.000123694              -0.001144003               0.999999989              -0.000106798              -0.001158728               0.999999989              -0.000084332              -0.001172227               0.999999989              -0.000055755              -0.001183940               0.999999989              -0.000020691              -0.001193597               0.999999989               0.000021191              -0.001201263               0.999999989               0.000069927              -0.001207257               0.999999989               0.000125839              -0.001212013               0.999999989               0.000188994              -0.001216294               0.999999989              -0.000233821              -0.001191868               0.999999989              -0.000161614              -0.001185901               0.999999989              -0.000129098              -0.001178568               0.999999989              -0.000113940              -0.001177630               0.999999989              -0.000106116              -0.001183392               0.999999989              -0.000100862              -0.001194693               0.999999989              -0.000095824              -0.001209911               0.999999989              -0.000089789              -0.001227829               0.999999989              -0.000081142              -0.001247394               0.999999989              -0.000068710              -0.001267649               0.999999989              -0.000052076              -0.001287872               0.999999989              -0.000030444              -0.001307368               0.999999989              -0.000003172              -0.001325683               0.999999989               0.000030288              -0.001342477               0.999999989               0.000070731              -0.001357739               0.999999989               0.000119220              -0.001371676               0.999999989               0.000177007              -0.001384592               0.999999989              -0.000156932              -0.001225148               0.999999989              -0.000106925              -0.001238141               0.999999989              -0.000083158              -0.001241369               0.999999989              -0.000071404              -0.001246545               0.999999989              -0.000064907              -0.001256093               0.999999989              -0.000060598              -0.001270133               0.999999989              -0.000056897              -0.001288010               0.999999989              -0.000052804              -0.001308939               0.999999989              -0.000047107              -0.001332177               0.999999989              -0.000039040              -0.001357059               0.999999989              -0.000028015              -0.001382906               0.999999989              -0.000013415              -0.001409028               0.999999989               0.000005321              -0.001434819               0.999999989               0.000028740              -0.001459857               0.999999989               0.000058037              -0.001483797               0.999999989               0.000094572              -0.001506412               0.999999989               0.000140234              -0.001527554               0.999999989              -0.000078780              -0.001245337               0.999999989              -0.000053207              -0.001270479               0.999999989              -0.000040658              -0.001281104               0.999999989              -0.000034207              -0.001290770               0.999999989              -0.000030544              -0.001303332               0.999999989              -0.000028038              -0.001319602               0.999999989              -0.000026044              -0.001339438               0.999999989              -0.000023890              -0.001362516               0.999999989              -0.000021075              -0.001388292               0.999999989              -0.000017145              -0.001416248               0.999999989              -0.000011692              -0.001445846               0.999999989              -0.000004362              -0.001476471               0.999999989               0.000005098              -0.001507497               0.999999989               0.000017232              -0.001538484               0.999999989               0.000032662              -0.001568960               0.999999989               0.000052429              -0.001598348               0.999999989               0.000078073              -0.001625914               0.999999989               0.000000000              -0.001252171               0.999999989               0.000000000              -0.001281452               0.999999989              -0.000000000              -0.001294693               0.999999989               0.000000000              -0.001306058               0.999999989               0.000000000              -0.001319794               0.999999989              -0.000000000              -0.001336918               0.999999989               0.000000000              -0.001357522               0.999999989               0.000000000              -0.001381424               0.999999989              -0.000000000              -0.001408158               0.999999989              -0.000000000              -0.001437291               0.999999989               0.000000000              -0.001468220               0.999999989               0.000000000              -0.001500378               0.999999989              -0.000000000              -0.001533275               0.999999989              -0.000000000              -0.001566413               0.999999989               0.000000000              -0.001599314               0.999999989              -0.000000000              -0.001631296               0.999999989               0.000000000              -0.001661358               0.999999989               0.000837630               0.000000000               0.999999989               0.000882669              -0.000000000               0.999999989               0.000901597               0.000000000               0.999999989               0.000911928               0.000000000               0.999999989               0.000920102               0.000000000               0.999999989               0.000928328               0.000000000               0.999999989               0.000937456              -0.000000000               0.999999989               0.000947498               0.000000000               0.999999989               0.000958140               0.000000000               0.999999989               0.000968995              -0.000000000               0.999999989               0.000979715              -0.000000000               0.999999989               0.000989812              -0.000000000               0.999999989               0.000999097               0.000000000               0.999999989               0.001007318               0.000000000               0.999999989               0.001013988               0.000000000               0.999999989               0.001018714               0.000000000               0.999999989               0.001020745              -0.000000000               0.999999989               0.000833091              -0.000117768               0.999999989               0.000874285              -0.000093191               0.999999989               0.000890726              -0.000081589               0.999999989               0.000899346              -0.000076415               0.999999989               0.000906294              -0.000074390               0.999999989               0.000913655              -0.000073908               0.999999989               0.000921957              -0.000073884               0.999999989               0.000931095              -0.000073660               0.999999989               0.000940769              -0.000072862               0.999999989               0.000950481              -0.000071116               0.999999989               0.000959798              -0.000068164               0.999999989               0.000968429              -0.000063774               0.999999989               0.000976086              -0.000057606               0.999999989               0.000982416              -0.000049192               0.999999989               0.000987000              -0.000037875               0.999999989               0.000989473              -0.000022834               0.999999989               0.000989316              -0.000003108               0.999999989               0.000819667              -0.000234519               0.999999989               0.000849595              -0.000186082               0.999999989               0.000858889              -0.000164008               0.999999989               0.000862881              -0.000154638               0.999999989               0.000866620              -0.000151509               0.999999989               0.000871456              -0.000151080               0.999999989               0.000877442              -0.000151457               0.999999989               0.000884235              -0.000151277               0.999999989               0.000891214              -0.000149767               0.999999989               0.000897786              -0.000146311               0.999999989               0.000903423              -0.000140575               0.999999989               0.000907818              -0.000132153               0.999999989               0.000910619              -0.000120267               0.999999989               0.000911480              -0.000104117               0.999999989               0.000910153              -0.000082859               0.999999989               0.000906462              -0.000055522               0.999999989               0.000900311              -0.000020770               0.999999989               0.000797474              -0.000349298               0.999999989               0.000809575              -0.000278433               0.999999989               0.000808435              -0.000248042               0.999999989               0.000806179              -0.000236244               0.999999989               0.000805777              -0.000233136               0.999999989               0.000807336              -0.000233666               0.999999989               0.000810279              -0.000234938               0.999999989               0.000813644              -0.000235230               0.999999989               0.000816591              -0.000233228               0.999999989               0.000818497              -0.000228185               0.999999989               0.000818857              -0.000219709               0.999999989               0.000817185              -0.000207291               0.999999989               0.000813034              -0.000190007               0.999999989               0.000806184              -0.000167191               0.999999989               0.000796596              -0.000138172               0.999999989               0.000784469              -0.000102297               0.999999989               0.000769980              -0.000058868               0.999999989               0.000766702              -0.000461120               0.999999989               0.000756007              -0.000370308               0.999999989               0.000743245              -0.000334355               0.999999989               0.000734808              -0.000321987               0.999999989               0.000730642              -0.000319998               0.999999989               0.000729285              -0.000322038               0.999999989               0.000728957              -0.000324421               0.999999989               0.000728287              -0.000325146               0.999999989               0.000726438              -0.000322692               0.999999989               0.000722647              -0.000316121               0.999999989               0.000716337              -0.000304835               0.999999989               0.000706925              -0.000288483               0.999999989               0.000694183              -0.000266335               0.999999989               0.000678136              -0.000237949               0.999999989               0.000658930              -0.000203214               0.999999989               0.000636943              -0.000162058               0.999999989               0.000612754              -0.000114754               0.999999989               0.000728018              -0.000568904               0.999999989               0.000691626              -0.000461885               0.999999989               0.000668064              -0.000423173               0.999999989               0.000654977              -0.000411726               0.999999989               0.000648282              -0.000411533               0.999999989               0.000644490              -0.000415276               0.999999989               0.000640934              -0.000418533               0.999999989               0.000636010              -0.000419344               0.999999989               0.000628612              -0.000416167               0.999999989               0.000617983              -0.000407833               0.999999989               0.000603561              -0.000393798               0.999999989               0.000584930              -0.000373768               0.999999989               0.000562120              -0.000347647               0.999999989               0.000535480              -0.000315467               0.999999989               0.000505543              -0.000277246               0.999999989               0.000473081              -0.000233808               0.999999989               0.000439139              -0.000186652               0.999999989               0.000682175              -0.000671684               0.999999989               0.000619644              -0.000553277               0.999999989               0.000587897              -0.000514165               0.999999989               0.000572458              -0.000504543               0.999999989               0.000564531              -0.000506261               0.999999989               0.000558897              -0.000511445               0.999999989               0.000552215              -0.000515126               0.999999989               0.000542542              -0.000515474               0.999999989               0.000528823              -0.000511219               0.999999989               0.000510281              -0.000500859               0.999999989               0.000486386              -0.000484175               0.999999989               0.000457322              -0.000461204               0.999999989               0.000423446              -0.000432305               0.999999989               0.000385597              -0.000397796               0.999999989               0.000344680              -0.000358393               0.999999989               0.000301899              -0.000315614               0.999999989               0.000258677              -0.000271648               0.999999989               0.000630032              -0.000768551               0.999999989               0.000543562              -0.000644306               0.999999989               0.000507181              -0.000606518               0.999999989               0.000491843              -0.000598847               0.999999989               0.000483855              -0.000602066               0.999999989               0.000476691              -0.000608088               0.999999989               0.000466487              -0.000611777               0.999999989               0.000451491              -0.000611348               0.999999989               0.000430464              -0.000605697               0.999999989               0.000402712              -0.000593355               0.999999989               0.000368190              -0.000574494               0.999999989               0.000327689              -0.000549498               0.999999989               0.000282110              -0.000519073               0.999999989               0.000232626              -0.000484085               0.999999989               0.000180611              -0.000445824               0.999999989               0.000127761              -0.000406042               0.999999989               0.000075219              -0.000366929               0.999999989               0.000573269              -0.000857715               0.999999989               0.000465827              -0.000735076               0.999999989               0.000429821              -0.000698880               0.999999989               0.000416451              -0.000692524               0.999999989               0.000408990              -0.000696801               0.999999989               0.000400155              -0.000703199               0.999999989               0.000385996              -0.000706683               0.999999989               0.000364696              -0.000705416               0.999999989               0.000335131              -0.000698035               0.999999989               0.000296746              -0.000683928               0.999999989               0.000250458              -0.000663562               0.999999989               0.000197602              -0.000637815               0.999999989               0.000139406              -0.000607666               0.999999989               0.000077541              -0.000574445               0.999999989               0.000013875              -0.000540026               0.999999989              -0.000050026              -0.000506097               0.999999989              -0.000113297              -0.000473567               0.999999989               0.000514202              -0.000942511               0.999999989               0.000400375              -0.000837912               0.999999989               0.000362315              -0.000798628               0.999999989               0.000348492              -0.000788419               0.999999989               0.000341577              -0.000790300               0.999999989               0.000334503              -0.000796513               0.999999989               0.000323514              -0.000802544               0.999999989               0.000306392              -0.000805756               0.999999989               0.000281934              -0.000804987               0.999999989               0.000249212              -0.000799330               0.999999989               0.000208703              -0.000788846               0.999999989               0.000161216              -0.000773990               0.999999989               0.000107383              -0.000755502               0.999999989               0.000048267              -0.000734190               0.999999989              -0.000014673              -0.000711102               0.999999989              -0.000079862              -0.000687631               0.999999989              -0.000145770              -0.000665097               0.999999989               0.000449600              -0.001020110               0.999999989               0.000337217              -0.000937928               0.999999989               0.000297137              -0.000901570               0.999999989               0.000282163              -0.000889573               0.999999989               0.000275153              -0.000890095               0.999999989               0.000269097              -0.000896350               0.999999989               0.000260518              -0.000904499               0.999999989               0.000247050              -0.000911878               0.999999989               0.000227118              -0.000916910               0.999999989               0.000200047              -0.000918735               0.999999989               0.000165481              -0.000916844               0.999999989               0.000123872              -0.000911542               0.999999989               0.000075433              -0.000903126               0.999999989               0.000020911              -0.000892371               0.999999989              -0.000038888              -0.000879810               0.999999989              -0.000102890              -0.000866425               0.999999989              -0.000169054              -0.000853046               0.999999989               0.000380824              -0.001088445               0.999999989               0.000276334              -0.001032083               0.999999989               0.000235985              -0.001002854               0.999999989               0.000219762              -0.000992179               0.999999989               0.000212207              -0.000992782               0.999999989               0.000206696              -0.000999733               0.999999989               0.000199681              -0.001009934               0.999999989               0.000189101              -0.001021078               0.999999989               0.000173375              -0.001031434               0.999999989               0.000151596              -0.001039981               0.999999989               0.000123186              -0.001046087               0.999999989               0.000087861              -0.001049454               0.999999989               0.000045594              -0.001050278               0.999999989              -0.000003205              -0.001048981               0.999999989              -0.000058207              -0.001045914               0.999999989              -0.000118900              -0.001041819               0.999999989              -0.000184203              -0.001037423               0.999999989               0.000308713              -0.001145982               0.999999989               0.000217911              -0.001116077               0.999999989               0.000179837              -0.001097185               0.999999989               0.000163288              -0.001090510               0.999999989               0.000155284              -0.001092993               0.999999989               0.000149852              -0.001101621               0.999999989               0.000143883              -0.001114178               0.999999989               0.000135697              -0.001128757               0.999999989               0.000123694              -0.001144003               0.999999989               0.000106798              -0.001158728               0.999999989               0.000084332              -0.001172227               0.999999989               0.000055755              -0.001183940               0.999999989               0.000020691              -0.001193597               0.999999989              -0.000021191              -0.001201263               0.999999989              -0.000069927              -0.001207257               0.999999989              -0.000125839              -0.001212013               0.999999989              -0.000188994              -0.001216294               0.999999989               0.000233821              -0.001191868               0.999999989               0.000161614              -0.001185901               0.999999989               0.000129098              -0.001178568               0.999999989               0.000113940              -0.001177630               0.999999989               0.000106116              -0.001183392               0.999999989               0.000100862              -0.001194693               0.999999989               0.000095824              -0.001209911               0.999999989               0.000089789              -0.001227829               0.999999989               0.000081142              -0.001247394               0.999999989               0.000068710              -0.001267649               0.999999989               0.000052076              -0.001287872               0.999999989               0.000030444              -0.001307368               0.999999989               0.000003172              -0.001325683               0.999999989              -0.000030288              -0.001342477               0.999999989              -0.000070731              -0.001357739               0.999999989              -0.000119220              -0.001371676               0.999999989              -0.000177007              -0.001384592               0.999999989               0.000156932              -0.001225148               0.999999989               0.000106925              -0.001238141               0.999999989               0.000083158              -0.001241369               0.999999989               0.000071404              -0.001246545               0.999999989               0.000064907              -0.001256093               0.999999989               0.000060598              -0.001270133               0.999999989               0.000056897              -0.001288010               0.999999989               0.000052804              -0.001308939               0.999999989               0.000047107              -0.001332177               0.999999989               0.000039040              -0.001357059               0.999999989               0.000028015              -0.001382906               0.999999989               0.000013415              -0.001409028               0.999999989              -0.000005321              -0.001434819               0.999999989              -0.000028740              -0.001459857               0.999999989              -0.000058037              -0.001483797               0.999999989              -0.000094572              -0.001506412               0.999999989              -0.000140234              -0.001527554               0.999999989               0.000078780              -0.001245337               0.999999989               0.000053207              -0.001270479               0.999999989               0.000040658              -0.001281104               0.999999989               0.000034207              -0.001290770               0.999999989               0.000030544              -0.001303332               0.999999989               0.000028038              -0.001319602               0.999999989               0.000026044              -0.001339438               0.999999989               0.000023890              -0.001362516               0.999999989               0.000021075              -0.001388292               0.999999989               0.000017145              -0.001416248               0.999999989               0.000011692              -0.001445846               0.999999989               0.000004362              -0.001476471               0.999999989              -0.000005098              -0.001507497               0.999999989              -0.000017232              -0.001538484               0.999999989              -0.000032662              -0.001568960               0.999999989              -0.000052429              -0.001598348               0.999999989              -0.000078073              -0.001625914               0.999999989               0.000000000              -0.001252171               0.999999989               0.000000000              -0.001281452               0.999999989              -0.000000000              -0.001294693               0.999999989               0.000000000              -0.001306058               0.999999989               0.000000000              -0.001319794               0.999999989              -0.000000000              -0.001336918               0.999999989               0.000000000              -0.001357522               0.999999989               0.000000000              -0.001381424               0.999999989              -0.000000000              -0.001408158               0.999999989              -0.000000000              -0.001437291               0.999999989               0.000000000              -0.001468220               0.999999989               0.000000000              -0.001500378               0.999999989              -0.000000000              -0.001533275               0.999999989              -0.000000000              -0.001566413               0.999999989               0.000000000              -0.001599314               0.999999989              -0.000000000              -0.001631296               0.999999989               0.000000000              -0.001661358               0.999999989               0.000837630               0.000000000               0.999999989               0.000882669              -0.000000000               0.999999989               0.000901597               0.000000000               0.999999989               0.000911928               0.000000000               0.999999989               0.000920102               0.000000000               0.999999989               0.000928328               0.000000000               0.999999989               0.000937456              -0.000000000               0.999999989               0.000947498               0.000000000               0.999999989               0.000958140               0.000000000               0.999999989               0.000968995              -0.000000000               0.999999989               0.000979715              -0.000000000               0.999999989               0.000989812              -0.000000000               0.999999989               0.000999097               0.000000000               0.999999989               0.001007318               0.000000000               0.999999989               0.001013988               0.000000000               0.999999989               0.001018714               0.000000000               0.999999989               0.001020745              -0.000000000               0.999999989               0.000833091               0.000117768               0.999999989               0.000874285               0.000093191               0.999999989               0.000890726               0.000081589               0.999999989               0.000899346               0.000076415               0.999999989               0.000906294               0.000074390               0.999999989               0.000913655               0.000073908               0.999999989               0.000921957               0.000073884               0.999999989               0.000931095               0.000073660               0.999999989               0.000940769               0.000072862               0.999999989               0.000950481               0.000071116               0.999999989               0.000959798               0.000068164               0.999999989               0.000968429               0.000063774               0.999999989               0.000976086               0.000057606               0.999999989               0.000982416               0.000049192               0.999999989               0.000987000               0.000037875               0.999999989               0.000989473               0.000022834               0.999999989               0.000989316               0.000003108               0.999999989               0.000819667               0.000234519               0.999999989               0.000849595               0.000186082               0.999999989               0.000858889               0.000164008               0.999999989               0.000862881               0.000154638               0.999999989               0.000866620               0.000151509               0.999999989               0.000871456               0.000151080               0.999999989               0.000877442               0.000151457               0.999999989               0.000884235               0.000151277               0.999999989               0.000891214               0.000149767               0.999999989               0.000897786               0.000146311               0.999999989               0.000903423               0.000140575               0.999999989               0.000907818               0.000132153               0.999999989               0.000910619               0.000120267               0.999999989               0.000911480               0.000104117               0.999999989               0.000910153               0.000082859               0.999999989               0.000906462               0.000055522               0.999999989               0.000900311               0.000020770               0.999999989               0.000797474               0.000349298               0.999999989               0.000809575               0.000278433               0.999999989               0.000808435               0.000248042               0.999999989               0.000806179               0.000236244               0.999999989               0.000805777               0.000233136               0.999999989               0.000807336               0.000233666               0.999999989               0.000810279               0.000234938               0.999999989               0.000813644               0.000235230               0.999999989               0.000816591               0.000233228               0.999999989               0.000818497               0.000228185               0.999999989               0.000818857               0.000219709               0.999999989               0.000817185               0.000207291               0.999999989               0.000813034               0.000190007               0.999999989               0.000806184               0.000167191               0.999999989               0.000796596               0.000138172               0.999999989               0.000784469               0.000102297               0.999999989               0.000769980               0.000058868               0.999999989               0.000766702               0.000461120               0.999999989               0.000756007               0.000370308               0.999999989               0.000743245               0.000334355               0.999999989               0.000734808               0.000321987               0.999999989               0.000730642               0.000319998               0.999999989               0.000729285               0.000322038               0.999999989               0.000728957               0.000324421               0.999999989               0.000728287               0.000325146               0.999999989               0.000726438               0.000322692               0.999999989               0.000722647               0.000316121               0.999999989               0.000716337               0.000304835               0.999999989               0.000706925               0.000288483               0.999999989               0.000694183               0.000266335               0.999999989               0.000678136               0.000237949               0.999999989               0.000658930               0.000203214               0.999999989               0.000636943               0.000162058               0.999999989               0.000612754               0.000114754               0.999999989               0.000728018               0.000568904               0.999999989               0.000691626               0.000461885               0.999999989               0.000668064               0.000423173               0.999999989               0.000654977               0.000411726               0.999999989               0.000648282               0.000411533               0.999999989               0.000644490               0.000415276               0.999999989               0.000640934               0.000418533               0.999999989               0.000636010               0.000419344               0.999999989               0.000628612               0.000416167               0.999999989               0.000617983               0.000407833               0.999999989               0.000603561               0.000393798               0.999999989               0.000584930               0.000373768               0.999999989               0.000562120               0.000347647               0.999999989               0.000535480               0.000315467               0.999999989               0.000505543               0.000277246               0.999999989               0.000473081               0.000233808               0.999999989               0.000439139               0.000186652               0.999999989               0.000682175               0.000671684               0.999999989               0.000619644               0.000553277               0.999999989               0.000587897               0.000514165               0.999999989               0.000572458               0.000504543               0.999999989               0.000564531               0.000506261               0.999999989               0.000558897               0.000511445               0.999999989               0.000552215               0.000515126               0.999999989               0.000542542               0.000515474               0.999999989               0.000528823               0.000511219               0.999999989               0.000510281               0.000500859               0.999999989               0.000486386               0.000484175               0.999999989               0.000457322               0.000461204               0.999999989               0.000423446               0.000432305               0.999999989               0.000385597               0.000397796               0.999999989               0.000344680               0.000358393               0.999999989               0.000301899               0.000315614               0.999999989               0.000258677               0.000271648               0.999999989               0.000630032               0.000768551               0.999999989               0.000543562               0.000644306               0.999999989               0.000507181               0.000606518               0.999999989               0.000491843               0.000598847               0.999999989               0.000483855               0.000602066               0.999999989               0.000476691               0.000608088               0.999999989               0.000466487               0.000611777               0.999999989               0.000451491               0.000611348               0.999999989               0.000430464               0.000605697               0.999999989               0.000402712               0.000593355               0.999999989               0.000368190               0.000574494               0.999999989               0.000327689               0.000549498               0.999999989               0.000282110               0.000519073               0.999999989               0.000232626               0.000484085               0.999999989               0.000180611               0.000445824               0.999999989               0.000127761               0.000406042               0.999999989               0.000075219               0.000366929               0.999999989               0.000573269               0.000857715               0.999999989               0.000465827               0.000735076               0.999999989               0.000429821               0.000698880               0.999999989               0.000416451               0.000692524               0.999999989               0.000408990               0.000696801               0.999999989               0.000400155               0.000703199               0.999999989               0.000385996               0.000706683               0.999999989               0.000364696               0.000705416               0.999999989               0.000335131               0.000698035               0.999999989               0.000296746               0.000683928               0.999999989               0.000250458               0.000663562               0.999999989               0.000197602               0.000637815               0.999999989               0.000139406               0.000607666               0.999999989               0.000077541               0.000574445               0.999999989               0.000013875               0.000540026               0.999999989              -0.000050026               0.000506097               0.999999989              -0.000113297               0.000473567               0.999999989               0.000514202               0.000942511               0.999999989               0.000400375               0.000837912               0.999999989               0.000362315               0.000798628               0.999999989               0.000348492               0.000788419               0.999999989               0.000341577               0.000790300               0.999999989               0.000334503               0.000796513               0.999999989               0.000323514               0.000802544               0.999999989               0.000306392               0.000805756               0.999999989               0.000281934               0.000804987               0.999999989               0.000249212               0.000799330               0.999999989               0.000208703               0.000788846               0.999999989               0.000161216               0.000773990               0.999999989               0.000107383               0.000755502               0.999999989               0.000048267               0.000734190               0.999999989              -0.000014673               0.000711102               0.999999989              -0.000079862               0.000687631               0.999999989              -0.000145770               0.000665097               0.999999989               0.000449600               0.001020110               0.999999989               0.000337217               0.000937928               0.999999989               0.000297137               0.000901570               0.999999989               0.000282163               0.000889573               0.999999989               0.000275153               0.000890095               0.999999989               0.000269097               0.000896350               0.999999989               0.000260518               0.000904499               0.999999989               0.000247050               0.000911878               0.999999989               0.000227118               0.000916910               0.999999989               0.000200047               0.000918735               0.999999989               0.000165481               0.000916844               0.999999989               0.000123872               0.000911542               0.999999989               0.000075433               0.000903126               0.999999989               0.000020911               0.000892371               0.999999989              -0.000038888               0.000879810               0.999999989              -0.000102890               0.000866425               0.999999989              -0.000169054               0.000853046               0.999999989               0.000380824               0.001088445               0.999999989               0.000276334               0.001032083               0.999999989               0.000235985               0.001002854               0.999999989               0.000219762               0.000992179               0.999999989               0.000212207               0.000992782               0.999999989               0.000206696               0.000999733               0.999999989               0.000199681               0.001009934               0.999999989               0.000189101               0.001021078               0.999999989               0.000173375               0.001031434               0.999999989               0.000151596               0.001039981               0.999999989               0.000123186               0.001046087               0.999999989               0.000087861               0.001049454               0.999999989               0.000045594               0.001050278               0.999999989              -0.000003205               0.001048981               0.999999989              -0.000058207               0.001045914               0.999999989              -0.000118900               0.001041819               0.999999989              -0.000184203               0.001037423               0.999999989               0.000308713               0.001145982               0.999999989               0.000217911               0.001116077               0.999999989               0.000179837               0.001097185               0.999999989               0.000163288               0.001090510               0.999999989               0.000155284               0.001092993               0.999999989               0.000149852               0.001101621               0.999999989               0.000143883               0.001114178               0.999999989               0.000135697               0.001128757               0.999999989               0.000123694               0.001144003               0.999999989               0.000106798               0.001158728               0.999999989               0.000084332               0.001172227               0.999999989               0.000055755               0.001183940               0.999999989               0.000020691               0.001193597               0.999999989              -0.000021191               0.001201263               0.999999989              -0.000069927               0.001207257               0.999999989              -0.000125839               0.001212013               0.999999989              -0.000188994               0.001216294               0.999999989               0.000233821               0.001191868               0.999999989               0.000161614               0.001185901               0.999999989               0.000129098               0.001178568               0.999999989               0.000113940               0.001177630               0.999999989               0.000106116               0.001183392               0.999999989               0.000100862               0.001194693               0.999999989               0.000095824               0.001209911               0.999999989               0.000089789               0.001227829               0.999999989               0.000081142               0.001247394               0.999999989               0.000068710               0.001267649               0.999999989               0.000052076               0.001287872               0.999999989               0.000030444               0.001307368               0.999999989               0.000003172               0.001325683               0.999999989              -0.000030288               0.001342477               0.999999989              -0.000070731               0.001357739               0.999999989              -0.000119220               0.001371676               0.999999989              -0.000177007               0.001384592               0.999999989               0.000156932               0.001225148               0.999999989               0.000106925               0.001238141               0.999999989               0.000083158               0.001241369               0.999999989               0.000071404               0.001246545               0.999999989               0.000064907               0.001256093               0.999999989               0.000060598               0.001270133               0.999999989               0.000056897               0.001288010               0.999999989               0.000052804               0.001308939               0.999999989               0.000047107               0.001332177               0.999999989               0.000039040               0.001357059               0.999999989               0.000028015               0.001382906               0.999999989               0.000013415               0.001409028               0.999999989              -0.000005321               0.001434819               0.999999989              -0.000028740               0.001459857               0.999999989              -0.000058037               0.001483797               0.999999989              -0.000094572               0.001506412               0.999999989              -0.000140234               0.001527554               0.999999989               0.000078780               0.001245337               0.999999989               0.000053207               0.001270479               0.999999989               0.000040658               0.001281104               0.999999989               0.000034207               0.001290770               0.999999989               0.000030544               0.001303332               0.999999989               0.000028038               0.001319602               0.999999989               0.000026044               0.001339438               0.999999989               0.000023890               0.001362516               0.999999989               0.000021075               0.001388292               0.999999989               0.000017145               0.001416248               0.999999989               0.000011692               0.001445846               0.999999989               0.000004362               0.001476471               0.999999989              -0.000005098               0.001507497               0.999999989              -0.000017232               0.001538484               0.999999989              -0.000032662               0.001568960               0.999999989              -0.000052429               0.001598348               0.999999989              -0.000078073               0.001625914               0.999999989               0.000000000               0.001252171               0.999999989              -0.000000000               0.001281452               0.999999989              -0.000000000               0.001294693               0.999999989              -0.000000000               0.001306058               0.999999989              -0.000000000               0.001319794               0.999999989               0.000000000               0.001336918               0.999999989               0.000000000               0.001357522               0.999999989              -0.000000000               0.001381424               0.999999989              -0.000000000               0.001408158               0.999999989               0.000000000               0.001437291               0.999999989               0.000000000               0.001468220               0.999999989               0.000000000               0.001500378               0.999999989               0.000000000               0.001533275               0.999999989              -0.000000000               0.001566413               0.999999989               0.000000000               0.001599314               0.999999989              -0.000000000               0.001631296               0.999999989              -0.000000000               0.001661358               0.999999989 </DataArray>
<DataArray type="Float64"                                    Name="defo"                                                      NumberOfComponents=" 3" format="ascii">
             -0.000837630               0.000000000               0.999999989              -0.000882669               0.000000000               0.999999989              -0.000901597               0.000000000               0.999999989              -0.000911928              -0.000000000               0.999999989              -0.000920102               0.000000000               0.999999989              -0.000928328               0.000000000               0.999999989              -0.000937456               0.000000000               0.999999989              -0.000947498               0.000000000               0.999999989              -0.000958140              -0.000000000               0.999999989              -0.000968995              -0.000000000               0.999999989              -0.000979715              -0.000000000               0.999999989              -0.000989812              -0.000000000               0.999999989              -0.000999097               0.000000000               0.999999989              -0.001007318               0.000000000               0.999999989              -0.001013988              -0.000000000               0.999999989              -0.001018714               0.000000000               0.999999989              -0.001020745               0.000000000               0.999999989              -0.000833091               0.000117768               0.999999989              -0.000874285               0.000093191               0.999999989              -0.000890726               0.000081589               0.999999989              -0.000899346               0.000076415               0.999999989              -0.000906294               0.000074390               0.999999989              -0.000913655               0.000073908               0.999999989              -0.000921957               0.000073884               0.999999989              -0.000931095               0.000073660               0.999999989              -0.000940769               0.000072862               0.999999989              -0.000950481               0.000071116               0.999999989              -0.000959798               0.000068164               0.999999989              -0.000968429               0.000063774               0.999999989              -0.000976086               0.000057606               0.999999989              -0.000982416               0.000049192               0.999999989              -0.000987000               0.000037875               0.999999989              -0.000989473               0.000022834               0.999999989              -0.000989316               0.000003108               0.999999989              -0.000819667               0.000234519               0.999999989              -0.000849595               0.000186082               0.999999989              -0.000858889               0.000164008               0.999999989              -0.000862881               0.000154638               0.999999989              -0.000866620               0.000151509               0.999999989              -0.000871456               0.000151080               0.999999989              -0.000877442               0.000151457               0.999999989              -0.000884235               0.000151277               0.999999989              -0.000891214               0.000149767               0.999999989              -0.000897786               0.000146311               0.999999989              -0.000903423               0.000140575               0.999999989              -0.000907818               0.000132153               0.999999989              -0.000910619               0.000120267               0.999999989              -0.000911480               0.000104117               0.999999989              -0.000910153               0.000082859               0.999999989              -0.000906462               0.000055522               0.999999989              -0.000900311               0.000020770               0.999999989              -0.000797474               0.000349298               0.999999989              -0.000809575               0.000278433               0.999999989              -0.000808435               0.000248042               0.999999989              -0.000806179               0.000236244               0.999999989              -0.000805777               0.000233136               0.999999989              -0.000807336               0.000233666               0.999999989              -0.000810279               0.000234938               0.999999989              -0.000813644               0.000235230               0.999999989              -0.000816591               0.000233228               0.999999989              -0.000818497               0.000228185               0.999999989              -0.000818857               0.000219709               0.999999989              -0.000817185               0.000207291               0.999999989              -0.000813034               0.000190007               0.999999989              -0.000806184               0.000167191               0.999999989              -0.000796596               0.000138172               0.999999989              -0.000784469               0.000102297               0.999999989              -0.000769980               0.000058868               0.999999989              -0.000766702               0.000461120               0.999999989              -0.000756007               0.000370308               0.999999989              -0.000743245               0.000334355               0.999999989              -0.000734808               0.000321987               0.999999989              -0.000730642               0.000319998               0.999999989              -0.000729285               0.000322038               0.999999989              -0.000728957               0.000324421               0.999999989              -0.000728287               0.000325146               0.999999989              -0.000726438               0.000322692               0.999999989              -0.000722647               0.000316121               0.999999989              -0.000716337               0.000304835               0.999999989              -0.000706925               0.000288483               0.999999989              -0.000694183               0.000266335               0.999999989              -0.000678136               0.000237949               0.999999989              -0.000658930               0.000203214               0.999999989              -0.000636943               0.000162058               0.999999989              -0.000612754               0.000114754               0.999999989              -0.000728018               0.000568904               0.999999989              -0.000691626               0.000461885               0.999999989              -0.000668064               0.000423173               0.999999989              -0.000654977               0.000411726               0.999999989              -0.000648282               0.000411533               0.999999989              -0.000644490               0.000415276               0.999999989              -0.000640934               0.000418533               0.999999989              -0.000636010               0.000419344               0.999999989              -0.000628612               0.000416167               0.999999989              -0.000617983               0.000407833               0.999999989              -0.000603561               0.000393798               0.999999989              -0.000584930               0.000373768               0.999999989              -0.000562120               0.000347647               0.999999989              -0.000535480               0.000315467               0.999999989              -0.000505543               0.000277246               0.999999989              -0.000473081               0.000233808               0.999999989              -0.000439139               0.000186652               0.999999989              -0.000682175               0.000671684               0.999999989              -0.000619644               0.000553277               0.999999989              -0.000587897               0.000514165               0.999999989              -0.000572458               0.000504543               0.999999989              -0.000564531               0.000506261               0.999999989              -0.000558897               0.000511445               0.999999989              -0.000552215               0.000515126               0.999999989              -0.000542542               0.000515474               0.999999989              -0.000528823               0.000511219               0.999999989              -0.000510281               0.000500859               0.999999989              -0.000486386               0.000484175               0.999999989              -0.000457322               0.000461204               0.999999989              -0.000423446               0.000432305               0.999999989              -0.000385597               0.000397796               0.999999989              -0.000344680               0.000358393               0.999999989              -0.000301899               0.000315614               0.999999989              -0.000258677               0.000271648               0.999999989              -0.000630032               0.000768551               0.999999989              -0.000543562               0.000644306               0.999999989              -0.000507181               0.000606518               0.999999989              -0.000491843               0.000598847               0.999999989              -0.000483855               0.000602066               0.999999989              -0.000476691               0.000608088               0.999999989              -0.000466487               0.000611777               0.999999989              -0.000451491               0.000611348               0.999999989              -0.000430464               0.000605697               0.999999989              -0.000402712               0.000593355               0.999999989              -0.000368190               0.000574494               0.999999989              -0.000327689               0.000549498               0.999999989              -0.000282110               0.000519073               0.999999989              -0.000232626               0.000484085               0.999999989              -0.000180611               0.000445824               0.999999989              -0.000127761               0.000406042               0.999999989              -0.000075219               0.000366929               0.999999989              -0.000573269               0.000857715               0.999999989              -0.000465827               0.000735076               0.999999989              -0.000429821               0.000698880               0.999999989              -0.000416451               0.000692524               0.999999989              -0.000408990               0.000696801               0.999999989              -0.000400155               0.000703199               0.999999989              -0.000385996               0.000706683               0.999999989              -0.000364696               0.000705416               0.999999989              -0.000335131               0.000698035               0.999999989              -0.000296746               0.000683928               0.999999989              -0.000250458               0.000663562               0.999999989              -0.000197602               0.000637815               0.999999989              -0.000139406               0.000607666               0.999999989              -0.000077541               0.000574445               0.999999989              -0.000013875               0.000540026               0.999999989               0.000050026               0.000506097               0.999999989               0.000113297               0.000473567               0.999999989              -0.000514202               0.000942511               0.999999989              -0.000400375               0.000837912               0.999999989              -0.000362315               0.000798628               0.999999989              -0.000348492               0.000788419               0.999999989              -0.000341577               0.000790300               0.999999989              -0.000334503               0.000796513               0.999999989              -0.000323514               0.000802544               0.999999989              -0.000306392               0.000805756               0.999999989              -0.000281934               0.000804987               0.999999989              -0.000249212               0.000799330               0.999999989              -0.000208703               0.000788846               0.999999989              -0.000161216               0.000773990               0.999999989              -0.000107383               0.000755502               0.999999989              -0.000048267               0.000734190               0.999999989               0.000014673               0.000711102               0.999999989               0.000079862               0.000687631               0.999999989               0.000145770               0.000665097               0.999999989              -0.000449600               0.001020110               0.999999989              -0.000337217               0.000937928               0.999999989              -0.000297137               0.000901570               0.999999989              -0.000282163               0.000889573               0.999999989              -0.000275153               0.000890095               0.999999989              -0.000269097               0.000896350               0.999999989              -0.000260518               0.000904499               0.999999989              -0.000247050               0.000911878               0.999999989              -0.000227118               0.000916910               0.999999989              -0.000200047               0.000918735               0.999999989              -0.000165481               0.000916844               0.999999989              -0.000123872               0.000911542               0.999999989              -0.000075433               0.000903126               0.999999989              -0.000020911               0.000892371               0.999999989               0.000038888               0.000879810               0.999999989               0.000102890               0.000866425               0.999999989               0.000169054               0.000853046               0.999999989              -0.000380824               0.001088445               0.999999989              -0.000276334               0.001032083               0.999999989              -0.000235985               0.001002854               0.999999989              -0.000219762               0.000992179               0.999999989              -0.000212207               0.000992782               0.999999989              -0.000206696               0.000999733               0.999999989              -0.000199681               0.001009934               0.999999989              -0.000189101               0.001021078               0.999999989              -0.000173375               0.001031434               0.999999989              -0.000151596               0.001039981               0.999999989              -0.000123186               0.001046087               0.999999989              -0.000087861               0.001049454               0.999999989              -0.000045594               0.001050278               0.999999989               0.000003205               0.001048981               0.999999989               0.000058207               0.001045914               0.999999989               0.000118900               0.001041819               0.999999989               0.000184203               0.001037423               0.999999989              -0.000308713               0.001145982               0.999999989              -0.000217911               0.001116077               0.999999989              -0.000179837               0.001097185               0.999999989              -0.000163288               0.001090510               0.999999989              -0.000155284               0.001092993               0.999999989              -0.000149852               0.001101621               0.999999989              -0.000143883               0.001114178               0.999999989              -0.000135697               0.001128757               0.999999989              -0.000123694               0.001144003               0.999999989              -0.000106798               0.001158728               0.999999989              -0.000084332               0.001172227               0.999999989              -0.000055755               0.001183940               0.999999989              -0.000020691               0.001193597               0.999999989               0.000021191               0.001201263               0.999999989               0.000069927               0.001207257               0.999999989               0.000125839               0.001212013               0.999999989               0.000188994               0.001216294               0.999999989              -0.000233821               0.001191868               0.999999989              -0.000161614               0.001185901               0.999999989              -0.000129098               0.001178568               0.999999989              -0.000113940               0.001177630               0.999999989              -0.000106116               0.001183392               0.999999989              -0.000100862               0.001194693               0.999999989              -0.000095824               0.001209911               0.999999989              -0.000089789               0.001227829               0.999999989              -0.000081142               0.001247394               0.999999989              -0.000068710               0.001267649               0.999999989              -0.000052076               0.001287872               0.999999989              -0.000030444               0.001307368               0.999999989              -0.000003172               0.001325683               0.999999989               0.000030288               0.001342477               0.999999989               0.000070731               0.001357739               0.999999989               0.000119220               0.001371676               0.999999989               0.000177007               0.001384592               0.999999989              -0.000156932               0.001225148               0.999999989              -0.000106925               0.001238141               0.999999989              -0.000083158               0.001241369               0.999999989              -0.000071404               0.001246545               0.999999989              -0.000064907               0.001256093               0.999999989              -0.000060598               0.001270133               0.999999989              -0.000056897               0.001288010               0.999999989              -0.000052804               0.001308939               0.999999989              -0.000047107               0.001332177               0.999999989              -0.000039040               0.001357059               0.999999989              -0.000028015               0.001382906               0.999999989              -0.000013415               0.001409028               0.999999989               0.000005321               0.001434819               0.999999989               0.000028740               0.001459857               0.999999989               0.000058037               0.001483797               0.999999989               0.000094572               0.001506412               0.999999989               0.000140234               0.001527554               0.999999989              -0.000078780               0.001245337               0.999999989              -0.000053207               0.001270479               0.999999989              -0.000040658               0.001281104               0.999999989              -0.000034207               0.001290770               0.999999989              -0.000030544               0.001303332               0.999999989              -0.000028038               0.001319602               0.999999989              -0.000026044               0.001339438               0.999999989              -0.000023890               0.001362516               0.999999989              -0.000021075               0.001388292               0.999999989              -0.000017145               0.001416248               0.999999989              -0.000011692               0.001445846               0.999999989              -0.000004362               0.001476471               0.999999989               0.000005098               0.001507497               0.999999989               0.000017232               0.001538484               0.999999989               0.000032662               0.001568960               0.999999989               0.000052429               0.001598348               0.999999989               0.000078073               0.001625914               0.999999989               0.000000000               0.001252171               0.999999989              -0.000000000               0.001281452               0.999999989              -0.000000000               0.001294693               0.999999989              -0.000000000               0.001306058               0.999999989              -0.000000000               0.001319794               0.999999989               0.000000000               0.001336918               0.999999989               0.000000000               0.001357522               0.999999989              -0.000000000               0.001381424               0.999999989              -0.000000000               0.001408158               0.999999989               0.000000000               0.001437291               0.999999989               0.000000000               0.001468220               0.999999989               0.000000000               0.001500378               0.999999989               0.000000000               0.001533275               0.999999989              -0.000000000               0.001566413               0.999999989               0.000000000               0.001599314               0.999999989              -0.000000000               0.001631296               0.999999989              -0.000000000               0.001661358               0.999999989              -0.000837630               0.000000000               0.999999989              -0.000882669               0.000000000               0.999999989              -0.000901597               0.000000000               0.999999989              -0.000911928              -0.000000000               0.999999989              -0.000920102               0.000000000               0.999999989              -0.000928328               0.000000000               0.999999989              -0.000937456               0.000000000               0.999999989              -0.000947498               0.000000000               0.999999989              -0.000958140              -0.000000000               0.999999989              -0.000968995              -0.000000000               0.999999989              -0.000979715              -0.000000000               0.999999989              -0.000989812              -0.000000000               0.999999989              -0.000999097               0.000000000               0.999999989              -0.001007318               0.000000000               0.999999989              -0.001013988              -0.000000000               0.999999989              -0.001018714               0.000000000               0.999999989              -0.001020745               0.000000000               0.999999989              -0.000833091              -0.000117768               0.999999989              -0.000874285              -0.000093191               0.999999989              -0.000890726              -0.000081589               0.999999989              -0.000899346              -0.000076415               0.999999989              -0.000906294              -0.000074390               0.999999989              -0.000913655              -0.000073908               0.999999989              -0.000921957              -0.000073884               0.999999989              -0.000931095              -0.000073660               0.999999989              -0.000940769              -0.000072862               0.999999989              -0.000950481              -0.000071116               0.999999989              -0.000959798              -0.000068164               0.999999989              -0.000968429              -0.000063774               0.999999989              -0.000976086              -0.000057606               0.999999989              -0.000982416              -0.000049192               0.999999989              -0.000987000              -0.000037875               0.999999989              -0.000989473              -0.000022834               0.999999989              -0.000989316              -0.000003108               0.999999989              -0.000819667              -0.000234519               0.999999989              -0.000849595              -0.000186082               0.999999989              -0.000858889              -0.000164008               0.999999989              -0.000862881              -0.000154638               0.999999989              -0.000866620              -0.000151509               0.999999989              -0.000871456              -0.000151080               0.999999989              -0.000877442              -0.000151457               0.999999989              -0.000884235              -0.000151277               0.999999989              -0.000891214              -0.000149767               0.999999989              -0.000897786              -0.000146311               0.999999989              -0.000903423              -0.000140575               0.999999989              -0.000907818              -0.000132153               0.999999989              -0.000910619              -0.000120267               0.999999989              -0.000911480              -0.000104117               0.999999989              -0.000910153              -0.000082859               0.999999989              -0.000906462              -0.000055522               0.999999989              -0.000900311              -0.000020770               0.999999989              -0.000797474              -0.000349298               0.999999989              -0.000809575              -0.000278433               0.999999989              -0.000808435              -0.000248042               0.999999989              -0.000806179              -0.000236244               0.999999989              -0.000805777              -0.000233136               0.999999989              -0.000807336              -0.000233666               0.999999989              -0.000810279              -0.000234938               0.999999989              -0.000813644              -0.000235230               0.999999989              -0.000816591              -0.000233228               0.999999989              -0.000818497              -0.000228185               0.999999989              -0.000818857              -0.000219709               0.999999989              -0.000817185              -0.000207291               0.999999989              -0.000813034              -0.000190007               0.999999989              -0.000806184              -0.000167191               0.999999989              -0.000796596              -0.000138172               0.999999989              -0.000784469              -0.000102297               0.999999989              -0.000769980              -0.000058868               0.999999989              -0.000766702              -0.000461120               0.999999989              -0.000756007              -0.000370308               0.999999989              -0.000743245              -0.000334355               0.999999989              -0.000734808              -0.000321987               0.999999989              -0.000730642              -0.000319998               0.999999989              -0.000729285              -0.000322038               0.999999989              -0.000728957              -0.000324421               0.999999989              -0.000728287              -0.000325146               0.999999989              -0.000726438              -0.000322692               0.999999989              -0.000722647              -0.000316121               0.999999989              -0.000716337              -0.000304835               0.999999989              -0.000706925              -0.000288483               0.999999989              -0.000694183              -0.000266335               0.999999989              -0.000678136              -0.000237949               0.999999989              -0.000658930              -0.000203214               0.999999989              -0.000636943              -0.000162058               0.999999989              -0.000612754              -0.000114754               0.999999989              -0.000728018              -0.000568904               0.999999989              -0.000691626              -0.000461885               0.999999989              -0.000668064              -0.000423173               0.999999989              -0.000654977              -0.000411726               0.999999989              -0.000648282              -0.000411533               0.999999989              -0.000644490              -0.000415276               0.999999989              -0.000640934              -0.000418533               0.999999989              -0.000636010              -0.000419344               0.999999989              -0.000628612              -0.000416167               0.999999989              -0.000617983              -0.000407833               0.999999989              -0.000603561              -0.000393798               0.999999989              -0.000584930              -0.000373768               0.999999989              -0.000562120              -0.000347647               0.999999989              -0.000535480              -0.000315467               0.999999989              -0.000505543              -0.000277246               0.999999989              -0.000473081              -0.000233808               0.999999989              -0.000439139              -0.000186652               0.999999989              -0.000682175              -0.000671684               0.999999989              -0.000619644              -0.000553277               0.999999989              -0.000587897              -0.000514165               0.999999989              -0.000572458              -0.000504543               0.999999989              -0.000564531              -0.000506261               0.999999989              -0.000558897              -0.000511445               0.999999989              -0.000552215              -0.000515126               0.999999989              -0.000542542              -0.000515474               0.999999989              -0.000528823              -0.000511219               0.999999989              -0.000510281              -0.000500859               0.999999989              -0.000486386              -0.000484175               0.999999989              -0.000457322              -0.000461204               0.999999989              -0.000423446              -0.000432305               0.999999989              -0.000385597              -0.000397796               0.999999989              -0.000344680              -0.000358393               0.999999989              -0.000301899              -0.000315614               0.999999989              -0.000258677              -0.000271648               0.999999989              -0.000630032              -0.000768551               0.999999989              -0.000543562              -0.000644306               0.999999989              -0.000507181              -0.000606518               0.999999989              -0.000491843              -0.000598847               0.999999989              -0.000483855              -0.000602066               0.999999989              -0.000476691              -0.000608088               0.999999989              -0.000466487              -0.000611777               0.999999989              -0.000451491              -0.000611348               0.999999989              -0.000430464              -0.000605697               0.999999989              -0.000402712              -0.000593355               0.999999989              -0.000368190              -0.000574494               0.999999989              -0.000327689              -0.000549498               0.999999989              -0.000282110              -0.000519073               0.999999989              -0.000232626              -0.000484085               0.999999989              -0.000180611              -0.000445824               0.999999989              -0.000127761              -0.000406042               0.999999989              -0.000075219              -0.000366929               0.999999989              -0.000573269              -0.000857715               0.999999989              -0.000465827              -0.000735076               0.999999989              -0.000429821              -0.000698880               0.999999989              -0.000416451              -0.000692524               0.999999989              -0.000408990              -0.000696801               0.999999989              -0.000400155              -0.000703199               0.999999989              -0.000385996              -0.000706683               0.999999989              -0.000364696              -0.000705416               0.999999989              -0.000335131              -0.000698035               0.999999989              -0.000296746              -0.000683928               0.999999989              -0.000250458              -0.000663562               0.999999989              -0.000197602              -0.000637815               0.999999989              -0.000139406              -0.000607666               0.999999989              -0.000077541              -0.000574445               0.999999989              -0.000013875              -0.000540026               0.999999989               0.000050026              -0.000506097               0.999999989               0.000113297              -0.000473567               0.999999989              -0.000514202              -0.000942511               0.999999989              -0.000400375              -0.000837912               0.999999989              -0.000362315              -0.000798628               0.999999989              -0.000348492              -0.000788419               0.999999989              -0.000341577              -0.000790300               0.999999989              -0.000334503              -0.000796513               0.999999989              -0.000323514              -0.000802544               0.999999989              -0.000306392              -0.000805756               0.999999989              -0.000281934              -0.000804987               0.999999989              -0.000249212              -0.000799330               0.999999989              -0.000208703              -0.000788846               0.999999989              -0.000161216              -0.000773990               0.999999989              -0.000107383              -0.000755502               0.999999989              -0.000048267              -0.000734190               0.999999989               0.000014673              -0.000711102               0.999999989               0.000079862              -0.000687631               0.999999989               0.000145770              -0.000665097               0.999999989              -0.000449600              -0.001020110               0.999999989              -0.000337217              -0.000937928               0.999999989              -0.000297137              -0.000901570               0.999999989              -0.000282163              -0.000889573               0.999999989              -0.000275153              -0.000890095               0.999999989              -0.000269097              -0.000896350               0.999999989              -0.000260518              -0.000904499               0.999999989              -0.000247050              -0.000911878               0.999999989              -0.000227118              -0.000916910               0.999999989              -0.000200047              -0.000918735               0.999999989              -0.000165481              -0.000916844               0.999999989              -0.000123872              -0.000911542               0.999999989              -0.000075433              -0.000903126               0.999999989              -0.000020911              -0.000892371               0.999999989               0.000038888              -0.000879810               0.999999989               0.000102890              -0.000866425               0.999999989               0.000169054              -0.000853046               0.999999989              -0.000380824              -0.001088445               0.999999989              -0.000276334              -0.001032083               0.999999989              -0.000235985              -0.001002854               0.999999989              -0.000219762              -0.000992179               0.999999989              -0.000212207              -0.000992782               0.999999989              -0.000206696              -0.000999733               0.999999989              -0.000199681              -0.001009934               0.999999989              -0.000189101              -0.001021078               0.999999989              -0.000173375              -0.001031434               0.999999989              -0.000151596              -0.001039981               0.999999989              -0.000123186              -0.001046087               0.999999989              -0.000087861              -0.001049454               0.999999989              -0.000045594              -0.001050278               0.999999989               0.000003205              -0.001048981               0.999999989               0.000058207              -0.001045914               0.999999989               0.000118900              -0.001041819               0.999999989               0.000184203              -0.001037423               0.999999989              -0.000308713              -0.001145982               0.999999989              -0.000217911              -0.001116077               0.999999989              -0.000179837              -0.001097185               0.999999989              -0.000163288              -0.001090510               0.999999989              -0.000155284              -0.001092993               0.999999989              -0.000149852              -0.001101621               0.999999989              -0.000143883              -0.001114178               0.999999989              -0.000135697              -0.001128757               0.999999989              -0.000123694              -0.001144003               0.999999989              -0.000106798              -0.001158728               0.999999989              -0.000084332              -0.001172227               0.999999989              -0.000055755              -0.001183940               0.999999989              -0.000020691              -0.001193597               0.999999989               0.000021191              -0.001201263               0.999999989               0.000069927              -0.001207257               0.999999989               0.000125839              -0.001212013               0.999999989               0.000188994              -0.001216294               0.999999989              -0.000233821              -0.001191868               0.999999989              -0.000161614              -0.001185901               0.999999989              -0.000129098              -0.001178568               0.999999989              -0.000113940              -0.001177630               0.999999989              -0.000106116              -0.001183392               0.999999989              -0.000100862              -0.001194693               0.999999989              -0.000095824              -0.001209911               0.999999989              -0.000089789              -0.001227829               0.999999989              -0.000081142              -0.001247394               0.999999989              -0.000068710              -0.001267649               0.999999989              -0.000052076              -0.001287872               0.999999989              -0.000030444              -0.001307368               0.999999989              -0.000003172              -0.001325683               0.999999989               0.000030288              -0.001342477               0.999999989               0.000070731              -0.001357739               0.999999989               0.000119220              -0.001371676               0.999999989               0.000177007              -0.001384592               0.999999989              -0.000156932              -0.001225148               0.999999989              -0.000106925              -0.001238141               0.999999989              -0.000083158              -0.001241369               0.999999989              -0.000071404              -0.001246545               0.999999989              -0.000064907              -0.001256093               0.999999989              -0.000060598              -0.001270133               0.999999989              -0.000056897              -0.001288010               0.999999989              -0.000052804              -0.001308939               0.999999989              -0.000047107              -0.001332177               0.999999989              -0.000039040              -0.001357059               0.999999989              -0.000028015              -0.001382906               0.999999989              -0.000013415              -0.001409028               0.999999989               0.000005321              -0.001434819               0.999999989               0.000028740              -0.001459857               0.999999989               0.000058037              -0.001483797               0.999999989               0.000094572              -0.001506412               0.999999989               0.000140234              -0.001527554               0.999999989              -0.000078780              -0.001245337               0.999999989              -0.000053207              -0.001270479               0.999999989              -0.000040658              -0.001281104               0.999999989              -0.000034207              -0.001290770               0.999999989              -0.000030544              -0.001303332               0.999999989              -0.000028038              -0.001319602               0.999999989              -0.000026044              -0.001339438               0.999999989              -0.000023890              -0.001362516               0.999999989              -0.000021075              -0.001388292               0.999999989              -0.000017145              -0.001416248               0.999999989              -0.000011692              -0.001445846               0.999999989              -0.000004362              -0.001476471               0.999999989               0.000005098              -0.001507497               0.999999989               0.000017232              -0.001538484               0.999999989               0.000032662              -0.001568960               0.999999989               0.000052429              -0.001598348               0.999999989               0.000078073              -0.001625914               0.999999989               0.000000000              -0.001252171               0.999999989               0.000000000              -0.001281452               0.999999989              -0.000000000              -0.001294693               0.999999989               0.000000000              -0.001306058               0.999999989               0.000000000              -0.001319794               0.999999989              -0.000000000              -0.001336918               0.999999989               0.000000000              -0.001357522               0.999999989               0.000000000              -0.001381424               0.999999989              -0.000000000              -0.001408158               0.999999989              -0.000000000              -0.001437291               0.999999989               0.000000000              -0.001468220               0.999999989               0.000000000              -0.001500378               0.999999989              -0.000000000              -0.001533275               0.999999989              -0.000000000              -0.001566413               0.999999989               0.000000000              -0.001599314               0.999999989              -0.000000000              -0.001631296               0.999999989               0.000000000              -0.001661358               0.999999989               0.000837630               0.000000000               0.999999989               0.000882669              -0.000000000               0.999999989               0.000901597               0.000000000               0.999999989               0.000911928               0.000000000               0.999999989               0.000920102               0.000000000               0.999999989               0.000928328               0.000000000               0.999999989               0.000937456              -0.000000000               0.999999989               0.000947498               0.000000000               0.999999989               0.000958140               0.000000000               0.999999989               0.000968995              -0.000000000               0.999999989               0.000979715              -0.000000000               0.999999989               0.000989812              -0.000000000               0.999999989               0.000999097               0.000000000               0.999999989               0.001007318               0.000000000               0.999999989               0.001013988               0.000000000               0.999999989               0.001018714               0.000000000               0.999999989               0.001020745              -0.000000000               0.999999989               0.000833091              -0.000117768               0.999999989               0.000874285              -0.000093191               0.999999989               0.000890726              -0.000081589               0.999999989               0.000899346              -0.000076415               0.999999989               0.000906294              -0.000074390               0.999999989               0.000913655              -0.000073908               0.999999989               0.000921957              -0.000073884               0.999999989               0.000931095              -0.000073660               0.999999989               0.000940769              -0.000072862               0.999999989               0.000950481              -0.000071116               0.999999989               0.000959798              -0.000068164               0.999999989               0.000968429              -0.000063774               0.999999989               0.000976086              -0.000057606               0.999999989               0.000982416              -0.000049192               0.999999989               0.000987000              -0.000037875               0.999999989               0.000989473              -0.000022834               0.999999989               0.000989316              -0.000003108               0.999999989               0.000819667              -0.000234519               0.999999989               0.000849595              -0.000186082               0.999999989               0.000858889              -0.000164008               0.999999989               0.000862881              -0.000154638               0.999999989               0.000866620              -0.000151509               0.999999989               0.000871456              -0.000151080               0.999999989               0.000877442              -0.000151457               0.999999989               0.000884235              -0.000151277               0.999999989               0.000891214              -0.000149767               0.999999989               0.000897786              -0.000146311               0.999999989               0.000903423              -0.000140575               0.999999989               0.000907818              -0.000132153               0.999999989               0.000910619              -0.000120267               0.999999989               0.000911480              -0.000104117               0.999999989               0.000910153              -0.000082859               0.999999989               0.000906462              -0.000055522               0.999999989               0.000900311              -0.000020770               0.999999989               0.000797474              -0.000349298               0.999999989               0.000809575              -0.000278433               0.999999989               0.000808435              -0.000248042               0.999999989               0.000806179              -0.000236244               0.999999989               0.000805777              -0.000233136               0.999999989               0.000807336              -0.000233666               0.999999989               0.000810279              -0.000234938               0.999999989               0.000813644              -0.000235230               0.999999989               0.000816591              -0.000233228               0.999999989               0.000818497              -0.000228185               0.999999989               0.000818857              -0.000219709               0.999999989               0.000817185              -0.000207291               0.999999989               0.000813034              -0.000190007               0.999999989               0.000806184              -0.000167191               0.999999989               0.000796596              -0.000138172               0.999999989               0.000784469              -0.000102297               0.999999989               0.000769980              -0.000058868               0.999999989               0.000766702              -0.000461120               0.999999989               0.000756007              -0.000370308               0.999999989               0.000743245              -0.000334355               0.999999989               0.000734808              -0.000321987               0.999999989               0.000730642              -0.000319998               0.999999989               0.000729285              -0.000322038               0.999999989               0.000728957              -0.000324421               0.999999989               0.000728287              -0.000325146               0.999999989               0.000726438              -0.000322692               0.999999989               0.000722647              -0.000316121               0.999999989               0.000716337              -0.000304835               0.999999989               0.000706925              -0.000288483               0.999999989               0.000694183              -0.000266335               0.999999989               0.000678136              -0.000237949               0.999999989               0.000658930              -0.000203214               0.999999989               0.000636943              -0.000162058               0.999999989               0.000612754              -0.000114754               0.999999989               0.000728018              -0.000568904               0.999999989               0.000691626              -0.000461885               0.999999989               0.000668064              -0.000423173               0.999999989               0.000654977              -0.000411726               0.999999989               0.000648282              -0.000411533               0.999999989               0.000644490              -0.000415276               0.999999989               0.000640934              -0.000418533               0.999999989               0.000636010              -0.000419344               0.999999989               0.000628612              -0.000416167               0.999999989               0.000617983              -0.000407833               0.999999989               0.000603561              -0.000393798               0.999999989               0.000584930              -0.000373768               0.999999989               0.000562120              -0.000347647               0.999999989               0.000535480              -0.000315467               0.999999989               0.000505543              -0.000277246               0.999999989               0.000473081              -0.000233808               0.999999989               0.000439139              -0.000186652               0.999999989               0.000682175              -0.000671684               0.999999989               0.000619644              -0.000553277               0.999999989               0.000587897              -0.000514165               0.999999989               0.000572458              -0.000504543               0.999999989               0.000564531              -0.000506261               0.999999989               0.000558897              -0.000511445               0.999999989               0.000552215              -0.000515126               0.999999989               0.000542542              -0.000515474               0.999999989               0.000528823              -0.000511219               0.999999989               0.000510281              -0.000500859               0.999999989               0.000486386              -0.000484175               0.999999989               0.000457322              -0.000461204               0.999999989               0.000423446              -0.000432305               0.999999989               0.000385597              -0.000397796               0.999999989               0.000344680              -0.000358393               0.999999989               0.000301899              -0.000315614               0.999999989               0.000258677              -0.000271648               0.999999989               0.000630032              -0.000768551               0.999999989               0.000543562              -0.000644306               0.999999989               0.000507181              -0.000606518               0.999999989               0.000491843              -0.000598847               0.999999989               0.000483855              -0.000602066               0.999999989               0.000476691              -0.000608088               0.999999989               0.000466487              -0.000611777               0.999999989               0.000451491              -0.000611348               0.999999989               0.000430464              -0.000605697               0.999999989               0.000402712              -0.000593355               0.999999989               0.000368190              -0.000574494               0.999999989               0.000327689              -0.000549498               0.999999989               0.000282110              -0.000519073               0.999999989               0.000232626              -0.000484085               0.999999989               0.000180611              -0.000445824               0.999999989               0.000127761              -0.000406042               0.999999989               0.000075219              -0.000366929               0.999999989               0.000573269              -0.000857715               0.999999989               0.000465827              -0.000735076               0.999999989               0.000429821              -0.000698880               0.999999989               0.000416451              -0.000692524               0.999999989               0.000408990              -0.000696801               0.999999989               0.000400155              -0.000703199               0.999999989               0.000385996              -0.000706683               0.999999989               0.000364696              -0.000705416               0.999999989               0.000335131              -0.000698035               0.999999989               0.000296746              -0.000683928               0.999999989               0.000250458              -0.000663562               0.999999989               0.000197602              -0.000637815               0.999999989               0.000139406              -0.000607666               0.999999989               0.000077541              -0.000574445               0.999999989               0.000013875              -0.000540026               0.999999989              -0.000050026              -0.000506097               0.999999989              -0.000113297              -0.000473567               0.999999989               0.000514202              -0.000942511               0.999999989               0.000400375              -0.000837912               0.999999989               0.000362315              -0.000798628               0.999999989               0.000348492              -0.000788419               0.999999989               0.000341577              -0.000790300               0.999999989               0.000334503              -0.000796513               0.999999989               0.000323514              -0.000802544               0.999999989               0.000306392              -0.000805756               0.999999989               0.000281934              -0.000804987               0.999999989               0.000249212              -0.000799330               0.999999989               0.000208703              -0.000788846               0.999999989               0.000161216              -0.000773990               0.999999989               0.000107383              -0.000755502               0.999999989               0.000048267              -0.000734190               0.999999989              -0.000014673              -0.000711102               0.999999989              -0.000079862              -0.000687631               0.999999989              -0.000145770              -0.000665097               0.999999989               0.000449600              -0.001020110               0.999999989               0.000337217              -0.000937928               0.999999989               0.000297137              -0.000901570               0.999999989               0.000282163              -0.000889573               0.999999989               0.000275153              -0.000890095               0.999999989               0.000269097              -0.000896350               0.999999989               0.000260518              -0.000904499               0.999999989               0.000247050              -0.000911878               0.999999989               0.000227118              -0.000916910               0.999999989               0.000200047              -0.000918735               0.999999989               0.000165481              -0.000916844               0.999999989               0.000123872              -0.000911542               0.999999989               0.000075433              -0.000903126               0.999999989               0.000020911              -0.000892371               0.999999989              -0.000038888              -0.000879810               0.999999989              -0.000102890              -0.000866425               0.999999989              -0.000169054              -0.000853046               0.999999989               0.000380824              -0.001088445               0.999999989               0.000276334              -0.001032083               0.999999989               0.000235985              -0.001002854               0.999999989               0.000219762              -0.000992179               0.999999989               0.000212207              -0.000992782               0.999999989               0.000206696              -0.000999733               0.999999989               0.000199681              -0.001009934               0.999999989               0.000189101              -0.001021078               0.999999989               0.000173375              -0.001031434               0.999999989               0.000151596              -0.001039981               0.999999989               0.000123186              -0.001046087               0.999999989               0.000087861              -0.001049454               0.999999989               0.000045594              -0.001050278               0.999999989              -0.000003205              -0.001048981               0.999999989              -0.000058207              -0.001045914               0.999999989              -0.000118900              -0.001041819               0.999999989              -0.000184203              -0.001037423               0.999999989               0.000308713              -0.001145982               0.999999989               0.000217911              -0.001116077               0.999999989               0.000179837              -0.001097185               0.999999989               0.000163288              -0.001090510               0.999999989               0.000155284              -0.001092993               0.999999989               0.000149852              -0.001101621               0.999999989               0.000143883              -0.001114178               0.999999989               0.000135697              -0.001128757               0.999999989               0.000123694              -0.001144003               0.999999989               0.000106798              -0.001158728               0.999999989               0.000084332              -0.001172227               0.999999989               0.000055755              -0.001183940               0.999999989               0.000020691              -0.001193597               0.999999989              -0.000021191              -0.001201263               0.999999989              -0.000069927              -0.001207257               0.999999989              -0.000125839              -0.001212013               0.999999989              -0.000188994              -0.001216294               0.999999989               0.000233821              -0.001191868               0.999999989               0.000161614              -0.001185901               0.999999989               0.000129098              -0.001178568               0.999999989               0.000113940              -0.001177630               0.999999989               0.000106116              -0.001183392               0.999999989               0.000100862              -0.001194693               0.999999989               0.000095824              -0.001209911               0.999999989               0.000089789              -0.001227829               0.999999989               0.000081142              -0.001247394               0.999999989               0.000068710              -0.001267649               0.999999989               0.000052076              -0.001287872               0.999999989               0.000030444              -0.001307368               0.999999989               0.000003172              -0.001325683               0.999999989              -0.000030288              -0.001342477               0.999999989              -0.000070731              -0.001357739               0.999999989              -0.000119220              -0.001371676               0.999999989              -0.000177007              -0.001384592               0.999999989               0.000156932              -0.001225148               0.999999989               0.000106925              -0.001238141               0.999999989               0.000083158              -0.001241369               0.999999989               0.000071404              -0.001246545               0.999999989               0.000064907              -0.001256093               0.999999989               0.000060598              -0.001270133               0.999999989               0.000056897              -0.001288010               0.999999989               0.000052804              -0.001308939               0.999999989               0.000047107              -0.001332177               0.999999989               0.000039040              -0.001357059               0.999999989               0.000028015              -0.001382906               0.999999989               0.000013415              -0.001409028               0.999999989              -0.000005321              -0.001434819               0.999999989              -0.000028740              -0.001459857               0.999999989              -0.000058037              -0.001483797               0.999999989              -0.000094572              -0.001506412               0.999999989              -0.000140234              -0.001527554               0.999999989               0.000078780              -0.001245337               0.999999989               0.000053207              -0.001270479               0.999999989               0.000040658              -0.001281104               0.999999989               0.000034207              -0.001290770               0.999999989               0.000030544              -0.001303332               0.999999989               0.000028038              -0.001319602               0.999999989               0.000026044              -0.001339438               0.999999989               0.000023890              -0.001362516               0.999999989               0.000021075              -0.001388292               0.999999989               0.000017145              -0.001416248               0.999999989               0.000011692              -0.001445846               0.999999989               0.000004362              -0.001476471               0.999999989              -0.000005098              -0.001507497               0.999999989              -0.000017232              -0.001538484               0.999999989              -0.000032662              -0.001568960               0.999999989              -0.000052429              -0.001598348               0.999999989              -0.000078073              -0.001625914               0.999999989               0.000000000              -0.001252171               0.999999989               0.000000000              -0.001281452               0.999999989              -0.000000000              -0.001294693               0.999999989               0.000000000              -0.001306058               0.999999989               0.000000000              -0.001319794               0.999999989              -0.000000000              -0.001336918               0.999999989               0.000000000              -0.001357522               0.999999989               0.000000000              -0.001381424               0.999999989              -0.000000000              -0.001408158               0.999999989              -0.000000000              -0.001437291               0.999999989               0.000000000              -0.001468220               0.999999989               0.000000000              -0.001500378               0.999999989              -0.000000000              -0.001533275               0.999999989              -0.000000000              -0.001566413               0.999999989               0.000000000              -0.001599314               0.999999989              -0.000000000              -0.001631296               0.999999989               0.000000000              -0.001661358               0.999999989               0.000837630               0.000000000               0.999999989               0.000882669              -0.000000000               0.999999989               0.000901597               0.000000000               0.999999989               0.000911928               0.000000000               0.999999989               0.000920102               0.000000000               0.999999989               0.000928328               0.000000000               0.999999989               0.000937456              -0.000000000               0.999999989               0.000947498               0.000000000               0.999999989               0.000958140               0.000000000               0.999999989               0.000968995              -0.000000000               0.999999989               0.000979715              -0.000000000               0.999999989               0.000989812              -0.000000000               0.999999989               0.000999097               0.000000000               0.999999989               0.001007318               0.000000000               0.999999989               0.001013988               0.000000000               0.999999989               0.001018714               0.000000000               0.999999989               0.001020745              -0.000000000               0.999999989               0.000833091               0.000117768               0.999999989               0.000874285               0.000093191               0.999999989               0.000890726               0.000081589               0.999999989               0.000899346               0.000076415               0.999999989               0.000906294               0.000074390               0.999999989               0.000913655               0.000073908               0.999999989               0.000921957               0.000073884               0.999999989               0.000931095               0.000073660               0.999999989               0.000940769               0.000072862               0.999999989               0.000950481               0.000071116               0.999999989               0.000959798               0.000068164               0.999999989               0.000968429               0.000063774               0.999999989               0.000976086               0.000057606               0.999999989               0.000982416               0.000049192               0.999999989               0.000987000               0.000037875               0.999999989               0.000989473               0.000022834               0.999999989               0.000989316               0.000003108               0.999999989               0.000819667               0.000234519               0.999999989               0.000849595               0.000186082               0.999999989               0.000858889               0.000164008               0.999999989               0.000862881               0.000154638               0.999999989               0.000866620               0.000151509               0.999999989               0.000871456               0.000151080               0.999999989               0.000877442               0.000151457               0.999999989               0.000884235               0.000151277               0.999999989               0.000891214               0.000149767               0.999999989               0.000897786               0.000146311               0.999999989               0.000903423               0.000140575               0.999999989               0.000907818               0.000132153               0.999999989               0.000910619               0.000120267               0.999999989               0.000911480               0.000104117               0.999999989               0.000910153               0.000082859               0.999999989               0.000906462               0.000055522               0.999999989               0.000900311               0.000020770               0.999999989               0.000797474               0.000349298               0.999999989               0.000809575               0.000278433               0.999999989               0.000808435               0.000248042               0.999999989               0.000806179               0.000236244               0.999999989               0.000805777               0.000233136               0.999999989               0.000807336               0.000233666               0.999999989               0.000810279               0.000234938               0.999999989               0.000813644               0.000235230               0.999999989               0.000816591               0.000233228               0.999999989               0.000818497               0.000228185               0.999999989               0.000818857               0.000219709               0.999999989               0.000817185               0.000207291               0.999999989               0.000813034               0.000190007               0.999999989               0.000806184               0.000167191               0.999999989               0.000796596               0.000138172               0.999999989               0.000784469               0.000102297               0.999999989               0.000769980               0.000058868               0.999999989               0.000766702               0.000461120               0.999999989               0.000756007               0.000370308               0.999999989               0.000743245               0.000334355               0.999999989               0.000734808               0.000321987               0.999999989               0.000730642               0.000319998               0.999999989               0.000729285               0.000322038               0.999999989               0.000728957               0.000324421               0.999999989               0.000728287               0.000325146               0.999999989               0.000726438               0.000322692               0.999999989               0.000722647               0.000316121               0.999999989               0.000716337               0.000304835               0.999999989               0.000706925               0.000288483               0.999999989               0.000694183               0.000266335               0.999999989               0.000678136               0.000237949               0.999999989               0.000658930               0.000203214               0.999999989               0.000636943               0.000162058               0.999999989               0.000612754               0.000114754               0.999999989               0.000728018               0.000568904               0.999999989               0.000691626               0.000461885               0.999999989               0.000668064               0.000423173               0.999999989               0.000654977               0.000411726               0.999999989               0.000648282               0.000411533               0.999999989               0.000644490               0.000415276               0.999999989               0.000640934               0.000418533               0.999999989               0.000636010               0.000419344               0.999999989               0.000628612               0.000416167               0.999999989               0.000617983               0.000407833               0.999999989               0.000603561               0.000393798               0.999999989               0.000584930               0.000373768               0.999999989               0.000562120               0.000347647               0.999999989               0.000535480               0.000315467               0.999999989               0.000505543               0.000277246               0.999999989               0.000473081               0.000233808               0.999999989               0.000439139               0.000186652               0.999999989               0.000682175               0.000671684               0.999999989               0.000619644               0.000553277               0.999999989               0.000587897               0.000514165               0.999999989               0.000572458               0.000504543               0.999999989               0.000564531               0.000506261               0.999999989               0.000558897               0.000511445               0.999999989               0.000552215               0.000515126               0.999999989               0.000542542               0.000515474               0.999999989               0.000528823               0.000511219               0.999999989               0.000510281               0.000500859               0.999999989               0.000486386               0.000484175               0.999999989               0.000457322               0.000461204               0.999999989               0.000423446               0.000432305               0.999999989               0.000385597               0.000397796               0.999999989               0.000344680               0.000358393               0.999999989               0.000301899               0.000315614               0.999999989               0.000258677               0.000271648               0.999999989               0.000630032               0.000768551               0.999999989               0.000543562               0.000644306               0.999999989               0.000507181               0.000606518               0.999999989               0.000491843               0.000598847               0.999999989               0.000483855               0.000602066               0.999999989               0.000476691               0.000608088               0.999999989               0.000466487               0.000611777               0.999999989               0.000451491               0.000611348               0.999999989               0.000430464               0.000605697               0.999999989               0.000402712               0.000593355               0.999999989               0.000368190               0.000574494               0.999999989               0.000327689               0.000549498               0.999999989               0.000282110               0.000519073               0.999999989               0.000232626               0.000484085               0.999999989               0.000180611               0.000445824               0.999999989               0.000127761               0.000406042               0.999999989               0.000075219               0.000366929               0.999999989               0.000573269               0.000857715               0.999999989               0.000465827               0.000735076               0.999999989               0.000429821               0.000698880               0.999999989               0.000416451               0.000692524               0.999999989               0.000408990               0.000696801               0.999999989               0.000400155               0.000703199               0.999999989               0.000385996               0.000706683               0.999999989               0.000364696               0.000705416               0.999999989               0.000335131               0.000698035               0.999999989               0.000296746               0.000683928               0.999999989               0.000250458               0.000663562               0.999999989               0.000197602               0.000637815               0.999999989               0.000139406               0.000607666               0.999999989               0.000077541               0.000574445               0.999999989               0.000013875               0.000540026               0.999999989              -0.000050026               0.000506097               0.999999989              -0.000113297               0.000473567               0.999999989               0.000514202               0.000942511               0.999999989               0.000400375               0.000837912               0.999999989               0.000362315               0.000798628               0.999999989               0.000348492               0.000788419               0.999999989               0.000341577               0.000790300               0.999999989               0.000334503               0.000796513               0.999999989               0.000323514               0.000802544               0.999999989               0.000306392               0.000805756               0.999999989               0.000281934               0.000804987               0.999999989               0.000249212               0.000799330               0.999999989               0.000208703               0.000788846               0.999999989               0.000161216               0.000773990               0.999999989               0.000107383               0.000755502               0.999999989               0.000048267               0.000734190               0.999999989              -0.000014673               0.000711102               0.999999989              -0.000079862               0.000687631               0.999999989              -0.000145770               0.000665097               0.999999989               0.000449600               0.001020110               0.999999989               0.000337217               0.000937928               0.999999989               0.000297137               0.000901570               0.999999989               0.000282163               0.000889573               0.999999989               0.000275153               0.000890095               0.999999989               0.000269097               0.000896350               0.999999989               0.000260518               0.000904499               0.999999989               0.000247050               0.000911878               0.999999989               0.000227118               0.000916910               0.999999989               0.000200047               0.000918735               0.999999989               0.000165481               0.000916844               0.999999989               0.000123872               0.000911542               0.999999989               0.000075433               0.000903126               0.999999989               0.000020911               0.000892371               0.999999989              -0.000038888               0.000879810               0.999999989              -0.000102890               0.000866425               0.999999989              -0.000169054               0.000853046               0.999999989               0.000380824               0.001088445               0.999999989               0.000276334               0.001032083               0.999999989               0.000235985               0.001002854               0.999999989               0.000219762               0.000992179               0.999999989               0.000212207               0.000992782               0.999999989               0.000206696               0.000999733               0.999999989               0.000199681               0.001009934               0.999999989               0.000189101               0.001021078               0.999999989               0.000173375               0.001031434               0.999999989               0.000151596               0.001039981               0.999999989               0.000123186               0.001046087               0.999999989               0.000087861               0.001049454               0.999999989               0.000045594               0.001050278               0.999999989              -0.000003205               0.001048981               0.999999989              -0.000058207               0.001045914               0.999999989              -0.000118900               0.001041819               0.999999989              -0.000184203               0.001037423               0.999999989               0.000308713               0.001145982               0.999999989               0.000217911               0.001116077               0.999999989               0.000179837               0.001097185               0.999999989               0.000163288               0.001090510               0.999999989               0.000155284               0.001092993               0.999999989               0.000149852               0.001101621               0.999999989               0.000143883               0.001114178               0.999999989               0.000135697               0.001128757               0.999999989               0.000123694               0.001144003               0.999999989               0.000106798               0.001158728               0.999999989               0.000084332               0.001172227               0.999999989               0.000055755               0.001183940               0.999999989               0.000020691               0.001193597               0.999999989              -0.000021191               0.001201263               0.999999989              -0.000069927               0.001207257               0.999999989              -0.000125839               0.001212013               0.999999989              -0.000188994               0.001216294               0.999999989               0.000233821               0.001191868               0.999999989               0.000161614               0.001185901               0.999999989               0.000129098               0.001178568               0.999999989               0.000113940               0.001177630               0.999999989               0.000106116               0.001183392               0.999999989               0.000100862               0.001194693               0.999999989               0.000095824               0.001209911               0.999999989               0.000089789               0.001227829               0.999999989               0.000081142               0.001247394               0.999999989               0.000068710               0.001267649               0.999999989               0.000052076               0.001287872               0.999999989               0.000030444               0.001307368               0.999999989               0.000003172               0.001325683               0.999999989              -0.000030288               0.001342477               0.999999989              -0.000070731               0.001357739               0.999999989              -0.000119220               0.001371676               0.999999989              -0.000177007               0.001384592               0.999999989               0.000156932               0.001225148               0.999999989               0.000106925               0.001238141               0.999999989               0.000083158               0.001241369               0.999999989               0.000071404               0.001246545               0.999999989               0.000064907               0.001256093               0.999999989               0.000060598               0.001270133               0.999999989               0.000056897               0.001288010               0.999999989               0.000052804               0.001308939               0.999999989               0.000047107               0.001332177               0.999999989               0.000039040               0.001357059               0.999999989               0.000028015               0.001382906               0.999999989               0.000013415               0.001409028               0.999999989              -0.000005321               0.001434819               0.999999989              -0.000028740               0.001459857               0.999999989              -0.000058037               0.001483797               0.999999989              -0.000094572               0.001506412               0.999999989              -0.000140234               0.001527554               0.999999989               0.000078780               0.001245337               0.999999989               0.000053207               0.001270479               0.999999989               0.000040658               0.001281104               0.999999989               0.000034207               0.001290770               0.999999989               0.000030544               0.001303332               0.999999989               0.000028038               0.001319602               0.999999989               0.000026044               0.001339438               0.999999989               0.000023890               0.001362516               0.999999989               0.000021075               0.001388292               0.999999989               0.000017145               0.001416248               0.999999989               0.000011692               0.001445846               0.999999989               0.000004362               0.001476471               0.999999989              -0.000005098               0.001507497               0.999999989              -0.000017232               0.001538484               0.999999989              -0.000032662               0.001568960               0.999999989              -0.000052429               0.001598348               0.999999989              -0.000078073               0.001625914               0.999999989               0.000000000               0.001252171               0.999999989              -0.000000000               0.001281452               0.999999989              -0.000000000               0.001294693               0.999999989              -0.000000000               0.001306058               0.999999989              -0.000000000               0.001319794               0.999999989               0.000000000               0.001336918               0.999999989               0.000000000               0.001357522               0.999999989              -0.000000000               0.001381424               0.999999989              -0.000000000               0.001408158               0.999999989               0.000000000               0.001437291               0.999999989               0.000000000               0.001468220               0.999999989               0.000000000               0.001500378               0.999999989               0.000000000               0.001533275               0.999999989              -0.000000000               0.001566413               0.999999989               0.000000000               0.001599314               0.999999989              -0.000000000               0.001631296               0.999999989              -0.000000000               0.001661358               0.999999989 </DataArray>
<DataArray type="Float64"                                    Name="stress"                                                      NumberOfComponents="10" format="ascii">
              0.001994354               0.021353643              -0.000000000              -0.001921318               0.007758249               0.005836931               0.000000000               0.000000000               0.000000000               0.000000000               0.001895633               0.016345850              -0.000000000              -0.001332366               0.005892684               0.004560319               0.000000000               0.000000000               0.000000000               0.000000000               0.002427300               0.012253741              -0.000000000              -0.000621478               0.004291699               0.003670220               0.000000000               0.000000000               0.000000000               0.000000000               0.002230122               0.009926664              -0.000000000              -0.000404536               0.003443700               0.003039164               0.000000000               0.000000000               0.000000000               0.000000000               0.001837032               0.008441091              -0.000000000              -0.000366249               0.002935752               0.002569503               0.000000000               0.000000000               0.000000000               0.000000000               0.001426613               0.007394691              -0.000000000              -0.000389356               0.002594658               0.002205302               0.000000000               0.000000000               0.000000000               0.000000000               0.001054293               0.006582933               0.000000000              -0.000427506               0.002336791               0.001909285               0.000000000               0.000000000               0.000000000               0.000000000               0.000745084               0.005902717              -0.000000000              -0.000458432               0.002120363               0.001661931               0.000000000               0.000000000               0.000000000               0.000000000               0.000503324               0.005298785              -0.000000000              -0.000473601               0.001924111               0.001450510               0.000000000               0.000000000               0.000000000               0.000000000               0.000319855               0.004732801              -0.000000000              -0.000471653               0.001734802               0.001263149               0.000000000               0.000000000               0.000000000               0.000000000               0.000187015               0.004181787              -0.000000000              -0.000452592               0.001544779               0.001092187               0.000000000               0.000000000               0.000000000               0.000000000               0.000089596               0.003626667               0.000000000              -0.000419734               0.001348788               0.000929054               0.000000000               0.000000000               0.000000000               0.000000000               0.000013361               0.003047351               0.000000000              -0.000375908               0.001141076               0.000765168               0.000000000               0.000000000               0.000000000               0.000000000              -0.000032831               0.002428321              -0.000000000              -0.000315851               0.000914716               0.000598865               0.000000000               0.000000000               0.000000000               0.000000000              -0.000051223               0.001746143               0.000000000              -0.000237476               0.000661200               0.000423724               0.000000000               0.000000000               0.000000000               0.000000000              -0.000037052               0.000977097               0.000000000              -0.000136032               0.000371040               0.000235008               0.000000000               0.000000000               0.000000000               0.000000000              -0.000079994               0.000393242              -0.000000000              -0.000079153               0.000157464               0.000078311               0.000000000               0.000000000               0.000000000               0.000000000               0.002055321               0.020896414              -0.001418683              -0.001841302               0.007579169               0.005737867               0.000000000               0.000000000               0.000000000               0.000000000               0.001838736               0.016055463              -0.000636894              -0.001317404               0.005790902               0.004473499               0.000000000               0.000000000               0.000000000               0.000000000               0.002246111               0.012137602               0.000137201              -0.000674907               0.004270796               0.003595889               0.000000000               0.000000000               0.000000000               0.000000000               0.002002547               0.009903427               0.000459110              -0.000486972               0.003463434               0.002976461               0.000000000               0.000000000               0.000000000               0.000000000               0.001596965               0.008470740               0.000584263              -0.000459980               0.002976878               0.002516899               0.000000000               0.000000000               0.000000000               0.000000000               0.001193383               0.007449866               0.000619331              -0.000483714               0.002644502               0.002160788               0.000000000               0.000000000               0.000000000               0.000000000               0.000842015               0.006653060               0.000612199              -0.000515876               0.002389623               0.001873747               0.000000000               0.000000000               0.000000000               0.000000000               0.000555940               0.005979466               0.000587555              -0.000538955               0.002172787               0.001633832               0.000000000               0.000000000               0.000000000               0.000000000               0.000337901               0.005376226               0.000556273              -0.000545314               0.001973829               0.001428514               0.000000000               0.000000000               0.000000000               0.000000000               0.000181696               0.004811540               0.000523045              -0.000533305               0.001781599               0.001248294               0.000000000               0.000000000               0.000000000               0.000000000               0.000071023               0.004264617               0.000490153              -0.000506442               0.001590339               0.001083896               0.000000000               0.000000000               0.000000000               0.000000000              -0.000007787               0.003717553               0.000452574              -0.000467613               0.001395043               0.000927430               0.000000000               0.000000000               0.000000000               0.000000000              -0.000060087               0.003151521               0.000405873              -0.000416472               0.001189321               0.000772849               0.000000000               0.000000000               0.000000000               0.000000000              -0.000083217               0.002552295               0.000345115              -0.000350243               0.000967504               0.000617261               0.000000000               0.000000000               0.000000000               0.000000000              -0.000080652               0.001905712               0.000262388              -0.000268458               0.000724717               0.000456259               0.000000000               0.000000000               0.000000000               0.000000000              -0.000050364               0.001198790               0.000148888              -0.000168735               0.000455838               0.000287103               0.000000000               0.000000000               0.000000000               0.000000000              -0.000081936               0.000673677               0.000093932              -0.000114935               0.000262868               0.000147933               0.000000000               0.000000000               0.000000000               0.000000000               0.002196567               0.019589431              -0.002618928              -0.001624963               0.007071399               0.005446436               0.000000000               0.000000000               0.000000000               0.000000000               0.001656341               0.015229639              -0.001165268              -0.001282574               0.005504020               0.004221446               0.000000000               0.000000000               0.000000000               0.000000000               0.001720574               0.011812624               0.000259121              -0.000831361               0.004214622               0.003383261               0.000000000               0.000000000               0.000000000               0.000000000               0.001356037               0.009835848               0.000828728              -0.000720965               0.003518905               0.002797939               0.000000000               0.000000000               0.000000000               0.000000000               0.000933331               0.008536720               0.001037828              -0.000717089               0.003084575               0.002367485               0.000000000               0.000000000               0.000000000               0.000000000               0.000562600               0.007585084               0.001088550              -0.000737159               0.002774056               0.002036897               0.000000000               0.000000000               0.000000000               0.000000000               0.000267470               0.006823172               0.001067304              -0.000752594               0.002525232               0.001772639               0.000000000               0.000000000               0.000000000               0.000000000               0.000049783               0.006169132               0.001015314              -0.000752472               0.002307181               0.001554709               0.000000000               0.000000000               0.000000000               0.000000000              -0.000097937               0.005573267               0.000953604              -0.000733383               0.002102198               0.001368815               0.000000000               0.000000000               0.000000000               0.000000000              -0.000186353               0.005012087               0.000890807              -0.000696392               0.001902810               0.001206418               0.000000000               0.000000000               0.000000000               0.000000000              -0.000231785               0.004471947               0.000828454              -0.000645912               0.001705938               0.001060026               0.000000000               0.000000000               0.000000000               0.000000000              -0.000246017               0.003939059               0.000757023              -0.000584638               0.001507886               0.000923248               0.000000000               0.000000000               0.000000000               0.000000000              -0.000232506               0.003400843               0.000668854              -0.000512294               0.001304368               0.000792073               0.000000000               0.000000000               0.000000000               0.000000000              -0.000196653               0.002852964               0.000559199              -0.000430364               0.001094433               0.000664069               0.000000000               0.000000000               0.000000000               0.000000000              -0.000144884               0.002296437               0.000418944              -0.000341385               0.000879266               0.000537881               0.000000000               0.000000000               0.000000000               0.000000000              -0.000078056               0.001737345               0.000233500              -0.000246439               0.000661255               0.000414817               0.000000000               0.000000000               0.000000000               0.000000000              -0.000081475               0.001350982               0.000142971              -0.000199425               0.000516798               0.000317373               0.000000000               0.000000000               0.000000000               0.000000000               0.002299773               0.017603252              -0.003430354              -0.001337990               0.006313688               0.004975698               0.000000000               0.000000000               0.000000000               0.000000000               0.001310321               0.013996135              -0.001511674              -0.001258144               0.005084713               0.003826569               0.000000000               0.000000000               0.000000000               0.000000000               0.000901594               0.011336780               0.000334586              -0.001078997               0.004138554               0.003059558               0.000000000               0.000000000               0.000000000               0.000000000               0.000401291               0.009720151               0.001024975              -0.001064532               0.003594862               0.002530330               0.000000000               0.000000000               0.000000000               0.000000000              -0.000009218               0.008590734               0.001257127              -0.001077296               0.003222648               0.002145352               0.000000000               0.000000000               0.000000000               0.000000000              -0.000303590               0.007722185               0.001296432              -0.001079117               0.002933741               0.001854624               0.000000000               0.000000000               0.000000000               0.000000000              -0.000496398               0.006998032               0.001257121              -0.001060901               0.002686288               0.001625386               0.000000000               0.000000000               0.000000000               0.000000000              -0.000604240               0.006363165               0.001185151              -0.001021983               0.002461695               0.001439711               0.000000000               0.000000000               0.000000000               0.000000000              -0.000649409               0.005778687               0.001099463              -0.000965862               0.002248164               0.001282301               0.000000000               0.000000000               0.000000000               0.000000000              -0.000647868               0.005224368               0.001013906              -0.000895995               0.002040103               0.001144109               0.000000000               0.000000000               0.000000000               0.000000000              -0.000607565               0.004689591               0.000930817              -0.000814034               0.001834526               0.001020492               0.000000000               0.000000000               0.000000000               0.000000000              -0.000533213               0.004171726               0.000837570              -0.000721419               0.001631034               0.000909615               0.000000000               0.000000000               0.000000000               0.000000000              -0.000435308               0.003669778               0.000725094              -0.000621962               0.001430567               0.000808606               0.000000000               0.000000000               0.000000000               0.000000000              -0.000325723               0.003189015               0.000591566              -0.000520772               0.001236585               0.000715813               0.000000000               0.000000000               0.000000000               0.000000000              -0.000216310               0.002740155               0.000430383              -0.000423635               0.001054587               0.000630953               0.000000000               0.000000000               0.000000000               0.000000000              -0.000109697               0.002340434               0.000232863              -0.000333690               0.000891367               0.000557677               0.000000000               0.000000000               0.000000000               0.000000000              -0.000082614               0.002096026               0.000138258              -0.000292983               0.000796329               0.000503347               0.000000000               0.000000000               0.000000000               0.000000000               0.002224828               0.015170545              -0.003783623              -0.001062008               0.005410800               0.004348792               0.000000000               0.000000000               0.000000000               0.000000000               0.000772718               0.012524200              -0.001670601              -0.001275754               0.004599943               0.003324189               0.000000000               0.000000000               0.000000000               0.000000000              -0.000123179               0.010768995               0.000318489              -0.001392313               0.004053733               0.002661420               0.000000000               0.000000000               0.000000000               0.000000000              -0.000704200               0.009540024               0.000999476              -0.001456575               0.003665501               0.002208926               0.000000000               0.000000000               0.000000000               0.000000000              -0.001043648               0.008582070               0.001204743              -0.001464123               0.003348702               0.001884579               0.000000000               0.000000000               0.000000000               0.000000000              -0.001206926               0.007788778               0.001224319              -0.001426191               0.003071630               0.001645439               0.000000000               0.000000000               0.000000000               0.000000000              -0.001252450               0.007093102               0.001175835              -0.001356304               0.002816445               0.001460141               0.000000000               0.000000000               0.000000000               0.000000000              -0.001227005               0.006466422               0.001099835              -0.001268427               0.002578261               0.001309834               0.000000000               0.000000000               0.000000000               0.000000000              -0.001155590               0.005889227               0.001009118              -0.001169497               0.002352888               0.001183391               0.000000000               0.000000000               0.000000000               0.000000000              -0.001048922               0.005345419               0.000917003              -0.001061521               0.002135629               0.001074108               0.000000000               0.000000000               0.000000000               0.000000000              -0.000909831               0.004828891               0.000829396              -0.000944796               0.001924546               0.000979750               0.000000000               0.000000000               0.000000000               0.000000000              -0.000746903               0.004341796               0.000735846              -0.000822811               0.001721521               0.000898710               0.000000000               0.000000000               0.000000000               0.000000000              -0.000577314               0.003894143               0.000624259              -0.000703259               0.001532454               0.000829195               0.000000000               0.000000000               0.000000000               0.000000000              -0.000409729               0.003496238               0.000494646              -0.000590677               0.001362293               0.000771616               0.000000000               0.000000000               0.000000000               0.000000000              -0.000254202               0.003156860               0.000346971              -0.000489932               0.001215587               0.000725655               0.000000000               0.000000000               0.000000000               0.000000000              -0.000120002               0.002896609               0.000182230              -0.000407076               0.001101219               0.000694143               0.000000000               0.000000000               0.000000000               0.000000000              -0.000072228               0.002765545               0.000104519              -0.000372778               0.001046098               0.000673321               0.000000000               0.000000000               0.000000000               0.000000000               0.001865504               0.012551861              -0.003696906              -0.000869419               0.004473717               0.003604298               0.000000000               0.000000000               0.000000000               0.000000000               0.000055260               0.010976123              -0.001680271              -0.001351291               0.004109101               0.002757810               0.000000000               0.000000000               0.000000000               0.000000000              -0.001230719               0.010150031               0.000178380              -0.001730269               0.003960066               0.002229797               0.000000000               0.000000000               0.000000000               0.000000000              -0.001790388               0.009280862               0.000758060              -0.001831499               0.003704089               0.001872590               0.000000000               0.000000000               0.000000000               0.000000000              -0.001984384               0.008473956               0.000921946              -0.001803384               0.003425752               0.001622368               0.000000000               0.000000000               0.000000000               0.000000000              -0.001974003               0.007743301               0.000932768              -0.001708160               0.003150461               0.001442301               0.000000000               0.000000000               0.000000000               0.000000000              -0.001855732               0.007068235               0.000891173              -0.001579425               0.002882530               0.001303105               0.000000000               0.000000000               0.000000000               0.000000000              -0.001685909               0.006450416               0.000834097              -0.001438515               0.002629622               0.001191107               0.000000000               0.000000000               0.000000000               0.000000000              -0.001486846               0.005885794               0.000761445              -0.001293289               0.002393008               0.001099719               0.000000000               0.000000000               0.000000000               0.000000000              -0.001269409               0.005360637               0.000684592              -0.001146105               0.002168896               0.001022791               0.000000000               0.000000000               0.000000000               0.000000000              -0.001036911               0.004879154               0.000610973              -0.000998733               0.001959279               0.000960546               0.000000000               0.000000000               0.000000000               0.000000000              -0.000798693               0.004447053               0.000533445              -0.000855389               0.001767466               0.000912076               0.000000000               0.000000000               0.000000000               0.000000000              -0.000574221               0.004074571               0.000443431              -0.000724653               0.001599728               0.000875075               0.000000000               0.000000000               0.000000000               0.000000000              -0.000373852               0.003768634               0.000335257              -0.000611272               0.001459956               0.000848684               0.000000000               0.000000000               0.000000000               0.000000000              -0.000206648               0.003537222               0.000216550              -0.000519645               0.001352277               0.000832633               0.000000000               0.000000000               0.000000000               0.000000000              -0.000086113               0.003396601               0.000104220              -0.000456867               0.001284478               0.000827611               0.000000000               0.000000000               0.000000000               0.000000000              -0.000039310               0.003353714               0.000052011              -0.000433955               0.001262545               0.000828591               0.000000000               0.000000000               0.000000000               0.000000000               0.001159291               0.009979127              -0.003253898              -0.000812658               0.003597228               0.002784570               0.000000000               0.000000000               0.000000000               0.000000000              -0.000802709               0.009475622              -0.001598470              -0.001485466               0.003653664               0.002168198               0.000000000               0.000000000               0.000000000               0.000000000              -0.002294410               0.009501876              -0.000090011              -0.002048133               0.003849971               0.001801838               0.000000000               0.000000000               0.000000000               0.000000000              -0.002712558               0.008931289               0.000350819              -0.002133615               0.003688272               0.001554656               0.000000000               0.000000000               0.000000000               0.000000000              -0.002704837               0.008243713               0.000487015              -0.002044773               0.003429468               0.001384695               0.000000000               0.000000000               0.000000000               0.000000000              -0.002506744               0.007562765               0.000511639              -0.001885370               0.003149353               0.001263983               0.000000000               0.000000000               0.000000000               0.000000000              -0.002224693               0.006916874               0.000497994              -0.001698865               0.002871890               0.001173025               0.000000000               0.000000000               0.000000000               0.000000000              -0.001912714               0.006325410               0.000479262              -0.001507940               0.002611096               0.001103155               0.000000000               0.000000000               0.000000000               0.000000000              -0.001591461               0.005788907               0.000442547              -0.001320408               0.002369752               0.001049344               0.000000000               0.000000000               0.000000000               0.000000000              -0.001267314               0.005303422               0.000396756              -0.001138168               0.002147179               0.001009011               0.000000000               0.000000000               0.000000000               0.000000000              -0.000957147               0.004877548               0.000352132              -0.000968621               0.001948707               0.000980086               0.000000000               0.000000000               0.000000000               0.000000000              -0.000671830               0.004517304               0.000301251              -0.000816597               0.001777952               0.000961355               0.000000000               0.000000000               0.000000000               0.000000000              -0.000423011               0.004226948               0.000237868              -0.000686996               0.001637967               0.000950971               0.000000000               0.000000000               0.000000000               0.000000000              -0.000223613               0.004010787               0.000159945              -0.000585202               0.001531983               0.000946781               0.000000000               0.000000000               0.000000000               0.000000000              -0.000081691               0.003878657               0.000080911              -0.000515465               0.001464694               0.000949229               0.000000000               0.000000000               0.000000000               0.000000000              -0.000012064               0.003829643               0.000024690              -0.000483228               0.001437611               0.000954383               0.000000000               0.000000000               0.000000000               0.000000000               0.000010162               0.003840788               0.000000923              -0.000476286               0.001439012               0.000962726               0.000000000               0.000000000               0.000000000               0.000000000               0.000129387               0.007609435              -0.002563273              -0.000902659               0.002837339               0.001934680               0.000000000               0.000000000               0.000000000               0.000000000              -0.001755749               0.008113222              -0.001475677              -0.001672555               0.003261898               0.001589343               0.000000000               0.000000000               0.000000000               0.000000000              -0.003211150               0.008826829              -0.000466993              -0.002307529               0.003711423               0.001403894               0.000000000               0.000000000               0.000000000               0.000000000              -0.003386772               0.008476177              -0.000149724              -0.002329556               0.003601883               0.001272327               0.000000000               0.000000000               0.000000000               0.000000000              -0.003152676               0.007891944              -0.000011478              -0.002168741               0.003353535               0.001184794               0.000000000               0.000000000               0.000000000               0.000000000              -0.002769783               0.007269724               0.000052955              -0.001947379               0.003072344               0.001124964               0.000000000               0.000000000               0.000000000               0.000000000              -0.002337785               0.006675150               0.000084903              -0.001711059               0.002795381               0.001084322               0.000000000               0.000000000               0.000000000               0.000000000              -0.001901279               0.006132057               0.000112938              -0.001479483               0.002537160               0.001057677               0.000000000               0.000000000               0.000000000               0.000000000              -0.001472585               0.005637599               0.000125587              -0.001256916               0.002298153               0.001041237               0.000000000               0.000000000               0.000000000               0.000000000              -0.001068584               0.005208285               0.000124627              -0.001051752               0.002086662               0.001034910               0.000000000               0.000000000               0.000000000               0.000000000              -0.000712558               0.004853343               0.000116929              -0.000873875               0.001909056               0.001035181               0.000000000               0.000000000               0.000000000               0.000000000              -0.000413136               0.004576099               0.000096816              -0.000726937               0.001767663               0.001040727               0.000000000               0.000000000               0.000000000               0.000000000              -0.000174500               0.004377179               0.000064697              -0.000612583               0.001663239               0.001050656               0.000000000               0.000000000               0.000000000               0.000000000              -0.000010143               0.004259106               0.000024970              -0.000536190               0.001598418               0.001062228               0.000000000               0.000000000               0.000000000               0.000000000               0.000067933               0.004222549              -0.000010608              -0.000502343               0.001574950               0.001072607               0.000000000               0.000000000               0.000000000               0.000000000               0.000062911               0.004251140              -0.000020624              -0.000507799               0.001586299               0.001078499               0.000000000               0.000000000               0.000000000               0.000000000               0.000046792               0.004296337              -0.000020655              -0.000519494               0.001605263               0.001085769               0.000000000               0.000000000               0.000000000               0.000000000              -0.001093758               0.005612622              -0.001729106              -0.001111735               0.002241433               0.001129698               0.000000000               0.000000000               0.000000000               0.000000000              -0.002699015               0.006898828              -0.001347823              -0.001874480               0.002924413               0.001049933               0.000000000               0.000000000               0.000000000               0.000000000              -0.003940617               0.008136650              -0.000921233              -0.002494806               0.003543792               0.001048985               0.000000000               0.000000000               0.000000000               0.000000000              -0.003854842               0.008017182              -0.000678620              -0.002447708               0.003488270               0.001040562               0.000000000               0.000000000               0.000000000               0.000000000              -0.003430037               0.007570321              -0.000512606              -0.002232548               0.003267598               0.001035049               0.000000000               0.000000000               0.000000000               0.000000000              -0.002902905               0.007037985              -0.000395971              -0.001968332               0.003002082               0.001033750               0.000000000               0.000000000               0.000000000               0.000000000              -0.002345095               0.006519863              -0.000313062              -0.001694389               0.002738062               0.001043673               0.000000000               0.000000000               0.000000000               0.000000000              -0.001804757               0.006036443              -0.000238862              -0.001431336               0.002489240               0.001057904               0.000000000               0.000000000               0.000000000               0.000000000              -0.001294678               0.005589067              -0.000172108              -0.001184135               0.002257715               0.001073581               0.000000000               0.000000000               0.000000000               0.000000000              -0.000838181               0.005205491              -0.000117862              -0.000965002               0.002056814               0.001091812               0.000000000               0.000000000               0.000000000               0.000000000              -0.000454075               0.004902680              -0.000081067              -0.000783111               0.001895247               0.001112136               0.000000000               0.000000000               0.000000000               0.000000000              -0.000144598               0.004682939              -0.000058684              -0.000639590               0.001774161               0.001134571               0.000000000               0.000000000               0.000000000               0.000000000               0.000081854               0.004545127              -0.000046317              -0.000537444               0.001694175               0.001156731               0.000000000               0.000000000               0.000000000               0.000000000               0.000214861               0.004494558              -0.000040493              -0.000481246               0.001658586               0.001177341               0.000000000               0.000000000               0.000000000               0.000000000               0.000257674               0.004532036              -0.000034536              -0.000469876               0.001667289               0.001197413               0.000000000               0.000000000               0.000000000               0.000000000               0.000226982               0.004634160              -0.000021793              -0.000494150               0.001709421               0.001215271               0.000000000               0.000000000               0.000000000               0.000000000               0.000185889               0.004703694              -0.000012249              -0.000518252               0.001740633               0.001222381               0.000000000               0.000000000               0.000000000               0.000000000              -0.002513795               0.003759639              -0.000853863              -0.001412625               0.001724075               0.000311450               0.000000000               0.000000000               0.000000000               0.000000000              -0.003502063               0.005477567              -0.001211369              -0.001997965               0.002491826               0.000493861               0.000000000               0.000000000               0.000000000               0.000000000              -0.004391048               0.007101969              -0.001397486              -0.002534383               0.003212093               0.000677710               0.000000000               0.000000000               0.000000000               0.000000000              -0.004155951               0.007341068              -0.001232719              -0.002476109               0.003272368               0.000796259               0.000000000               0.000000000               0.000000000               0.000000000              -0.003651069               0.007143844              -0.001042094              -0.002262126               0.003135299               0.000873174               0.000000000               0.000000000               0.000000000               0.000000000              -0.003077867               0.006804528              -0.000877691              -0.002004761               0.002936407               0.000931646               0.000000000               0.000000000               0.000000000               0.000000000              -0.002484519               0.006432179              -0.000745246              -0.001735713               0.002722609               0.000986896               0.000000000               0.000000000               0.000000000               0.000000000              -0.001909234               0.006063253              -0.000626343              -0.001473866               0.002512353               0.001038487               0.000000000               0.000000000               0.000000000               0.000000000              -0.001372500               0.005709541              -0.000510600              -0.001228377               0.002312620               0.001084243               0.000000000               0.000000000               0.000000000               0.000000000              -0.000881733               0.005391761              -0.000407196              -0.001004617               0.002132108               0.001127491               0.000000000               0.000000000               0.000000000               0.000000000              -0.000455495               0.005131955              -0.000322171              -0.000812303               0.001981402               0.001169099               0.000000000               0.000000000               0.000000000               0.000000000              -0.000102175               0.004937156              -0.000245854              -0.000655459               0.001864188               0.001208730               0.000000000               0.000000000               0.000000000               0.000000000               0.000170392               0.004807663              -0.000173754              -0.000537060               0.001781558               0.001244499               0.000000000               0.000000000               0.000000000               0.000000000               0.000357488               0.004747785              -0.000112677              -0.000459414               0.001735717               0.001276303               0.000000000               0.000000000               0.000000000               0.000000000               0.000458525               0.004763653              -0.000061091              -0.000423508               0.001729038               0.001305529               0.000000000               0.000000000               0.000000000               0.000000000               0.000486770               0.004856206              -0.000022203              -0.000424486               0.001760215               0.001335729               0.000000000               0.000000000               0.000000000               0.000000000               0.000470135               0.004915343              -0.000003086              -0.000438116               0.001784470               0.001346354               0.000000000               0.000000000               0.000000000               0.000000000              -0.004307549               0.002083497              -0.000012189              -0.001875765               0.001319745              -0.000556020               0.000000000               0.000000000               0.000000000               0.000000000              -0.004402848               0.004039760              -0.001019813              -0.002156033               0.002065250              -0.000090783               0.000000000               0.000000000               0.000000000               0.000000000              -0.004764495               0.005868412              -0.001783713              -0.002520231               0.002796194               0.000275963               0.000000000               0.000000000               0.000000000               0.000000000              -0.004390968               0.006447951              -0.001764190              -0.002452601               0.002966829               0.000514228               0.000000000               0.000000000               0.000000000               0.000000000              -0.003830961               0.006535778              -0.001581944              -0.002253578               0.002929763               0.000676186               0.000000000               0.000000000               0.000000000               0.000000000              -0.003235062               0.006424112              -0.001387830              -0.002016157               0.002813402               0.000797244               0.000000000               0.000000000               0.000000000               0.000000000              -0.002638871               0.006230269              -0.001211953              -0.001768356               0.002666187               0.000897831               0.000000000               0.000000000               0.000000000               0.000000000              -0.002055155               0.006000306              -0.001051237              -0.001520718               0.002506988               0.000986270               0.000000000               0.000000000               0.000000000               0.000000000              -0.001498483               0.005757631              -0.000899623              -0.001281632               0.002346402               0.001064770               0.000000000               0.000000000               0.000000000               0.000000000              -0.000974508               0.005520174              -0.000760185              -0.001055460               0.002191860               0.001136400               0.000000000               0.000000000               0.000000000               0.000000000              -0.000501349               0.005308149              -0.000632065              -0.000851523               0.002053206               0.001201684               0.000000000               0.000000000               0.000000000               0.000000000              -0.000093917               0.005132742              -0.000506908              -0.000676810               0.001936500               0.001259690               0.000000000               0.000000000               0.000000000               0.000000000               0.000245836               0.005004635              -0.000383040              -0.000533390               0.001845992               0.001312602               0.000000000               0.000000000               0.000000000               0.000000000               0.000514073               0.004925245              -0.000266511              -0.000422877               0.001782691               0.001359814               0.000000000               0.000000000               0.000000000               0.000000000               0.000702505               0.004897447              -0.000156133              -0.000348741               0.001748713               0.001399972               0.000000000               0.000000000               0.000000000               0.000000000               0.000807699               0.004927683              -0.000066159              -0.000313073               0.001746902               0.001433830               0.000000000               0.000000000               0.000000000               0.000000000               0.000829711               0.004950282              -0.000027523              -0.000307643               0.001752625               0.001444982               0.000000000               0.000000000               0.000000000               0.000000000              -0.006336022               0.000727768               0.000718522              -0.002466976               0.001064907              -0.001402069               0.000000000               0.000000000               0.000000000               0.000000000              -0.005433895               0.002676335              -0.000758695              -0.002372248               0.001682849              -0.000689399               0.000000000               0.000000000               0.000000000               0.000000000              -0.005073656               0.004442626              -0.001977265              -0.002457944               0.002300174              -0.000157770               0.000000000               0.000000000               0.000000000               0.000000000              -0.004483981               0.005259001              -0.002141663              -0.002338863               0.002532603               0.000193740               0.000000000               0.000000000               0.000000000               0.000000000              -0.003855155               0.005607809              -0.002015586              -0.002146654               0.002584802               0.000438148               0.000000000               0.000000000               0.000000000               0.000000000              -0.003240447               0.005731406              -0.001822605              -0.001931589               0.002554312               0.000622723               0.000000000               0.000000000               0.000000000               0.000000000              -0.002647819               0.005737934              -0.001626554              -0.001710170               0.002482682               0.000772512               0.000000000               0.000000000               0.000000000               0.000000000              -0.002067690               0.005671822              -0.001443130              -0.001484358               0.002385374               0.000901016               0.000000000               0.000000000               0.000000000               0.000000000              -0.001501763               0.005565916              -0.001272288              -0.001258898               0.002274919               0.001016021               0.000000000               0.000000000               0.000000000               0.000000000              -0.000961364               0.005439378              -0.001111884              -0.001040432               0.002159918               0.001119487               0.000000000               0.000000000               0.000000000               0.000000000              -0.000454979               0.005307760              -0.000958660              -0.000834085               0.002047264               0.001213179               0.000000000               0.000000000               0.000000000               0.000000000               0.000002572               0.005183501              -0.000804297              -0.000646972               0.001943474               0.001296502               0.000000000               0.000000000               0.000000000               0.000000000               0.000405729               0.005084820              -0.000647844              -0.000483453               0.001856074               0.001372621               0.000000000               0.000000000               0.000000000               0.000000000               0.000739812               0.005008355              -0.000487494              -0.000348614               0.001785640               0.001437025               0.000000000               0.000000000               0.000000000               0.000000000               0.000997874               0.004964216              -0.000320468              -0.000246324               0.001736830               0.001490506               0.000000000               0.000000000               0.000000000               0.000000000               0.001165298               0.004963321              -0.000154488              -0.000183428               0.001715566               0.001532139               0.000000000               0.000000000               0.000000000               0.000000000               0.001217075               0.004971055              -0.000074200              -0.000164979               0.001711995               0.001547016               0.000000000               0.000000000               0.000000000               0.000000000              -0.008458451              -0.000227871               0.001224440              -0.003143433               0.000971847              -0.002171586               0.000000000               0.000000000               0.000000000               0.000000000              -0.006529805               0.001467431              -0.000469843              -0.002632102               0.001366502              -0.001265601               0.000000000               0.000000000               0.000000000               0.000000000              -0.005332285               0.002952196              -0.001944437              -0.002368627               0.001773595              -0.000595032               0.000000000               0.000000000               0.000000000               0.000000000              -0.004449012               0.003873963              -0.002271559              -0.002152621               0.002008847              -0.000143774               0.000000000               0.000000000               0.000000000               0.000000000              -0.003722641               0.004427743              -0.002225690              -0.001949454               0.002125717               0.000176262               0.000000000               0.000000000               0.000000000               0.000000000              -0.003086474               0.004765115              -0.002066580              -0.001753064               0.002172709               0.000419646               0.000000000               0.000000000               0.000000000               0.000000000              -0.002495640               0.004966268              -0.001885803              -0.001556646               0.002174287               0.000617642               0.000000000               0.000000000               0.000000000               0.000000000              -0.001919449               0.005079865              -0.001707881              -0.001354774               0.002144862               0.000790088               0.000000000               0.000000000               0.000000000               0.000000000              -0.001356595               0.005132280              -0.001533854              -0.001150256               0.002094161               0.000943905               0.000000000               0.000000000               0.000000000               0.000000000              -0.000814293               0.005140473              -0.001368919              -0.000947917               0.002029446               0.001081529               0.000000000               0.000000000               0.000000000               0.000000000              -0.000289873               0.005120909              -0.001211469              -0.000748815               0.001956557               0.001207743               0.000000000               0.000000000               0.000000000               0.000000000               0.000207392               0.005081273              -0.001053272              -0.000557386               0.001879536               0.001322150               0.000000000               0.000000000               0.000000000               0.000000000               0.000667394               0.005036310              -0.000886766              -0.000379265               0.001805175               0.001425909               0.000000000               0.000000000               0.000000000               0.000000000               0.001075745               0.004997048              -0.000705292              -0.000221227               0.001739408               0.001518181               0.000000000               0.000000000               0.000000000               0.000000000               0.001416559               0.004974002              -0.000499136              -0.000090541               0.001688164               0.001597623               0.000000000               0.000000000               0.000000000               0.000000000               0.001667742               0.004978070              -0.000260345               0.000003144               0.001658292               0.001661436               0.000000000               0.000000000               0.000000000               0.000000000               0.001776248               0.004992179              -0.000137081               0.000042070               0.001650020               0.001692090               0.000000000               0.000000000               0.000000000               0.000000000              -0.010483355              -0.000814344               0.001399855              -0.003829463               0.001005032              -0.002824430               0.000000000               0.000000000               0.000000000               0.000000000              -0.007604522               0.000485586              -0.000218315              -0.002912391               0.001132651              -0.001779740               0.000000000               0.000000000               0.000000000               0.000000000              -0.005558436               0.001556808              -0.001683896              -0.002279012               0.001278597              -0.001000414               0.000000000               0.000000000               0.000000000               0.000000000              -0.004339762               0.002466084              -0.002094637              -0.001935668               0.001467240              -0.000468428               0.000000000               0.000000000               0.000000000               0.000000000              -0.003486048               0.003147773              -0.002120129              -0.001700736               0.001616158              -0.000084578               0.000000000               0.000000000               0.000000000               0.000000000              -0.002804665               0.003648934              -0.002014638              -0.001507863               0.001718919               0.000211056               0.000000000               0.000000000               0.000000000               0.000000000              -0.002205034               0.004017171              -0.001877331              -0.001329032               0.001782054               0.000453022               0.000000000               0.000000000               0.000000000               0.000000000              -0.001640545               0.004297379              -0.001730038              -0.001152375               0.001816570               0.000664195               0.000000000               0.000000000               0.000000000               0.000000000              -0.001092170               0.004508582              -0.001573961              -0.000973135               0.001827224               0.000854089               0.000000000               0.000000000               0.000000000               0.000000000              -0.000551962               0.004666550              -0.001426248              -0.000790303               0.001818935               0.001028632               0.000000000               0.000000000               0.000000000               0.000000000              -0.000018917               0.004777990              -0.001285994              -0.000604342               0.001794094               0.001189753               0.000000000               0.000000000               0.000000000               0.000000000               0.000504343               0.004848289              -0.001142286              -0.000416907               0.001755049               0.001338142               0.000000000               0.000000000               0.000000000               0.000000000               0.001015386               0.004889845              -0.000990418              -0.000230461               0.001706752               0.001476291               0.000000000               0.000000000               0.000000000               0.000000000               0.001509731               0.004917744              -0.000817902              -0.000048569               0.001655421               0.001606852               0.000000000               0.000000000               0.000000000               0.000000000               0.001969693               0.004944628              -0.000604056               0.000120555               0.001608008               0.001728563               0.000000000               0.000000000               0.000000000               0.000000000               0.002374346               0.004975318              -0.000330187               0.000268462               0.001568935               0.001837398               0.000000000               0.000000000               0.000000000               0.000000000               0.002607558               0.005009868              -0.000186867               0.000351597               0.001552740               0.001904337               0.000000000               0.000000000               0.000000000               0.000000000              -0.012162908              -0.001111797               0.001207406              -0.004422113               0.001103431              -0.003318682               0.000000000               0.000000000               0.000000000               0.000000000              -0.008525945              -0.000217911              -0.000056393              -0.003169988               0.000984019              -0.002185969               0.000000000               0.000000000               0.000000000               0.000000000              -0.005757885               0.000428406              -0.001232024              -0.002212755               0.000880381              -0.001332375               0.000000000               0.000000000               0.000000000               0.000000000              -0.004219258               0.001248620              -0.001606336              -0.001738297               0.000995631              -0.000742666               0.000000000               0.000000000               0.000000000               0.000000000              -0.003221627               0.001977136              -0.001668876              -0.001455250               0.001144120              -0.000311130               0.000000000               0.000000000               0.000000000               0.000000000              -0.002479723               0.002582909              -0.001616962              -0.001252757               0.001278546               0.000025789               0.000000000               0.000000000               0.000000000               0.000000000              -0.001864174               0.003080717              -0.001529676              -0.001084153               0.001388279               0.000304126               0.000000000               0.000000000               0.000000000               0.000000000              -0.001315347               0.003492338              -0.001425465              -0.000929796               0.001474032               0.000544237               0.000000000               0.000000000               0.000000000               0.000000000              -0.000785842               0.003838023              -0.001311759              -0.000774442               0.001537475               0.000763033               0.000000000               0.000000000               0.000000000               0.000000000              -0.000253318               0.004128786              -0.001201331              -0.000611091               0.001579945               0.000968853               0.000000000               0.000000000               0.000000000               0.000000000               0.000281715               0.004361730              -0.001093659              -0.000439573               0.001600420               0.001160847               0.000000000               0.000000000               0.000000000               0.000000000               0.000825627               0.004540144              -0.000984803              -0.000257908               0.001599335               0.001341427               0.000000000               0.000000000               0.000000000               0.000000000               0.001386356               0.004678154              -0.000870946              -0.000064886               0.001580998               0.001516111               0.000000000               0.000000000               0.000000000               0.000000000               0.001964984               0.004788402              -0.000735980               0.000138317               0.001550012               0.001688329               0.000000000               0.000000000               0.000000000               0.000000000               0.002561635               0.004877901              -0.000558263               0.000350872               0.001508993               0.001859865               0.000000000               0.000000000               0.000000000               0.000000000               0.003171730               0.004947816              -0.000314681               0.000570916               0.001458950               0.002029866               0.000000000               0.000000000               0.000000000               0.000000000               0.003589281               0.005017762              -0.000188536               0.000718753               0.001432986               0.002151739               0.000000000               0.000000000               0.000000000               0.000000000              -0.013274553              -0.001222944               0.000693967              -0.004825086               0.001200706              -0.003624380               0.000000000               0.000000000               0.000000000               0.000000000              -0.009149339              -0.000629236               0.000003104              -0.003352345               0.000907697              -0.002444648               0.000000000               0.000000000               0.000000000               0.000000000              -0.005900665              -0.000306286              -0.000649239              -0.002174462               0.000622721              -0.001551741               0.000000000               0.000000000               0.000000000               0.000000000              -0.004128451               0.000417757              -0.000871620              -0.001600387               0.000672710              -0.000927677               0.000000000               0.000000000               0.000000000               0.000000000              -0.003012520               0.001154882              -0.000921079              -0.001274053               0.000809639              -0.000464414               0.000000000               0.000000000               0.000000000               0.000000000              -0.002217810               0.001813402              -0.000904489              -0.001058352               0.000957245              -0.000101107               0.000000000               0.000000000               0.000000000               0.000000000              -0.001589981               0.002387847              -0.000863464              -0.000894722               0.001094181               0.000199459               0.000000000               0.000000000               0.000000000               0.000000000              -0.001046906               0.002886036              -0.000810700              -0.000753343               0.001213116               0.000459774               0.000000000               0.000000000               0.000000000               0.000000000              -0.000532378               0.003318553              -0.000753136              -0.000614460               0.001310993               0.000696533               0.000000000               0.000000000               0.000000000               0.000000000              -0.000016119               0.003694212              -0.000694413              -0.000467820               0.001387332               0.000919511               0.000000000               0.000000000               0.000000000               0.000000000               0.000515520               0.004011514              -0.000635014              -0.000308119               0.001439864               0.001131745               0.000000000               0.000000000               0.000000000               0.000000000               0.001072925               0.004271746              -0.000576335              -0.000131621               0.001467775               0.001336153               0.000000000               0.000000000               0.000000000               0.000000000               0.001667099               0.004487929              -0.000514651               0.000064170               0.001474571               0.001538741               0.000000000               0.000000000               0.000000000               0.000000000               0.002309158               0.004671178              -0.000440147               0.000282034               0.001463032               0.001745067               0.000000000               0.000000000               0.000000000               0.000000000               0.003015208               0.004820341              -0.000340467               0.000528155               0.001430712               0.001958868               0.000000000               0.000000000               0.000000000               0.000000000               0.003801759               0.004925610              -0.000195824               0.000809950               0.001371870               0.002181820               0.000000000               0.000000000               0.000000000               0.000000000               0.004387821               0.005025552              -0.000121371               0.001017229               0.001336091               0.002353320               0.000000000               0.000000000               0.000000000               0.000000000              -0.013664447              -0.001249695              -0.000000000              -0.004967953               0.001239411              -0.003728542               0.000000000               0.000000000               0.000000000               0.000000000              -0.009368731              -0.000765428              -0.000000000              -0.003417593               0.000884049              -0.002533544               0.000000000               0.000000000               0.000000000               0.000000000              -0.005950816              -0.000560682               0.000000000              -0.002161469               0.000533592              -0.001627877               0.000000000               0.000000000               0.000000000               0.000000000              -0.004093523               0.000124987               0.000000000              -0.001550693               0.000558556              -0.000992137               0.000000000               0.000000000               0.000000000               0.000000000              -0.002935304               0.000859145               0.000000000              -0.001208131               0.000689087              -0.000519044               0.000000000               0.000000000               0.000000000               0.000000000              -0.002117850               0.001533013               0.000000000              -0.000985819               0.000839605              -0.000146214               0.000000000               0.000000000               0.000000000               0.000000000              -0.001483098               0.002133731              -0.000000000              -0.000822876               0.000985528               0.000162652               0.000000000               0.000000000               0.000000000               0.000000000              -0.000939227               0.002662908               0.000000000              -0.000685072               0.001115984               0.000430912               0.000000000               0.000000000               0.000000000               0.000000000              -0.000431208               0.003126085               0.000000000              -0.000552463               0.001226172               0.000673710               0.000000000               0.000000000               0.000000000               0.000000000               0.000075589               0.003529181               0.000000000              -0.000412801               0.001313982               0.000901181               0.000000000               0.000000000               0.000000000               0.000000000               0.000601728               0.003871908               0.000000000              -0.000258340               0.001376736               0.001118396               0.000000000               0.000000000               0.000000000               0.000000000               0.001161544               0.004161759               0.000000000              -0.000084641               0.001415453               0.001330812               0.000000000               0.000000000               0.000000000               0.000000000               0.001765607               0.004408320              -0.000000000               0.000111062               0.001432405               0.001543466               0.000000000               0.000000000               0.000000000               0.000000000               0.002432271               0.004620931               0.000000000               0.000334482               0.001428801               0.001763283               0.000000000               0.000000000               0.000000000               0.000000000               0.003180193               0.004795613               0.000000000               0.000593115               0.001400817               0.001993932               0.000000000               0.000000000               0.000000000               0.000000000               0.004036462               0.004915767              -0.000000000               0.000899193               0.001338842               0.002238035               0.000000000               0.000000000               0.000000000               0.000000000               0.004692275               0.005027780               0.000000000               0.001131119               0.001298870               0.002429989               0.000000000               0.000000000               0.000000000               0.000000000               0.000000000               0.000000000               0.000000000               0.000000000               0.000000000               0.000000000               0.000000000               0.000000000               0.000000000               0.000000000               0.000000000               0.000000000               0.000000000               0.000000000               0.000000000               0.000000000               0.000000000               0.000000000               0.000000000               0.000000000               0.000000000               0.000000000               0.000000000               0.000000000               0.000000000               0.000000000               0.000000000               0.000000000               0.000000000               0.000000000               0.000000000               0.000000000               0.000000000               0.000000000               0.000000000               0.000000000               0.000000000               0.000000000               0.000000000               0.000000000               0.000000000               0.000000000               0.000000000               0.000000000               0.000000000               0.000000000               0.000000000               0.000000000               0.000000000               0.000000000               0.000000000               0.000000000               0.000000000               0.000000000               0.000000000               0.000000000               0.000000000               0.000000000               0.000000000               0.000000000               0.000000000               0.000000000               0.000000000               0.000000000               0.000000000               0.000000000               0.000000000               0.000000000               0.000000000               0.000000000               0.000000000               0.000000000               0.000000000               0.000000000               0.000000000               0.000000000               0.000000000               0.000000000               0.000000000               0.000000000               0.000000000               0.000000000               0.000000000               0.000000000               0.000000000               0.000000000               0.000000000               0.000000000               0.000000000               0.000000000               0.000000000               0.000000000               0.000000000               0.000000000               0.000000000               0.000000000               0.000000000               0.000000000               0.000000000               0.000000000               0.000000000               0.000000000               0.000000000               0.000000000               0.000000000               0.000000000               0.000000000               0.000000000               0.000000000               0.000000000               0.000000000               0.000000000               0.000000000               0.000000000               0.000000000               0.000000000               0.000000000               0.000000000               0.000000000               0.000000000               0.000000000               0.000000000               0.000000000               0.000000000               0.000000000               0.000000000               0.000000000               0.000000000               0.000000000               0.000000000               0.000000000               0.000000000               0.000000000               0.000000000               0.000000000               0.000000000               0.000000000               0.000000000               0.000000000               0.000000000               0.000000000               0.000000000               0.000000000               0.000000000               0.000000000               0.000000000               0.000000000               0.000000000               0.000000000               0.000000000               0.000000000               0.000000000               0.000000000               0.000000000               0.000000000               0.000000000               0.000000000               0.000000000               0.000000000               0.000000000               0.000000000               0.000000000               0.000000000               0.000000000               0.000000000               0.000000000               0.000000000               0.000000000               0.000000000               0.000000000               0.002055321               0.020896414               0.001418683              -0.001841302               0.007579169               0.005737867               0.000000000               0.000000000               0.000000000               0.000000000               0.001838736               0.016055463               0.000636894              -0.001317404               0.005790902               0.004473499               0.000000000               0.000000000               0.000000000               0.000000000               0.002246111               0.012137602              -0.000137201              -0.000674907               0.004270796               0.003595889               0.000000000               0.000000000               0.000000000               0.000000000               0.002002547               0.009903427              -0.000459110              -0.000486972               0.003463434               0.002976461               0.000000000               0.000000000               0.000000000               0.000000000               0.001596965               0.008470740              -0.000584263              -0.000459980               0.002976878               0.002516899               0.000000000               0.000000000               0.000000000               0.000000000               0.001193383               0.007449866              -0.000619331              -0.000483714               0.002644502               0.002160788               0.000000000               0.000000000               0.000000000               0.000000000               0.000842015               0.006653060              -0.000612199              -0.000515876               0.002389623               0.001873747               0.000000000               0.000000000               0.000000000               0.000000000               0.000555940               0.005979466              -0.000587555              -0.000538955               0.002172787               0.001633832               0.000000000               0.000000000               0.000000000               0.000000000               0.000337901               0.005376226              -0.000556273              -0.000545314               0.001973829               0.001428514               0.000000000               0.000000000               0.000000000               0.000000000               0.000181696               0.004811540              -0.000523045              -0.000533305               0.001781599               0.001248294               0.000000000               0.000000000               0.000000000               0.000000000               0.000071023               0.004264617              -0.000490153              -0.000506442               0.001590339               0.001083896               0.000000000               0.000000000               0.000000000               0.000000000              -0.000007787               0.003717553              -0.000452574              -0.000467613               0.001395043               0.000927430               0.000000000               0.000000000               0.000000000               0.000000000              -0.000060087               0.003151521              -0.000405873              -0.000416472               0.001189321               0.000772849               0.000000000               0.000000000               0.000000000               0.000000000              -0.000083217               0.002552295              -0.000345115              -0.000350243               0.000967504               0.000617261               0.000000000               0.000000000               0.000000000               0.000000000              -0.000080652               0.001905712              -0.000262388              -0.000268458               0.000724717               0.000456259               0.000000000               0.000000000               0.000000000               0.000000000              -0.000050364               0.001198790              -0.000148888              -0.000168735               0.000455838               0.000287103               0.000000000               0.000000000               0.000000000               0.000000000              -0.000081936               0.000673677              -0.000093932              -0.000114935               0.000262868               0.000147933               0.000000000               0.000000000               0.000000000               0.000000000               0.002196567               0.019589431               0.002618928              -0.001624963               0.007071399               0.005446436               0.000000000               0.000000000               0.000000000               0.000000000               0.001656341               0.015229639               0.001165268              -0.001282574               0.005504020               0.004221446               0.000000000               0.000000000               0.000000000               0.000000000               0.001720574               0.011812624              -0.000259121              -0.000831361               0.004214622               0.003383261               0.000000000               0.000000000               0.000000000               0.000000000               0.001356037               0.009835848              -0.000828728              -0.000720965               0.003518905               0.002797939               0.000000000               0.000000000               0.000000000               0.000000000               0.000933331               0.008536720              -0.001037828              -0.000717089               0.003084575               0.002367485               0.000000000               0.000000000               0.000000000               0.000000000               0.000562600               0.007585084              -0.001088550              -0.000737159               0.002774056               0.002036897               0.000000000               0.000000000               0.000000000               0.000000000               0.000267470               0.006823172              -0.001067304              -0.000752594               0.002525232               0.001772639               0.000000000               0.000000000               0.000000000               0.000000000               0.000049783               0.006169132              -0.001015314              -0.000752472               0.002307181               0.001554709               0.000000000               0.000000000               0.000000000               0.000000000              -0.000097937               0.005573267              -0.000953604              -0.000733383               0.002102198               0.001368815               0.000000000               0.000000000               0.000000000               0.000000000              -0.000186353               0.005012087              -0.000890807              -0.000696392               0.001902810               0.001206418               0.000000000               0.000000000               0.000000000               0.000000000              -0.000231785               0.004471947              -0.000828454              -0.000645912               0.001705938               0.001060026               0.000000000               0.000000000               0.000000000               0.000000000              -0.000246017               0.003939059              -0.000757023              -0.000584638               0.001507886               0.000923248               0.000000000               0.000000000               0.000000000               0.000000000              -0.000232506               0.003400843              -0.000668854              -0.000512294               0.001304368               0.000792073               0.000000000               0.000000000               0.000000000               0.000000000              -0.000196653               0.002852964              -0.000559199              -0.000430364               0.001094433               0.000664069               0.000000000               0.000000000               0.000000000               0.000000000              -0.000144884               0.002296437              -0.000418944              -0.000341385               0.000879266               0.000537881               0.000000000               0.000000000               0.000000000               0.000000000              -0.000078056               0.001737345              -0.000233500              -0.000246439               0.000661255               0.000414817               0.000000000               0.000000000               0.000000000               0.000000000              -0.000081475               0.001350982              -0.000142971              -0.000199425               0.000516798               0.000317373               0.000000000               0.000000000               0.000000000               0.000000000               0.002299773               0.017603252               0.003430354              -0.001337990               0.006313688               0.004975698               0.000000000               0.000000000               0.000000000               0.000000000               0.001310321               0.013996135               0.001511674              -0.001258144               0.005084713               0.003826569               0.000000000               0.000000000               0.000000000               0.000000000               0.000901594               0.011336780              -0.000334586              -0.001078997               0.004138554               0.003059558               0.000000000               0.000000000               0.000000000               0.000000000               0.000401291               0.009720151              -0.001024975              -0.001064532               0.003594862               0.002530330               0.000000000               0.000000000               0.000000000               0.000000000              -0.000009218               0.008590734              -0.001257127              -0.001077296               0.003222648               0.002145352               0.000000000               0.000000000               0.000000000               0.000000000              -0.000303590               0.007722185              -0.001296432              -0.001079117               0.002933741               0.001854624               0.000000000               0.000000000               0.000000000               0.000000000              -0.000496398               0.006998032              -0.001257121              -0.001060901               0.002686288               0.001625386               0.000000000               0.000000000               0.000000000               0.000000000              -0.000604240               0.006363165              -0.001185151              -0.001021983               0.002461695               0.001439711               0.000000000               0.000000000               0.000000000               0.000000000              -0.000649409               0.005778687              -0.001099463              -0.000965862               0.002248164               0.001282301               0.000000000               0.000000000               0.000000000               0.000000000              -0.000647868               0.005224368              -0.001013906              -0.000895995               0.002040103               0.001144109               0.000000000               0.000000000               0.000000000               0.000000000              -0.000607565               0.004689591              -0.000930817              -0.000814034               0.001834526               0.001020492               0.000000000               0.000000000               0.000000000               0.000000000              -0.000533213               0.004171726              -0.000837570              -0.000721419               0.001631034               0.000909615               0.000000000               0.000000000               0.000000000               0.000000000              -0.000435308               0.003669778              -0.000725094              -0.000621962               0.001430567               0.000808606               0.000000000               0.000000000               0.000000000               0.000000000              -0.000325723               0.003189015              -0.000591566              -0.000520772               0.001236585               0.000715813               0.000000000               0.000000000               0.000000000               0.000000000              -0.000216310               0.002740155              -0.000430383              -0.000423635               0.001054587               0.000630953               0.000000000               0.000000000               0.000000000               0.000000000              -0.000109697               0.002340434              -0.000232863              -0.000333690               0.000891367               0.000557677               0.000000000               0.000000000               0.000000000               0.000000000              -0.000082614               0.002096026              -0.000138258              -0.000292983               0.000796329               0.000503347               0.000000000               0.000000000               0.000000000               0.000000000               0.002224828               0.015170545               0.003783623              -0.001062008               0.005410800               0.004348792               0.000000000               0.000000000               0.000000000               0.000000000               0.000772718               0.012524200               0.001670601              -0.001275754               0.004599943               0.003324189               0.000000000               0.000000000               0.000000000               0.000000000              -0.000123179               0.010768995              -0.000318489              -0.001392313               0.004053733               0.002661420               0.000000000               0.000000000               0.000000000               0.000000000              -0.000704200               0.009540024              -0.000999476              -0.001456575               0.003665501               0.002208926               0.000000000               0.000000000               0.000000000               0.000000000              -0.001043648               0.008582070              -0.001204743              -0.001464123               0.003348702               0.001884579               0.000000000               0.000000000               0.000000000               0.000000000              -0.001206926               0.007788778              -0.001224319              -0.001426191               0.003071630               0.001645439               0.000000000               0.000000000               0.000000000               0.000000000              -0.001252450               0.007093102              -0.001175835              -0.001356304               0.002816445               0.001460141               0.000000000               0.000000000               0.000000000               0.000000000              -0.001227005               0.006466422              -0.001099835              -0.001268427               0.002578261               0.001309834               0.000000000               0.000000000               0.000000000               0.000000000              -0.001155590               0.005889227              -0.001009118              -0.001169497               0.002352888               0.001183391               0.000000000               0.000000000               0.000000000               0.000000000              -0.001048922               0.005345419              -0.000917003              -0.001061521               0.002135629               0.001074108               0.000000000               0.000000000               0.000000000               0.000000000              -0.000909831               0.004828891              -0.000829396              -0.000944796               0.001924546               0.000979750               0.000000000               0.000000000               0.000000000               0.000000000              -0.000746903               0.004341796              -0.000735846              -0.000822811               0.001721521               0.000898710               0.000000000               0.000000000               0.000000000               0.000000000              -0.000577314               0.003894143              -0.000624259              -0.000703259               0.001532454               0.000829195               0.000000000               0.000000000               0.000000000               0.000000000              -0.000409729               0.003496238              -0.000494646              -0.000590677               0.001362293               0.000771616               0.000000000               0.000000000               0.000000000               0.000000000              -0.000254202               0.003156860              -0.000346971              -0.000489932               0.001215587               0.000725655               0.000000000               0.000000000               0.000000000               0.000000000              -0.000120002               0.002896609              -0.000182230              -0.000407076               0.001101219               0.000694143               0.000000000               0.000000000               0.000000000               0.000000000              -0.000072228               0.002765545              -0.000104519              -0.000372778               0.001046098               0.000673321               0.000000000               0.000000000               0.000000000               0.000000000               0.001865504               0.012551861               0.003696906              -0.000869419               0.004473717               0.003604298               0.000000000               0.000000000               0.000000000               0.000000000               0.000055260               0.010976123               0.001680271              -0.001351291               0.004109101               0.002757810               0.000000000               0.000000000               0.000000000               0.000000000              -0.001230719               0.010150031              -0.000178380              -0.001730269               0.003960066               0.002229797               0.000000000               0.000000000               0.000000000               0.000000000              -0.001790388               0.009280862              -0.000758060              -0.001831499               0.003704089               0.001872590               0.000000000               0.000000000               0.000000000               0.000000000              -0.001984384               0.008473956              -0.000921946              -0.001803384               0.003425752               0.001622368               0.000000000               0.000000000               0.000000000               0.000000000              -0.001974003               0.007743301              -0.000932768              -0.001708160               0.003150461               0.001442301               0.000000000               0.000000000               0.000000000               0.000000000              -0.001855732               0.007068235              -0.000891173              -0.001579425               0.002882530               0.001303105               0.000000000               0.000000000               0.000000000               0.000000000              -0.001685909               0.006450416              -0.000834097              -0.001438515               0.002629622               0.001191107               0.000000000               0.000000000               0.000000000               0.000000000              -0.001486846               0.005885794              -0.000761445              -0.001293289               0.002393008               0.001099719               0.000000000               0.000000000               0.000000000               0.000000000              -0.001269409               0.005360637              -0.000684592              -0.001146105               0.002168896               0.001022791               0.000000000               0.000000000               0.000000000               0.000000000              -0.001036911               0.004879154              -0.000610973              -0.000998733               0.001959279               0.000960546               0.000000000               0.000000000               0.000000000               0.000000000              -0.000798693               0.004447053              -0.000533445              -0.000855389               0.001767466               0.000912076               0.000000000               0.000000000               0.000000000               0.000000000              -0.000574221               0.004074571              -0.000443431              -0.000724653               0.001599728               0.000875075               0.000000000               0.000000000               0.000000000               0.000000000              -0.000373852               0.003768634              -0.000335257              -0.000611272               0.001459956               0.000848684               0.000000000               0.000000000               0.000000000               0.000000000              -0.000206648               0.003537222              -0.000216550              -0.000519645               0.001352277               0.000832633               0.000000000               0.000000000               0.000000000               0.000000000              -0.000086113               0.003396601              -0.000104220              -0.000456867               0.001284478               0.000827611               0.000000000               0.000000000               0.000000000               0.000000000              -0.000039310               0.003353714              -0.000052011              -0.000433955               0.001262545               0.000828591               0.000000000               0.000000000               0.000000000               0.000000000               0.001159291               0.009979127               0.003253898              -0.000812658               0.003597228               0.002784570               0.000000000               0.000000000               0.000000000               0.000000000              -0.000802709               0.009475622               0.001598470              -0.001485466               0.003653664               0.002168198               0.000000000               0.000000000               0.000000000               0.000000000              -0.002294410               0.009501876               0.000090011              -0.002048133               0.003849971               0.001801838               0.000000000               0.000000000               0.000000000               0.000000000              -0.002712558               0.008931289              -0.000350819              -0.002133615               0.003688272               0.001554656               0.000000000               0.000000000               0.000000000               0.000000000              -0.002704837               0.008243713              -0.000487015              -0.002044773               0.003429468               0.001384695               0.000000000               0.000000000               0.000000000               0.000000000              -0.002506744               0.007562765              -0.000511639              -0.001885370               0.003149353               0.001263983               0.000000000               0.000000000               0.000000000               0.000000000              -0.002224693               0.006916874              -0.000497994              -0.001698865               0.002871890               0.001173025               0.000000000               0.000000000               0.000000000               0.000000000              -0.001912714               0.006325410              -0.000479262              -0.001507940               0.002611096               0.001103155               0.000000000               0.000000000               0.000000000               0.000000000              -0.001591461               0.005788907              -0.000442547              -0.001320408               0.002369752               0.001049344               0.000000000               0.000000000               0.000000000               0.000000000              -0.001267314               0.005303422              -0.000396756              -0.001138168               0.002147179               0.001009011               0.000000000               0.000000000               0.000000000               0.000000000              -0.000957147               0.004877548              -0.000352132              -0.000968621               0.001948707               0.000980086               0.000000000               0.000000000               0.000000000               0.000000000              -0.000671830               0.004517304              -0.000301251              -0.000816597               0.001777952               0.000961355               0.000000000               0.000000000               0.000000000               0.000000000              -0.000423011               0.004226948              -0.000237868              -0.000686996               0.001637967               0.000950971               0.000000000               0.000000000               0.000000000               0.000000000              -0.000223613               0.004010787              -0.000159945              -0.000585202               0.001531983               0.000946781               0.000000000               0.000000000               0.000000000               0.000000000              -0.000081691               0.003878657              -0.000080911              -0.000515465               0.001464694               0.000949229               0.000000000               0.000000000               0.000000000               0.000000000              -0.000012064               0.003829643              -0.000024690              -0.000483228               0.001437611               0.000954383               0.000000000               0.000000000               0.000000000               0.000000000               0.000010162               0.003840788              -0.000000923              -0.000476286               0.001439012               0.000962726               0.000000000               0.000000000               0.000000000               0.000000000               0.000129387               0.007609435               0.002563273              -0.000902659               0.002837339               0.001934680               0.000000000               0.000000000               0.000000000               0.000000000              -0.001755749               0.008113222               0.001475677              -0.001672555               0.003261898               0.001589343               0.000000000               0.000000000               0.000000000               0.000000000              -0.003211150               0.008826829               0.000466993              -0.002307529               0.003711423               0.001403894               0.000000000               0.000000000               0.000000000               0.000000000              -0.003386772               0.008476177               0.000149724              -0.002329556               0.003601883               0.001272327               0.000000000               0.000000000               0.000000000               0.000000000              -0.003152676               0.007891944               0.000011478              -0.002168741               0.003353535               0.001184794               0.000000000               0.000000000               0.000000000               0.000000000              -0.002769783               0.007269724              -0.000052955              -0.001947379               0.003072344               0.001124964               0.000000000               0.000000000               0.000000000               0.000000000              -0.002337785               0.006675150              -0.000084903              -0.001711059               0.002795381               0.001084322               0.000000000               0.000000000               0.000000000               0.000000000              -0.001901279               0.006132057              -0.000112938              -0.001479483               0.002537160               0.001057677               0.000000000               0.000000000               0.000000000               0.000000000              -0.001472585               0.005637599              -0.000125587              -0.001256916               0.002298153               0.001041237               0.000000000               0.000000000               0.000000000               0.000000000              -0.001068584               0.005208285              -0.000124627              -0.001051752               0.002086662               0.001034910               0.000000000               0.000000000               0.000000000               0.000000000              -0.000712558               0.004853343              -0.000116929              -0.000873875               0.001909056               0.001035181               0.000000000               0.000000000               0.000000000               0.000000000              -0.000413136               0.004576099              -0.000096816              -0.000726937               0.001767663               0.001040727               0.000000000               0.000000000               0.000000000               0.000000000              -0.000174500               0.004377179              -0.000064697              -0.000612583               0.001663239               0.001050656               0.000000000               0.000000000               0.000000000               0.000000000              -0.000010143               0.004259106              -0.000024970              -0.000536190               0.001598418               0.001062228               0.000000000               0.000000000               0.000000000               0.000000000               0.000067933               0.004222549               0.000010608              -0.000502343               0.001574950               0.001072607               0.000000000               0.000000000               0.000000000               0.000000000               0.000062911               0.004251140               0.000020624              -0.000507799               0.001586299               0.001078499               0.000000000               0.000000000               0.000000000               0.000000000               0.000046792               0.004296337               0.000020655              -0.000519494               0.001605263               0.001085769               0.000000000               0.000000000               0.000000000               0.000000000              -0.001093758               0.005612622               0.001729106              -0.001111735               0.002241433               0.001129698               0.000000000               0.000000000               0.000000000               0.000000000              -0.002699015               0.006898828               0.001347823              -0.001874480               0.002924413               0.001049933               0.000000000               0.000000000               0.000000000               0.000000000              -0.003940617               0.008136650               0.000921233              -0.002494806               0.003543792               0.001048985               0.000000000               0.000000000               0.000000000               0.000000000              -0.003854842               0.008017182               0.000678620              -0.002447708               0.003488270               0.001040562               0.000000000               0.000000000               0.000000000               0.000000000              -0.003430037               0.007570321               0.000512606              -0.002232548               0.003267598               0.001035049               0.000000000               0.000000000               0.000000000               0.000000000              -0.002902905               0.007037985               0.000395971              -0.001968332               0.003002082               0.001033750               0.000000000               0.000000000               0.000000000               0.000000000              -0.002345095               0.006519863               0.000313062              -0.001694389               0.002738062               0.001043673               0.000000000               0.000000000               0.000000000               0.000000000              -0.001804757               0.006036443               0.000238862              -0.001431336               0.002489240               0.001057904               0.000000000               0.000000000               0.000000000               0.000000000              -0.001294678               0.005589067               0.000172108              -0.001184135               0.002257715               0.001073581               0.000000000               0.000000000               0.000000000               0.000000000              -0.000838181               0.005205491               0.000117862              -0.000965002               0.002056814               0.001091812               0.000000000               0.000000000               0.000000000               0.000000000              -0.000454075               0.004902680               0.000081067              -0.000783111               0.001895247               0.001112136               0.000000000               0.000000000               0.000000000               0.000000000              -0.000144598               0.004682939               0.000058684              -0.000639590               0.001774161               0.001134571               0.000000000               0.000000000               0.000000000               0.000000000               0.000081854               0.004545127               0.000046317              -0.000537444               0.001694175               0.001156731               0.000000000               0.000000000               0.000000000               0.000000000               0.000214861               0.004494558               0.000040493              -0.000481246               0.001658586               0.001177341               0.000000000               0.000000000               0.000000000               0.000000000               0.000257674               0.004532036               0.000034536              -0.000469876               0.001667289               0.001197413               0.000000000               0.000000000               0.000000000               0.000000000               0.000226982               0.004634160               0.000021793              -0.000494150               0.001709421               0.001215271               0.000000000               0.000000000               0.000000000               0.000000000               0.000185889               0.004703694               0.000012249              -0.000518252               0.001740633               0.001222381               0.000000000               0.000000000               0.000000000               0.000000000              -0.002513795               0.003759639               0.000853863              -0.001412625               0.001724075               0.000311450               0.000000000               0.000000000               0.000000000               0.000000000              -0.003502063               0.005477567               0.001211369              -0.001997965               0.002491826               0.000493861               0.000000000               0.000000000               0.000000000               0.000000000              -0.004391048               0.007101969               0.001397486              -0.002534383               0.003212093               0.000677710               0.000000000               0.000000000               0.000000000               0.000000000              -0.004155951               0.007341068               0.001232719              -0.002476109               0.003272368               0.000796259               0.000000000               0.000000000               0.000000000               0.000000000              -0.003651069               0.007143844               0.001042094              -0.002262126               0.003135299               0.000873174               0.000000000               0.000000000               0.000000000               0.000000000              -0.003077867               0.006804528               0.000877691              -0.002004761               0.002936407               0.000931646               0.000000000               0.000000000               0.000000000               0.000000000              -0.002484519               0.006432179               0.000745246              -0.001735713               0.002722609               0.000986896               0.000000000               0.000000000               0.000000000               0.000000000              -0.001909234               0.006063253               0.000626343              -0.001473866               0.002512353               0.001038487               0.000000000               0.000000000               0.000000000               0.000000000              -0.001372500               0.005709541               0.000510600              -0.001228377               0.002312620               0.001084243               0.000000000               0.000000000               0.000000000               0.000000000              -0.000881733               0.005391761               0.000407196              -0.001004617               0.002132108               0.001127491               0.000000000               0.000000000               0.000000000               0.000000000              -0.000455495               0.005131955               0.000322171              -0.000812303               0.001981402               0.001169099               0.000000000               0.000000000               0.000000000               0.000000000              -0.000102175               0.004937156               0.000245854              -0.000655459               0.001864188               0.001208730               0.000000000               0.000000000               0.000000000               0.000000000               0.000170392               0.004807663               0.000173754              -0.000537060               0.001781558               0.001244499               0.000000000               0.000000000               0.000000000               0.000000000               0.000357488               0.004747785               0.000112677              -0.000459414               0.001735717               0.001276303               0.000000000               0.000000000               0.000000000               0.000000000               0.000458525               0.004763653               0.000061091              -0.000423508               0.001729038               0.001305529               0.000000000               0.000000000               0.000000000               0.000000000               0.000486770               0.004856206               0.000022203              -0.000424486               0.001760215               0.001335729               0.000000000               0.000000000               0.000000000               0.000000000               0.000470135               0.004915343               0.000003086              -0.000438116               0.001784470               0.001346354               0.000000000               0.000000000               0.000000000               0.000000000              -0.004307549               0.002083497               0.000012189              -0.001875765               0.001319745              -0.000556020               0.000000000               0.000000000               0.000000000               0.000000000              -0.004402848               0.004039760               0.001019813              -0.002156033               0.002065250              -0.000090783               0.000000000               0.000000000               0.000000000               0.000000000              -0.004764495               0.005868412               0.001783713              -0.002520231               0.002796194               0.000275963               0.000000000               0.000000000               0.000000000               0.000000000              -0.004390968               0.006447951               0.001764190              -0.002452601               0.002966829               0.000514228               0.000000000               0.000000000               0.000000000               0.000000000              -0.003830961               0.006535778               0.001581944              -0.002253578               0.002929763               0.000676186               0.000000000               0.000000000               0.000000000               0.000000000              -0.003235062               0.006424112               0.001387830              -0.002016157               0.002813402               0.000797244               0.000000000               0.000000000               0.000000000               0.000000000              -0.002638871               0.006230269               0.001211953              -0.001768356               0.002666187               0.000897831               0.000000000               0.000000000               0.000000000               0.000000000              -0.002055155               0.006000306               0.001051237              -0.001520718               0.002506988               0.000986270               0.000000000               0.000000000               0.000000000               0.000000000              -0.001498483               0.005757631               0.000899623              -0.001281632               0.002346402               0.001064770               0.000000000               0.000000000               0.000000000               0.000000000              -0.000974508               0.005520174               0.000760185              -0.001055460               0.002191860               0.001136400               0.000000000               0.000000000               0.000000000               0.000000000              -0.000501349               0.005308149               0.000632065              -0.000851523               0.002053206               0.001201684               0.000000000               0.000000000               0.000000000               0.000000000              -0.000093917               0.005132742               0.000506908              -0.000676810               0.001936500               0.001259690               0.000000000               0.000000000               0.000000000               0.000000000               0.000245836               0.005004635               0.000383040              -0.000533390               0.001845992               0.001312602               0.000000000               0.000000000               0.000000000               0.000000000               0.000514073               0.004925245               0.000266511              -0.000422877               0.001782691               0.001359814               0.000000000               0.000000000               0.000000000               0.000000000               0.000702505               0.004897447               0.000156133              -0.000348741               0.001748713               0.001399972               0.000000000               0.000000000               0.000000000               0.000000000               0.000807699               0.004927683               0.000066159              -0.000313073               0.001746902               0.001433830               0.000000000               0.000000000               0.000000000               0.000000000               0.000829711               0.004950282               0.000027523              -0.000307643               0.001752625               0.001444982               0.000000000               0.000000000               0.000000000               0.000000000              -0.006336022               0.000727768              -0.000718522              -0.002466976               0.001064907              -0.001402069               0.000000000               0.000000000               0.000000000               0.000000000              -0.005433895               0.002676335               0.000758695              -0.002372248               0.001682849              -0.000689399               0.000000000               0.000000000               0.000000000               0.000000000              -0.005073656               0.004442626               0.001977265              -0.002457944               0.002300174              -0.000157770               0.000000000               0.000000000               0.000000000               0.000000000              -0.004483981               0.005259001               0.002141663              -0.002338863               0.002532603               0.000193740               0.000000000               0.000000000               0.000000000               0.000000000              -0.003855155               0.005607809               0.002015586              -0.002146654               0.002584802               0.000438148               0.000000000               0.000000000               0.000000000               0.000000000              -0.003240447               0.005731406               0.001822605              -0.001931589               0.002554312               0.000622723               0.000000000               0.000000000               0.000000000               0.000000000              -0.002647819               0.005737934               0.001626554              -0.001710170               0.002482682               0.000772512               0.000000000               0.000000000               0.000000000               0.000000000              -0.002067690               0.005671822               0.001443130              -0.001484358               0.002385374               0.000901016               0.000000000               0.000000000               0.000000000               0.000000000              -0.001501763               0.005565916               0.001272288              -0.001258898               0.002274919               0.001016021               0.000000000               0.000000000               0.000000000               0.000000000              -0.000961364               0.005439378               0.001111884              -0.001040432               0.002159918               0.001119487               0.000000000               0.000000000               0.000000000               0.000000000              -0.000454979               0.005307760               0.000958660              -0.000834085               0.002047264               0.001213179               0.000000000               0.000000000               0.000000000               0.000000000               0.000002572               0.005183501               0.000804297              -0.000646972               0.001943474               0.001296502               0.000000000               0.000000000               0.000000000               0.000000000               0.000405729               0.005084820               0.000647844              -0.000483453               0.001856074               0.001372621               0.000000000               0.000000000               0.000000000               0.000000000               0.000739812               0.005008355               0.000487494              -0.000348614               0.001785640               0.001437025               0.000000000               0.000000000               0.000000000               0.000000000               0.000997874               0.004964216               0.000320468              -0.000246324               0.001736830               0.001490506               0.000000000               0.000000000               0.000000000               0.000000000               0.001165298               0.004963321               0.000154488              -0.000183428               0.001715566               0.001532139               0.000000000               0.000000000               0.000000000               0.000000000               0.001217075               0.004971055               0.000074200              -0.000164979               0.001711995               0.001547016               0.000000000               0.000000000               0.000000000               0.000000000              -0.008458451              -0.000227871              -0.001224440              -0.003143433               0.000971847              -0.002171586               0.000000000               0.000000000               0.000000000               0.000000000              -0.006529805               0.001467431               0.000469843              -0.002632102               0.001366502              -0.001265601               0.000000000               0.000000000               0.000000000               0.000000000              -0.005332285               0.002952196               0.001944437              -0.002368627               0.001773595              -0.000595032               0.000000000               0.000000000               0.000000000               0.000000000              -0.004449012               0.003873963               0.002271559              -0.002152621               0.002008847              -0.000143774               0.000000000               0.000000000               0.000000000               0.000000000              -0.003722641               0.004427743               0.002225690              -0.001949454               0.002125717               0.000176262               0.000000000               0.000000000               0.000000000               0.000000000              -0.003086474               0.004765115               0.002066580              -0.001753064               0.002172709               0.000419646               0.000000000               0.000000000               0.000000000               0.000000000              -0.002495640               0.004966268               0.001885803              -0.001556646               0.002174287               0.000617642               0.000000000               0.000000000               0.000000000               0.000000000              -0.001919449               0.005079865               0.001707881              -0.001354774               0.002144862               0.000790088               0.000000000               0.000000000               0.000000000               0.000000000              -0.001356595               0.005132280               0.001533854              -0.001150256               0.002094161               0.000943905               0.000000000               0.000000000               0.000000000               0.000000000              -0.000814293               0.005140473               0.001368919              -0.000947917               0.002029446               0.001081529               0.000000000               0.000000000               0.000000000               0.000000000              -0.000289873               0.005120909               0.001211469              -0.000748815               0.001956557               0.001207743               0.000000000               0.000000000               0.000000000               0.000000000               0.000207392               0.005081273               0.001053272              -0.000557386               0.001879536               0.001322150               0.000000000               0.000000000               0.000000000               0.000000000               0.000667394               0.005036310               0.000886766              -0.000379265               0.001805175               0.001425909               0.000000000               0.000000000               0.000000000               0.000000000               0.001075745               0.004997048               0.000705292              -0.000221227               0.001739408               0.001518181               0.000000000               0.000000000               0.000000000               0.000000000               0.001416559               0.004974002               0.000499136              -0.000090541               0.001688164               0.001597623               0.000000000               0.000000000               0.000000000               0.000000000               0.001667742               0.004978070               0.000260345               0.000003144               0.001658292               0.001661436               0.000000000               0.000000000               0.000000000               0.000000000               0.001776248               0.004992179               0.000137081               0.000042070               0.001650020               0.001692090               0.000000000               0.000000000               0.000000000               0.000000000              -0.010483355              -0.000814344              -0.001399855              -0.003829463               0.001005032              -0.002824430               0.000000000               0.000000000               0.000000000               0.000000000              -0.007604522               0.000485586               0.000218315              -0.002912391               0.001132651              -0.001779740               0.000000000               0.000000000               0.000000000               0.000000000              -0.005558436               0.001556808               0.001683896              -0.002279012               0.001278597              -0.001000414               0.000000000               0.000000000               0.000000000               0.000000000              -0.004339762               0.002466084               0.002094637              -0.001935668               0.001467240              -0.000468428               0.000000000               0.000000000               0.000000000               0.000000000              -0.003486048               0.003147773               0.002120129              -0.001700736               0.001616158              -0.000084578               0.000000000               0.000000000               0.000000000               0.000000000              -0.002804665               0.003648934               0.002014638              -0.001507863               0.001718919               0.000211056               0.000000000               0.000000000               0.000000000               0.000000000              -0.002205034               0.004017171               0.001877331              -0.001329032               0.001782054               0.000453022               0.000000000               0.000000000               0.000000000               0.000000000              -0.001640545               0.004297379               0.001730038              -0.001152375               0.001816570               0.000664195               0.000000000               0.000000000               0.000000000               0.000000000              -0.001092170               0.004508582               0.001573961              -0.000973135               0.001827224               0.000854089               0.000000000               0.000000000               0.000000000               0.000000000              -0.000551962               0.004666550               0.001426248              -0.000790303               0.001818935               0.001028632               0.000000000               0.000000000               0.000000000               0.000000000              -0.000018917               0.004777990               0.001285994              -0.000604342               0.001794094               0.001189753               0.000000000               0.000000000               0.000000000               0.000000000               0.000504343               0.004848289               0.001142286              -0.000416907               0.001755049               0.001338142               0.000000000               0.000000000               0.000000000               0.000000000               0.001015386               0.004889845               0.000990418              -0.000230461               0.001706752               0.001476291               0.000000000               0.000000000               0.000000000               0.000000000               0.001509731               0.004917744               0.000817902              -0.000048569               0.001655421               0.001606852               0.000000000               0.000000000               0.000000000               0.000000000               0.001969693               0.004944628               0.000604056               0.000120555               0.001608008               0.001728563               0.000000000               0.000000000               0.000000000               0.000000000               0.002374346               0.004975318               0.000330187               0.000268462               0.001568935               0.001837398               0.000000000               0.000000000               0.000000000               0.000000000               0.002607558               0.005009868               0.000186867               0.000351597               0.001552740               0.001904337               0.000000000               0.000000000               0.000000000               0.000000000              -0.012162908              -0.001111797              -0.001207406              -0.004422113               0.001103431              -0.003318682               0.000000000               0.000000000               0.000000000               0.000000000              -0.008525945              -0.000217911               0.000056393              -0.003169988               0.000984019              -0.002185969               0.000000000               0.000000000               0.000000000               0.000000000              -0.005757885               0.000428406               0.001232024              -0.002212755               0.000880381              -0.001332375               0.000000000               0.000000000               0.000000000               0.000000000              -0.004219258               0.001248620               0.001606336              -0.001738297               0.000995631              -0.000742666               0.000000000               0.000000000               0.000000000               0.000000000              -0.003221627               0.001977136               0.001668876              -0.001455250               0.001144120              -0.000311130               0.000000000               0.000000000               0.000000000               0.000000000              -0.002479723               0.002582909               0.001616962              -0.001252757               0.001278546               0.000025789               0.000000000               0.000000000               0.000000000               0.000000000              -0.001864174               0.003080717               0.001529676              -0.001084153               0.001388279               0.000304126               0.000000000               0.000000000               0.000000000               0.000000000              -0.001315347               0.003492338               0.001425465              -0.000929796               0.001474032               0.000544237               0.000000000               0.000000000               0.000000000               0.000000000              -0.000785842               0.003838023               0.001311759              -0.000774442               0.001537475               0.000763033               0.000000000               0.000000000               0.000000000               0.000000000              -0.000253318               0.004128786               0.001201331              -0.000611091               0.001579945               0.000968853               0.000000000               0.000000000               0.000000000               0.000000000               0.000281715               0.004361730               0.001093659              -0.000439573               0.001600420               0.001160847               0.000000000               0.000000000               0.000000000               0.000000000               0.000825627               0.004540144               0.000984803              -0.000257908               0.001599335               0.001341427               0.000000000               0.000000000               0.000000000               0.000000000               0.001386356               0.004678154               0.000870946              -0.000064886               0.001580998               0.001516111               0.000000000               0.000000000               0.000000000               0.000000000               0.001964984               0.004788402               0.000735980               0.000138317               0.001550012               0.001688329               0.000000000               0.000000000               0.000000000               0.000000000               0.002561635               0.004877901               0.000558263               0.000350872               0.001508993               0.001859865               0.000000000               0.000000000               0.000000000               0.000000000               0.003171730               0.004947816               0.000314681               0.000570916               0.001458950               0.002029866               0.000000000               0.000000000               0.000000000               0.000000000               0.003589281               0.005017762               0.000188536               0.000718753               0.001432986               0.002151739               0.000000000               0.000000000               0.000000000               0.000000000              -0.013274553              -0.001222944              -0.000693967              -0.004825086               0.001200706              -0.003624380               0.000000000               0.000000000               0.000000000               0.000000000              -0.009149339              -0.000629236              -0.000003104              -0.003352345               0.000907697              -0.002444648               0.000000000               0.000000000               0.000000000               0.000000000              -0.005900665              -0.000306286               0.000649239              -0.002174462               0.000622721              -0.001551741               0.000000000               0.000000000               0.000000000               0.000000000              -0.004128451               0.000417757               0.000871620              -0.001600387               0.000672710              -0.000927677               0.000000000               0.000000000               0.000000000               0.000000000              -0.003012520               0.001154882               0.000921079              -0.001274053               0.000809639              -0.000464414               0.000000000               0.000000000               0.000000000               0.000000000              -0.002217810               0.001813402               0.000904489              -0.001058352               0.000957245              -0.000101107               0.000000000               0.000000000               0.000000000               0.000000000              -0.001589981               0.002387847               0.000863464              -0.000894722               0.001094181               0.000199459               0.000000000               0.000000000               0.000000000               0.000000000              -0.001046906               0.002886036               0.000810700              -0.000753343               0.001213116               0.000459774               0.000000000               0.000000000               0.000000000               0.000000000              -0.000532378               0.003318553               0.000753136              -0.000614460               0.001310993               0.000696533               0.000000000               0.000000000               0.000000000               0.000000000              -0.000016119               0.003694212               0.000694413              -0.000467820               0.001387332               0.000919511               0.000000000               0.000000000               0.000000000               0.000000000               0.000515520               0.004011514               0.000635014              -0.000308119               0.001439864               0.001131745               0.000000000               0.000000000               0.000000000               0.000000000               0.001072925               0.004271746               0.000576335              -0.000131621               0.001467775               0.001336153               0.000000000               0.000000000               0.000000000               0.000000000               0.001667099               0.004487929               0.000514651               0.000064170               0.001474571               0.001538741               0.000000000               0.000000000               0.000000000               0.000000000               0.002309158               0.004671178               0.000440147               0.000282034               0.001463032               0.001745067               0.000000000               0.000000000               0.000000000               0.000000000               0.003015208               0.004820341               0.000340467               0.000528155               0.001430712               0.001958868               0.000000000               0.000000000               0.000000000               0.000000000               0.003801759               0.004925610               0.000195824               0.000809950               0.001371870               0.002181820               0.000000000               0.000000000               0.000000000               0.000000000               0.004387821               0.005025552               0.000121371               0.001017229               0.001336091               0.002353320               0.000000000               0.000000000               0.000000000               0.000000000              -0.013664447              -0.001249695              -0.000000000              -0.004967953               0.001239411              -0.003728542               0.000000000               0.000000000               0.000000000               0.000000000              -0.009368731              -0.000765428               0.000000000              -0.003417593               0.000884049              -0.002533544               0.000000000               0.000000000               0.000000000               0.000000000              -0.005950816              -0.000560682              -0.000000000              -0.002161469               0.000533592              -0.001627877               0.000000000               0.000000000               0.000000000               0.000000000              -0.004093523               0.000124987              -0.000000000              -0.001550693               0.000558556              -0.000992137               0.000000000               0.000000000               0.000000000               0.000000000              -0.002935304               0.000859145              -0.000000000              -0.001208131               0.000689087              -0.000519044               0.000000000               0.000000000               0.000000000               0.000000000              -0.002117850               0.001533013              -0.000000000              -0.000985819               0.000839605              -0.000146214               0.000000000               0.000000000               0.000000000               0.000000000              -0.001483098               0.002133731              -0.000000000              -0.000822876               0.000985528               0.000162652               0.000000000               0.000000000               0.000000000               0.000000000              -0.000939227               0.002662908               0.000000000              -0.000685072               0.001115984               0.000430912               0.000000000               0.000000000               0.000000000               0.000000000              -0.000431208               0.003126085               0.000000000              -0.000552463               0.001226172               0.000673710               0.000000000               0.000000000               0.000000000               0.000000000               0.000075589               0.003529181              -0.000000000              -0.000412801               0.001313982               0.000901181               0.000000000               0.000000000               0.000000000               0.000000000               0.000601728               0.003871908              -0.000000000              -0.000258340               0.001376736               0.001118396               0.000000000               0.000000000               0.000000000               0.000000000               0.001161544               0.004161759              -0.000000000              -0.000084641               0.001415453               0.001330812               0.000000000               0.000000000               0.000000000               0.000000000               0.001765607               0.004408320               0.000000000               0.000111062               0.001432405               0.001543466               0.000000000               0.000000000               0.000000000               0.000000000               0.002432271               0.004620931              -0.000000000               0.000334482               0.001428801               0.001763283               0.000000000               0.000000000               0.000000000               0.000000000               0.003180193               0.004795613               0.000000000               0.000593115               0.001400817               0.001993932               0.000000000               0.000000000               0.000000000               0.000000000               0.004036462               0.004915767              -0.000000000               0.000899193               0.001338842               0.002238035               0.000000000               0.000000000               0.000000000               0.000000000               0.004692275               0.005027780              -0.000000000               0.001131119               0.001298870               0.002429989               0.000000000               0.000000000               0.000000000               0.000000000               0.001994354               0.021353643               0.000000000              -0.001921318               0.007758249               0.005836931               0.000000000               0.000000000               0.000000000               0.000000000               0.001895633               0.016345850              -0.000000000              -0.001332366               0.005892684               0.004560319               0.000000000               0.000000000               0.000000000               0.000000000               0.002427300               0.012253741              -0.000000000              -0.000621478               0.004291699               0.003670220               0.000000000               0.000000000               0.000000000               0.000000000               0.002230122               0.009926664              -0.000000000              -0.000404536               0.003443700               0.003039164               0.000000000               0.000000000               0.000000000               0.000000000               0.001837032               0.008441091               0.000000000              -0.000366249               0.002935752               0.002569503               0.000000000               0.000000000               0.000000000               0.000000000               0.001426613               0.007394691               0.000000000              -0.000389356               0.002594658               0.002205302               0.000000000               0.000000000               0.000000000               0.000000000               0.001054293               0.006582933              -0.000000000              -0.000427506               0.002336791               0.001909285               0.000000000               0.000000000               0.000000000               0.000000000               0.000745084               0.005902717              -0.000000000              -0.000458432               0.002120363               0.001661931               0.000000000               0.000000000               0.000000000               0.000000000               0.000503324               0.005298785               0.000000000              -0.000473601               0.001924111               0.001450510               0.000000000               0.000000000               0.000000000               0.000000000               0.000319855               0.004732801               0.000000000              -0.000471653               0.001734802               0.001263149               0.000000000               0.000000000               0.000000000               0.000000000               0.000187015               0.004181787               0.000000000              -0.000452592               0.001544779               0.001092187               0.000000000               0.000000000               0.000000000               0.000000000               0.000089596               0.003626667              -0.000000000              -0.000419734               0.001348788               0.000929054               0.000000000               0.000000000               0.000000000               0.000000000               0.000013361               0.003047351              -0.000000000              -0.000375908               0.001141076               0.000765168               0.000000000               0.000000000               0.000000000               0.000000000              -0.000032831               0.002428321              -0.000000000              -0.000315851               0.000914716               0.000598865               0.000000000               0.000000000               0.000000000               0.000000000              -0.000051223               0.001746143               0.000000000              -0.000237476               0.000661200               0.000423724               0.000000000               0.000000000               0.000000000               0.000000000              -0.000037052               0.000977097               0.000000000              -0.000136032               0.000371040               0.000235008               0.000000000               0.000000000               0.000000000               0.000000000              -0.000079994               0.000393242               0.000000000              -0.000079153               0.000157464               0.000078311               0.000000000               0.000000000               0.000000000               0.000000000               0.002055321               0.020896414              -0.001418683              -0.001841302               0.007579169               0.005737867               0.000000000               0.000000000               0.000000000               0.000000000               0.001838736               0.016055463              -0.000636894              -0.001317404               0.005790902               0.004473499               0.000000000               0.000000000               0.000000000               0.000000000               0.002246111               0.012137602               0.000137201              -0.000674907               0.004270796               0.003595889               0.000000000               0.000000000               0.000000000               0.000000000               0.002002547               0.009903427               0.000459110              -0.000486972               0.003463434               0.002976461               0.000000000               0.000000000               0.000000000               0.000000000               0.001596965               0.008470740               0.000584263              -0.000459980               0.002976878               0.002516899               0.000000000               0.000000000               0.000000000               0.000000000               0.001193383               0.007449866               0.000619331              -0.000483714               0.002644502               0.002160788               0.000000000               0.000000000               0.000000000               0.000000000               0.000842015               0.006653060               0.000612199              -0.000515876               0.002389623               0.001873747               0.000000000               0.000000000               0.000000000               0.000000000               0.000555940               0.005979466               0.000587555              -0.000538955               0.002172787               0.001633832               0.000000000               0.000000000               0.000000000               0.000000000               0.000337901               0.005376226               0.000556273              -0.000545314               0.001973829               0.001428514               0.000000000               0.000000000               0.000000000               0.000000000               0.000181696               0.004811540               0.000523045              -0.000533305               0.001781599               0.001248294               0.000000000               0.000000000               0.000000000               0.000000000               0.000071023               0.004264617               0.000490153              -0.000506442               0.001590339               0.001083896               0.000000000               0.000000000               0.000000000               0.000000000              -0.000007787               0.003717553               0.000452574              -0.000467613               0.001395043               0.000927430               0.000000000               0.000000000               0.000000000               0.000000000              -0.000060087               0.003151521               0.000405873              -0.000416472               0.001189321               0.000772849               0.000000000               0.000000000               0.000000000               0.000000000              -0.000083217               0.002552295               0.000345115              -0.000350243               0.000967504               0.000617261               0.000000000               0.000000000               0.000000000               0.000000000              -0.000080652               0.001905712               0.000262388              -0.000268458               0.000724717               0.000456259               0.000000000               0.000000000               0.000000000               0.000000000              -0.000050364               0.001198790               0.000148888              -0.000168735               0.000455838               0.000287103               0.000000000               0.000000000               0.000000000               0.000000000              -0.000081936               0.000673677               0.000093932              -0.000114935               0.000262868               0.000147933               0.000000000               0.000000000               0.000000000               0.000000000               0.002196567               0.019589431              -0.002618928              -0.001624963               0.007071399               0.005446436               0.000000000               0.000000000               0.000000000               0.000000000               0.001656341               0.015229639              -0.001165268              -0.001282574               0.005504020               0.004221446               0.000000000               0.000000000               0.000000000               0.000000000               0.001720574               0.011812624               0.000259121              -0.000831361               0.004214622               0.003383261               0.000000000               0.000000000               0.000000000               0.000000000               0.001356037               0.009835848               0.000828728              -0.000720965               0.003518905               0.002797939               0.000000000               0.000000000               0.000000000               0.000000000               0.000933331               0.008536720               0.001037828              -0.000717089               0.003084575               0.002367485               0.000000000               0.000000000               0.000000000               0.000000000               0.000562600               0.007585084               0.001088550              -0.000737159               0.002774056               0.002036897               0.000000000               0.000000000               0.000000000               0.000000000               0.000267470               0.006823172               0.001067304              -0.000752594               0.002525232               0.001772639               0.000000000               0.000000000               0.000000000               0.000000000               0.000049783               0.006169132               0.001015314              -0.000752472               0.002307181               0.001554709               0.000000000               0.000000000               0.000000000               0.000000000              -0.000097937               0.005573267               0.000953604              -0.000733383               0.002102198               0.001368815               0.000000000               0.000000000               0.000000000               0.000000000              -0.000186353               0.005012087               0.000890807              -0.000696392               0.001902810               0.001206418               0.000000000               0.000000000               0.000000000               0.000000000              -0.000231785               0.004471947               0.000828454              -0.000645912               0.001705938               0.001060026               0.000000000               0.000000000               0.000000000               0.000000000              -0.000246017               0.003939059               0.000757023              -0.000584638               0.001507886               0.000923248               0.000000000               0.000000000               0.000000000               0.000000000              -0.000232506               0.003400843               0.000668854              -0.000512294               0.001304368               0.000792073               0.000000000               0.000000000               0.000000000               0.000000000              -0.000196653               0.002852964               0.000559199              -0.000430364               0.001094433               0.000664069               0.000000000               0.000000000               0.000000000               0.000000000              -0.000144884               0.002296437               0.000418944              -0.000341385               0.000879266               0.000537881               0.000000000               0.000000000               0.000000000               0.000000000              -0.000078056               0.001737345               0.000233500              -0.000246439               0.000661255               0.000414817               0.000000000               0.000000000               0.000000000               0.000000000              -0.000081475               0.001350982               0.000142971              -0.000199425               0.000516798               0.000317373               0.000000000               0.000000000               0.000000000               0.000000000               0.002299773               0.017603252              -0.003430354              -0.001337990               0.006313688               0.004975698               0.000000000               0.000000000               0.000000000               0.000000000               0.001310321               0.013996135              -0.001511674              -0.001258144               0.005084713               0.003826569               0.000000000               0.000000000               0.000000000               0.000000000               0.000901594               0.011336780               0.000334586              -0.001078997               0.004138554               0.003059558               0.000000000               0.000000000               0.000000000               0.000000000               0.000401291               0.009720151               0.001024975              -0.001064532               0.003594862               0.002530330               0.000000000               0.000000000               0.000000000               0.000000000              -0.000009218               0.008590734               0.001257127              -0.001077296               0.003222648               0.002145352               0.000000000               0.000000000               0.000000000               0.000000000              -0.000303590               0.007722185               0.001296432              -0.001079117               0.002933741               0.001854624               0.000000000               0.000000000               0.000000000               0.000000000              -0.000496398               0.006998032               0.001257121              -0.001060901               0.002686288               0.001625386               0.000000000               0.000000000               0.000000000               0.000000000              -0.000604240               0.006363165               0.001185151              -0.001021983               0.002461695               0.001439711               0.000000000               0.000000000               0.000000000               0.000000000              -0.000649409               0.005778687               0.001099463              -0.000965862               0.002248164               0.001282301               0.000000000               0.000000000               0.000000000               0.000000000              -0.000647868               0.005224368               0.001013906              -0.000895995               0.002040103               0.001144109               0.000000000               0.000000000               0.000000000               0.000000000              -0.000607565               0.004689591               0.000930817              -0.000814034               0.001834526               0.001020492               0.000000000               0.000000000               0.000000000               0.000000000              -0.000533213               0.004171726               0.000837570              -0.000721419               0.001631034               0.000909615               0.000000000               0.000000000               0.000000000               0.000000000              -0.000435308               0.003669778               0.000725094              -0.000621962               0.001430567               0.000808606               0.000000000               0.000000000               0.000000000               0.000000000              -0.000325723               0.003189015               0.000591566              -0.000520772               0.001236585               0.000715813               0.000000000               0.000000000               0.000000000               0.000000000              -0.000216310               0.002740155               0.000430383              -0.000423635               0.001054587               0.000630953               0.000000000               0.000000000               0.000000000               0.000000000              -0.000109697               0.002340434               0.000232863              -0.000333690               0.000891367               0.000557677               0.000000000               0.000000000               0.000000000               0.000000000              -0.000082614               0.002096026               0.000138258              -0.000292983               0.000796329               0.000503347               0.000000000               0.000000000               0.000000000               0.000000000               0.002224828               0.015170545              -0.003783623              -0.001062008               0.005410800               0.004348792               0.000000000               0.000000000               0.000000000               0.000000000               0.000772718               0.012524200              -0.001670601              -0.001275754               0.004599943               0.003324189               0.000000000               0.000000000               0.000000000               0.000000000              -0.000123179               0.010768995               0.000318489              -0.001392313               0.004053733               0.002661420               0.000000000               0.000000000               0.000000000               0.000000000              -0.000704200               0.009540024               0.000999476              -0.001456575               0.003665501               0.002208926               0.000000000               0.000000000               0.000000000               0.000000000              -0.001043648               0.008582070               0.001204743              -0.001464123               0.003348702               0.001884579               0.000000000               0.000000000               0.000000000               0.000000000              -0.001206926               0.007788778               0.001224319              -0.001426191               0.003071630               0.001645439               0.000000000               0.000000000               0.000000000               0.000000000              -0.001252450               0.007093102               0.001175835              -0.001356304               0.002816445               0.001460141               0.000000000               0.000000000               0.000000000               0.000000000              -0.001227005               0.006466422               0.001099835              -0.001268427               0.002578261               0.001309834               0.000000000               0.000000000               0.000000000               0.000000000              -0.001155590               0.005889227               0.001009118              -0.001169497               0.002352888               0.001183391               0.000000000               0.000000000               0.000000000               0.000000000              -0.001048922               0.005345419               0.000917003              -0.001061521               0.002135629               0.001074108               0.000000000               0.000000000               0.000000000               0.000000000              -0.000909831               0.004828891               0.000829396              -0.000944796               0.001924546               0.000979750               0.000000000               0.000000000               0.000000000               0.000000000              -0.000746903               0.004341796               0.000735846              -0.000822811               0.001721521               0.000898710               0.000000000               0.000000000               0.000000000               0.000000000              -0.000577314               0.003894143               0.000624259              -0.000703259               0.001532454               0.000829195               0.000000000               0.000000000               0.000000000               0.000000000              -0.000409729               0.003496238               0.000494646              -0.000590677               0.001362293               0.000771616               0.000000000               0.000000000               0.000000000               0.000000000              -0.000254202               0.003156860               0.000346971              -0.000489932               0.001215587               0.000725655               0.000000000               0.000000000               0.000000000               0.000000000              -0.000120002               0.002896609               0.000182230              -0.000407076               0.001101219               0.000694143               0.000000000               0.000000000               0.000000000               0.000000000              -0.000072228               0.002765545               0.000104519              -0.000372778               0.001046098               0.000673321               0.000000000               0.000000000               0.000000000               0.000000000               0.001865504               0.012551861              -0.003696906              -0.000869419               0.004473717               0.003604298               0.000000000               0.000000000               0.000000000               0.000000000               0.000055260               0.010976123              -0.001680271              -0.001351291               0.004109101               0.002757810               0.000000000               0.000000000               0.000000000               0.000000000              -0.001230719               0.010150031               0.000178380              -0.001730269               0.003960066               0.002229797               0.000000000               0.000000000               0.000000000               0.000000000              -0.001790388               0.009280862               0.000758060              -0.001831499               0.003704089               0.001872590               0.000000000               0.000000000               0.000000000               0.000000000              -0.001984384               0.008473956               0.000921946              -0.001803384               0.003425752               0.001622368               0.000000000               0.000000000               0.000000000               0.000000000              -0.001974003               0.007743301               0.000932768              -0.001708160               0.003150461               0.001442301               0.000000000               0.000000000               0.000000000               0.000000000              -0.001855732               0.007068235               0.000891173              -0.001579425               0.002882530               0.001303105               0.000000000               0.000000000               0.000000000               0.000000000              -0.001685909               0.006450416               0.000834097              -0.001438515               0.002629622               0.001191107               0.000000000               0.000000000               0.000000000               0.000000000              -0.001486846               0.005885794               0.000761445              -0.001293289               0.002393008               0.001099719               0.000000000               0.000000000               0.000000000               0.000000000              -0.001269409               0.005360637               0.000684592              -0.001146105               0.002168896               0.001022791               0.000000000               0.000000000               0.000000000               0.000000000              -0.001036911               0.004879154               0.000610973              -0.000998733               0.001959279               0.000960546               0.000000000               0.000000000               0.000000000               0.000000000              -0.000798693               0.004447053               0.000533445              -0.000855389               0.001767466               0.000912076               0.000000000               0.000000000               0.000000000               0.000000000              -0.000574221               0.004074571               0.000443431              -0.000724653               0.001599728               0.000875075               0.000000000               0.000000000               0.000000000               0.000000000              -0.000373852               0.003768634               0.000335257              -0.000611272               0.001459956               0.000848684               0.000000000               0.000000000               0.000000000               0.000000000              -0.000206648               0.003537222               0.000216550              -0.000519645               0.001352277               0.000832633               0.000000000               0.000000000               0.000000000               0.000000000              -0.000086113               0.003396601               0.000104220              -0.000456867               0.001284478               0.000827611               0.000000000               0.000000000               0.000000000               0.000000000              -0.000039310               0.003353714               0.000052011              -0.000433955               0.001262545               0.000828591               0.000000000               0.000000000               0.000000000               0.000000000               0.001159291               0.009979127              -0.003253898              -0.000812658               0.003597228               0.002784570               0.000000000               0.000000000               0.000000000               0.000000000              -0.000802709               0.009475622              -0.001598470              -0.001485466               0.003653664               0.002168198               0.000000000               0.000000000               0.000000000               0.000000000              -0.002294410               0.009501876              -0.000090011              -0.002048133               0.003849971               0.001801838               0.000000000               0.000000000               0.000000000               0.000000000              -0.002712558               0.008931289               0.000350819              -0.002133615               0.003688272               0.001554656               0.000000000               0.000000000               0.000000000               0.000000000              -0.002704837               0.008243713               0.000487015              -0.002044773               0.003429468               0.001384695               0.000000000               0.000000000               0.000000000               0.000000000              -0.002506744               0.007562765               0.000511639              -0.001885370               0.003149353               0.001263983               0.000000000               0.000000000               0.000000000               0.000000000              -0.002224693               0.006916874               0.000497994              -0.001698865               0.002871890               0.001173025               0.000000000               0.000000000               0.000000000               0.000000000              -0.001912714               0.006325410               0.000479262              -0.001507940               0.002611096               0.001103155               0.000000000               0.000000000               0.000000000               0.000000000              -0.001591461               0.005788907               0.000442547              -0.001320408               0.002369752               0.001049344               0.000000000               0.000000000               0.000000000               0.000000000              -0.001267314               0.005303422               0.000396756              -0.001138168               0.002147179               0.001009011               0.000000000               0.000000000               0.000000000               0.000000000              -0.000957147               0.004877548               0.000352132              -0.000968621               0.001948707               0.000980086               0.000000000               0.000000000               0.000000000               0.000000000              -0.000671830               0.004517304               0.000301251              -0.000816597               0.001777952               0.000961355               0.000000000               0.000000000               0.000000000               0.000000000              -0.000423011               0.004226948               0.000237868              -0.000686996               0.001637967               0.000950971               0.000000000               0.000000000               0.000000000               0.000000000              -0.000223613               0.004010787               0.000159945              -0.000585202               0.001531983               0.000946781               0.000000000               0.000000000               0.000000000               0.000000000              -0.000081691               0.003878657               0.000080911              -0.000515465               0.001464694               0.000949229               0.000000000               0.000000000               0.000000000               0.000000000              -0.000012064               0.003829643               0.000024690              -0.000483228               0.001437611               0.000954383               0.000000000               0.000000000               0.000000000               0.000000000               0.000010162               0.003840788               0.000000923              -0.000476286               0.001439012               0.000962726               0.000000000               0.000000000               0.000000000               0.000000000               0.000129387               0.007609435              -0.002563273              -0.000902659               0.002837339               0.001934680               0.000000000               0.000000000               0.000000000               0.000000000              -0.001755749               0.008113222              -0.001475677              -0.001672555               0.003261898               0.001589343               0.000000000               0.000000000               0.000000000               0.000000000              -0.003211150               0.008826829              -0.000466993              -0.002307529               0.003711423               0.001403894               0.000000000               0.000000000               0.000000000               0.000000000              -0.003386772               0.008476177              -0.000149724              -0.002329556               0.003601883               0.001272327               0.000000000               0.000000000               0.000000000               0.000000000              -0.003152676               0.007891944              -0.000011478              -0.002168741               0.003353535               0.001184794               0.000000000               0.000000000               0.000000000               0.000000000              -0.002769783               0.007269724               0.000052955              -0.001947379               0.003072344               0.001124964               0.000000000               0.000000000               0.000000000               0.000000000              -0.002337785               0.006675150               0.000084903              -0.001711059               0.002795381               0.001084322               0.000000000               0.000000000               0.000000000               0.000000000              -0.001901279               0.006132057               0.000112938              -0.001479483               0.002537160               0.001057677               0.000000000               0.000000000               0.000000000               0.000000000              -0.001472585               0.005637599               0.000125587              -0.001256916               0.002298153               0.001041237               0.000000000               0.000000000               0.000000000               0.000000000              -0.001068584               0.005208285               0.000124627              -0.001051752               0.002086662               0.001034910               0.000000000               0.000000000               0.000000000               0.000000000              -0.000712558               0.004853343               0.000116929              -0.000873875               0.001909056               0.001035181               0.000000000               0.000000000               0.000000000               0.000000000              -0.000413136               0.004576099               0.000096816              -0.000726937               0.001767663               0.001040727               0.000000000               0.000000000               0.000000000               0.000000000              -0.000174500               0.004377179               0.000064697              -0.000612583               0.001663239               0.001050656               0.000000000               0.000000000               0.000000000               0.000000000              -0.000010143               0.004259106               0.000024970              -0.000536190               0.001598418               0.001062228               0.000000000               0.000000000               0.000000000               0.000000000               0.000067933               0.004222549              -0.000010608              -0.000502343               0.001574950               0.001072607               0.000000000               0.000000000               0.000000000               0.000000000               0.000062911               0.004251140              -0.000020624              -0.000507799               0.001586299               0.001078499               0.000000000               0.000000000               0.000000000               0.000000000               0.000046792               0.004296337              -0.000020655              -0.000519494               0.001605263               0.001085769               0.000000000               0.000000000               0.000000000               0.000000000              -0.001093758               0.005612622              -0.001729106              -0.001111735               0.002241433               0.001129698               0.000000000               0.000000000               0.000000000               0.000000000              -0.002699015               0.006898828              -0.001347823              -0.001874480               0.002924413               0.001049933               0.000000000               0.000000000               0.000000000               0.000000000              -0.003940617               0.008136650              -0.000921233              -0.002494806               0.003543792               0.001048985               0.000000000               0.000000000               0.000000000               0.000000000              -0.003854842               0.008017182              -0.000678620              -0.002447708               0.003488270               0.001040562               0.000000000               0.000000000               0.000000000               0.000000000              -0.003430037               0.007570321              -0.000512606              -0.002232548               0.003267598               0.001035049               0.000000000               0.000000000               0.000000000               0.000000000              -0.002902905               0.007037985              -0.000395971              -0.001968332               0.003002082               0.001033750               0.000000000               0.000000000               0.000000000               0.000000000              -0.002345095               0.006519863              -0.000313062              -0.001694389               0.002738062               0.001043673               0.000000000               0.000000000               0.000000000               0.000000000              -0.001804757               0.006036443              -0.000238862              -0.001431336               0.002489240               0.001057904               0.000000000               0.000000000               0.000000000               0.000000000              -0.001294678               0.005589067              -0.000172108              -0.001184135               0.002257715               0.001073581               0.000000000               0.000000000               0.000000000               0.000000000              -0.000838181               0.005205491              -0.000117862              -0.000965002               0.002056814               0.001091812               0.000000000               0.000000000               0.000000000               0.000000000              -0.000454075               0.004902680              -0.000081067              -0.000783111               0.001895247               0.001112136               0.000000000               0.000000000               0.000000000               0.000000000              -0.000144598               0.004682939              -0.000058684              -0.000639590               0.001774161               0.001134571               0.000000000               0.000000000               0.000000000               0.000000000               0.000081854               0.004545127              -0.000046317              -0.000537444               0.001694175               0.001156731               0.000000000               0.000000000               0.000000000               0.000000000               0.000214861               0.004494558              -0.000040493              -0.000481246               0.001658586               0.001177341               0.000000000               0.000000000               0.000000000               0.000000000               0.000257674               0.004532036              -0.000034536              -0.000469876               0.001667289               0.001197413               0.000000000               0.000000000               0.000000000               0.000000000               0.000226982               0.004634160              -0.000021793              -0.000494150               0.001709421               0.001215271               0.000000000               0.000000000               0.000000000               0.000000000               0.000185889               0.004703694              -0.000012249              -0.000518252               0.001740633               0.001222381               0.000000000               0.000000000               0.000000000               0.000000000              -0.002513795               0.003759639              -0.000853863              -0.001412625               0.001724075               0.000311450               0.000000000               0.000000000               0.000000000               0.000000000              -0.003502063               0.005477567              -0.001211369              -0.001997965               0.002491826               0.000493861               0.000000000               0.000000000               0.000000000               0.000000000              -0.004391048               0.007101969              -0.001397486              -0.002534383               0.003212093               0.000677710               0.000000000               0.000000000               0.000000000               0.000000000              -0.004155951               0.007341068              -0.001232719              -0.002476109               0.003272368               0.000796259               0.000000000               0.000000000               0.000000000               0.000000000              -0.003651069               0.007143844              -0.001042094              -0.002262126               0.003135299               0.000873174               0.000000000               0.000000000               0.000000000               0.000000000              -0.003077867               0.006804528              -0.000877691              -0.002004761               0.002936407               0.000931646               0.000000000               0.000000000               0.000000000               0.000000000              -0.002484519               0.006432179              -0.000745246              -0.001735713               0.002722609               0.000986896               0.000000000               0.000000000               0.000000000               0.000000000              -0.001909234               0.006063253              -0.000626343              -0.001473866               0.002512353               0.001038487               0.000000000               0.000000000               0.000000000               0.000000000              -0.001372500               0.005709541              -0.000510600              -0.001228377               0.002312620               0.001084243               0.000000000               0.000000000               0.000000000               0.000000000              -0.000881733               0.005391761              -0.000407196              -0.001004617               0.002132108               0.001127491               0.000000000               0.000000000               0.000000000               0.000000000              -0.000455495               0.005131955              -0.000322171              -0.000812303               0.001981402               0.001169099               0.000000000               0.000000000               0.000000000               0.000000000              -0.000102175               0.004937156              -0.000245854              -0.000655459               0.001864188               0.001208730               0.000000000               0.000000000               0.000000000               0.000000000               0.000170392               0.004807663              -0.000173754              -0.000537060               0.001781558               0.001244499               0.000000000               0.000000000               0.000000000               0.000000000               0.000357488               0.004747785              -0.000112677              -0.000459414               0.001735717               0.001276303               0.000000000               0.000000000               0.000000000               0.000000000               0.000458525               0.004763653              -0.000061091              -0.000423508               0.001729038               0.001305529               0.000000000               0.000000000               0.000000000               0.000000000               0.000486770               0.004856206              -0.000022203              -0.000424486               0.001760215               0.001335729               0.000000000               0.000000000               0.000000000               0.000000000               0.000470135               0.004915343              -0.000003086              -0.000438116               0.001784470               0.001346354               0.000000000               0.000000000               0.000000000               0.000000000              -0.004307549               0.002083497              -0.000012189              -0.001875765               0.001319745              -0.000556020               0.000000000               0.000000000               0.000000000               0.000000000              -0.004402848               0.004039760              -0.001019813              -0.002156033               0.002065250              -0.000090783               0.000000000               0.000000000               0.000000000               0.000000000              -0.004764495               0.005868412              -0.001783713              -0.002520231               0.002796194               0.000275963               0.000000000               0.000000000               0.000000000               0.000000000              -0.004390968               0.006447951              -0.001764190              -0.002452601               0.002966829               0.000514228               0.000000000               0.000000000               0.000000000               0.000000000              -0.003830961               0.006535778              -0.001581944              -0.002253578               0.002929763               0.000676186               0.000000000               0.000000000               0.000000000               0.000000000              -0.003235062               0.006424112              -0.001387830              -0.002016157               0.002813402               0.000797244               0.000000000               0.000000000               0.000000000               0.000000000              -0.002638871               0.006230269              -0.001211953              -0.001768356               0.002666187               0.000897831               0.000000000               0.000000000               0.000000000               0.000000000              -0.002055155               0.006000306              -0.001051237              -0.001520718               0.002506988               0.000986270               0.000000000               0.000000000               0.000000000               0.000000000              -0.001498483               0.005757631              -0.000899623              -0.001281632               0.002346402               0.001064770               0.000000000               0.000000000               0.000000000               0.000000000              -0.000974508               0.005520174              -0.000760185              -0.001055460               0.002191860               0.001136400               0.000000000               0.000000000               0.000000000               0.000000000              -0.000501349               0.005308149              -0.000632065              -0.000851523               0.002053206               0.001201684               0.000000000               0.000000000               0.000000000               0.000000000              -0.000093917               0.005132742              -0.000506908              -0.000676810               0.001936500               0.001259690               0.000000000               0.000000000               0.000000000               0.000000000               0.000245836               0.005004635              -0.000383040              -0.000533390               0.001845992               0.001312602               0.000000000               0.000000000               0.000000000               0.000000000               0.000514073               0.004925245              -0.000266511              -0.000422877               0.001782691               0.001359814               0.000000000               0.000000000               0.000000000               0.000000000               0.000702505               0.004897447              -0.000156133              -0.000348741               0.001748713               0.001399972               0.000000000               0.000000000               0.000000000               0.000000000               0.000807699               0.004927683              -0.000066159              -0.000313073               0.001746902               0.001433830               0.000000000               0.000000000               0.000000000               0.000000000               0.000829711               0.004950282              -0.000027523              -0.000307643               0.001752625               0.001444982               0.000000000               0.000000000               0.000000000               0.000000000              -0.006336022               0.000727768               0.000718522              -0.002466976               0.001064907              -0.001402069               0.000000000               0.000000000               0.000000000               0.000000000              -0.005433895               0.002676335              -0.000758695              -0.002372248               0.001682849              -0.000689399               0.000000000               0.000000000               0.000000000               0.000000000              -0.005073656               0.004442626              -0.001977265              -0.002457944               0.002300174              -0.000157770               0.000000000               0.000000000               0.000000000               0.000000000              -0.004483981               0.005259001              -0.002141663              -0.002338863               0.002532603               0.000193740               0.000000000               0.000000000               0.000000000               0.000000000              -0.003855155               0.005607809              -0.002015586              -0.002146654               0.002584802               0.000438148               0.000000000               0.000000000               0.000000000               0.000000000              -0.003240447               0.005731406              -0.001822605              -0.001931589               0.002554312               0.000622723               0.000000000               0.000000000               0.000000000               0.000000000              -0.002647819               0.005737934              -0.001626554              -0.001710170               0.002482682               0.000772512               0.000000000               0.000000000               0.000000000               0.000000000              -0.002067690               0.005671822              -0.001443130              -0.001484358               0.002385374               0.000901016               0.000000000               0.000000000               0.000000000               0.000000000              -0.001501763               0.005565916              -0.001272288              -0.001258898               0.002274919               0.001016021               0.000000000               0.000000000               0.000000000               0.000000000              -0.000961364               0.005439378              -0.001111884              -0.001040432               0.002159918               0.001119487               0.000000000               0.000000000               0.000000000               0.000000000              -0.000454979               0.005307760              -0.000958660              -0.000834085               0.002047264               0.001213179               0.000000000               0.000000000               0.000000000               0.000000000               0.000002572               0.005183501              -0.000804297              -0.000646972               0.001943474               0.001296502               0.000000000               0.000000000               0.000000000               0.000000000               0.000405729               0.005084820              -0.000647844              -0.000483453               0.001856074               0.001372621               0.000000000               0.000000000               0.000000000               0.000000000               0.000739812               0.005008355              -0.000487494              -0.000348614               0.001785640               0.001437025               0.000000000               0.000000000               0.000000000               0.000000000               0.000997874               0.004964216              -0.000320468              -0.000246324               0.001736830               0.001490506               0.000000000               0.000000000               0.000000000               0.000000000               0.001165298               0.004963321              -0.000154488              -0.000183428               0.001715566               0.001532139               0.000000000               0.000000000               0.000000000               0.000000000               0.001217075               0.004971055              -0.000074200              -0.000164979               0.001711995               0.001547016               0.000000000               0.000000000               0.000000000               0.000000000              -0.008458451              -0.000227871               0.001224440              -0.003143433               0.000971847              -0.002171586               0.000000000               0.000000000               0.000000000               0.000000000              -0.006529805               0.001467431              -0.000469843              -0.002632102               0.001366502              -0.001265601               0.000000000               0.000000000               0.000000000               0.000000000              -0.005332285               0.002952196              -0.001944437              -0.002368627               0.001773595              -0.000595032               0.000000000               0.000000000               0.000000000               0.000000000              -0.004449012               0.003873963              -0.002271559              -0.002152621               0.002008847              -0.000143774               0.000000000               0.000000000               0.000000000               0.000000000              -0.003722641               0.004427743              -0.002225690              -0.001949454               0.002125717               0.000176262               0.000000000               0.000000000               0.000000000               0.000000000              -0.003086474               0.004765115              -0.002066580              -0.001753064               0.002172709               0.000419646               0.000000000               0.000000000               0.000000000               0.000000000              -0.002495640               0.004966268              -0.001885803              -0.001556646               0.002174287               0.000617642               0.000000000               0.000000000               0.000000000               0.000000000              -0.001919449               0.005079865              -0.001707881              -0.001354774               0.002144862               0.000790088               0.000000000               0.000000000               0.000000000               0.000000000              -0.001356595               0.005132280              -0.001533854              -0.001150256               0.002094161               0.000943905               0.000000000               0.000000000               0.000000000               0.000000000              -0.000814293               0.005140473              -0.001368919              -0.000947917               0.002029446               0.001081529               0.000000000               0.000000000               0.000000000               0.000000000              -0.000289873               0.005120909              -0.001211469              -0.000748815               0.001956557               0.001207743               0.000000000               0.000000000               0.000000000               0.000000000               0.000207392               0.005081273              -0.001053272              -0.000557386               0.001879536               0.001322150               0.000000000               0.000000000               0.000000000               0.000000000               0.000667394               0.005036310              -0.000886766              -0.000379265               0.001805175               0.001425909               0.000000000               0.000000000               0.000000000               0.000000000               0.001075745               0.004997048              -0.000705292              -0.000221227               0.001739408               0.001518181               0.000000000               0.000000000               0.000000000               0.000000000               0.001416559               0.004974002              -0.000499136              -0.000090541               0.001688164               0.001597623               0.000000000               0.000000000               0.000000000               0.000000000               0.001667742               0.004978070              -0.000260345               0.000003144               0.001658292               0.001661436               0.000000000               0.000000000               0.000000000               0.000000000               0.001776248               0.004992179              -0.000137081               0.000042070               0.001650020               0.001692090               0.000000000               0.000000000               0.000000000               0.000000000              -0.010483355              -0.000814344               0.001399855              -0.003829463               0.001005032              -0.002824430               0.000000000               0.000000000               0.000000000               0.000000000              -0.007604522               0.000485586              -0.000218315              -0.002912391               0.001132651              -0.001779740               0.000000000               0.000000000               0.000000000               0.000000000              -0.005558436               0.001556808              -0.001683896              -0.002279012               0.001278597              -0.001000414               0.000000000               0.000000000               0.000000000               0.000000000              -0.004339762               0.002466084              -0.002094637              -0.001935668               0.001467240              -0.000468428               0.000000000               0.000000000               0.000000000               0.000000000              -0.003486048               0.003147773              -0.002120129              -0.001700736               0.001616158              -0.000084578               0.000000000               0.000000000               0.000000000               0.000000000              -0.002804665               0.003648934              -0.002014638              -0.001507863               0.001718919               0.000211056               0.000000000               0.000000000               0.000000000               0.000000000              -0.002205034               0.004017171              -0.001877331              -0.001329032               0.001782054               0.000453022               0.000000000               0.000000000               0.000000000               0.000000000              -0.001640545               0.004297379              -0.001730038              -0.001152375               0.001816570               0.000664195               0.000000000               0.000000000               0.000000000               0.000000000              -0.001092170               0.004508582              -0.001573961              -0.000973135               0.001827224               0.000854089               0.000000000               0.000000000               0.000000000               0.000000000              -0.000551962               0.004666550              -0.001426248              -0.000790303               0.001818935               0.001028632               0.000000000               0.000000000               0.000000000               0.000000000              -0.000018917               0.004777990              -0.001285994              -0.000604342               0.001794094               0.001189753               0.000000000               0.000000000               0.000000000               0.000000000               0.000504343               0.004848289              -0.001142286              -0.000416907               0.001755049               0.001338142               0.000000000               0.000000000               0.000000000               0.000000000               0.001015386               0.004889845              -0.000990418              -0.000230461               0.001706752               0.001476291               0.000000000               0.000000000               0.000000000               0.000000000               0.001509731               0.004917744              -0.000817902              -0.000048569               0.001655421               0.001606852               0.000000000               0.000000000               0.000000000               0.000000000               0.001969693               0.004944628              -0.000604056               0.000120555               0.001608008               0.001728563               0.000000000               0.000000000               0.000000000               0.000000000               0.002374346               0.004975318              -0.000330187               0.000268462               0.001568935               0.001837398               0.000000000               0.000000000               0.000000000               0.000000000               0.002607558               0.005009868              -0.000186867               0.000351597               0.001552740               0.001904337               0.000000000               0.000000000               0.000000000               0.000000000              -0.012162908              -0.001111797               0.001207406              -0.004422113               0.001103431              -0.003318682               0.000000000               0.000000000               0.000000000               0.000000000              -0.008525945              -0.000217911              -0.000056393              -0.003169988               0.000984019              -0.002185969               0.000000000               0.000000000               0.000000000               0.000000000              -0.005757885               0.000428406              -0.001232024              -0.002212755               0.000880381              -0.001332375               0.000000000               0.000000000               0.000000000               0.000000000              -0.004219258               0.001248620              -0.001606336              -0.001738297               0.000995631              -0.000742666               0.000000000               0.000000000               0.000000000               0.000000000              -0.003221627               0.001977136              -0.001668876              -0.001455250               0.001144120              -0.000311130               0.000000000               0.000000000               0.000000000               0.000000000              -0.002479723               0.002582909              -0.001616962              -0.001252757               0.001278546               0.000025789               0.000000000               0.000000000               0.000000000               0.000000000              -0.001864174               0.003080717              -0.001529676              -0.001084153               0.001388279               0.000304126               0.000000000               0.000000000               0.000000000               0.000000000              -0.001315347               0.003492338              -0.001425465              -0.000929796               0.001474032               0.000544237               0.000000000               0.000000000               0.000000000               0.000000000              -0.000785842               0.003838023              -0.001311759              -0.000774442               0.001537475               0.000763033               0.000000000               0.000000000               0.000000000               0.000000000              -0.000253318               0.004128786              -0.001201331              -0.000611091               0.001579945               0.000968853               0.000000000               0.000000000               0.000000000               0.000000000               0.000281715               0.004361730              -0.001093659              -0.000439573               0.001600420               0.001160847               0.000000000               0.000000000               0.000000000               0.000000000               0.000825627               0.004540144              -0.000984803              -0.000257908               0.001599335               0.001341427               0.000000000               0.000000000               0.000000000               0.000000000               0.001386356               0.004678154              -0.000870946              -0.000064886               0.001580998               0.001516111               0.000000000               0.000000000               0.000000000               0.000000000               0.001964984               0.004788402              -0.000735980               0.000138317               0.001550012               0.001688329               0.000000000               0.000000000               0.000000000               0.000000000               0.002561635               0.004877901              -0.000558263               0.000350872               0.001508993               0.001859865               0.000000000               0.000000000               0.000000000               0.000000000               0.003171730               0.004947816              -0.000314681               0.000570916               0.001458950               0.002029866               0.000000000               0.000000000               0.000000000               0.000000000               0.003589281               0.005017762              -0.000188536               0.000718753               0.001432986               0.002151739               0.000000000               0.000000000               0.000000000               0.000000000              -0.013274553              -0.001222944               0.000693967              -0.004825086               0.001200706              -0.003624380               0.000000000               0.000000000               0.000000000               0.000000000              -0.009149339              -0.000629236               0.000003104              -0.003352345               0.000907697              -0.002444648               0.000000000               0.000000000               0.000000000               0.000000000              -0.005900665              -0.000306286              -0.000649239              -0.002174462               0.000622721              -0.001551741               0.000000000               0.000000000               0.000000000               0.000000000              -0.004128451               0.000417757              -0.000871620              -0.001600387               0.000672710              -0.000927677               0.000000000               0.000000000               0.000000000               0.000000000              -0.003012520               0.001154882              -0.000921079              -0.001274053               0.000809639              -0.000464414               0.000000000               0.000000000               0.000000000               0.000000000              -0.002217810               0.001813402              -0.000904489              -0.001058352               0.000957245              -0.000101107               0.000000000               0.000000000               0.000000000               0.000000000              -0.001589981               0.002387847              -0.000863464              -0.000894722               0.001094181               0.000199459               0.000000000               0.000000000               0.000000000               0.000000000              -0.001046906               0.002886036              -0.000810700              -0.000753343               0.001213116               0.000459774               0.000000000               0.000000000               0.000000000               0.000000000              -0.000532378               0.003318553              -0.000753136              -0.000614460               0.001310993               0.000696533               0.000000000               0.000000000               0.000000000               0.000000000              -0.000016119               0.003694212              -0.000694413              -0.000467820               0.001387332               0.000919511               0.000000000               0.000000000               0.000000000               0.000000000               0.000515520               0.004011514              -0.000635014              -0.000308119               0.001439864               0.001131745               0.000000000               0.000000000               0.000000000               0.000000000               0.001072925               0.004271746              -0.000576335              -0.000131621               0.001467775               0.001336153               0.000000000               0.000000000               0.000000000               0.000000000               0.001667099               0.004487929              -0.000514651               0.000064170               0.001474571               0.001538741               0.000000000               0.000000000               0.000000000               0.000000000               0.002309158               0.004671178              -0.000440147               0.000282034               0.001463032               0.001745067               0.000000000               0.000000000               0.000000000               0.000000000               0.003015208               0.004820341              -0.000340467               0.000528155               0.001430712               0.001958868               0.000000000               0.000000000               0.000000000               0.000000000               0.003801759               0.004925610              -0.000195824               0.000809950               0.001371870               0.002181820               0.000000000               0.000000000               0.000000000               0.000000000               0.004387821               0.005025552              -0.000121371               0.001017229               0.001336091               0.002353320               0.000000000               0.000000000               0.000000000               0.000000000               0.000000000               0.000000000               0.000000000               0.000000000               0.000000000               0.000000000               0.000000000               0.000000000               0.000000000               0.000000000               0.000000000               0.000000000               0.000000000               0.000000000               0.000000000               0.000000000               0.000000000               0.000000000               0.000000000               0.000000000               0.000000000               0.000000000               0.000000000               0.000000000               0.000000000               0.000000000               0.000000000               0.000000000               0.000000000               0.000000000               0.000000000               0.000000000               0.000000000               0.000000000               0.000000000               0.000000000               0.000000000               0.000000000               0.000000000               0.000000000               0.000000000               0.000000000               0.000000000               0.000000000               0.000000000               0.000000000               0.000000000               0.000000000               0.000000000               0.000000000               0.000000000               0.000000000               0.000000000               0.000000000               0.000000000               0.000000000               0.000000000               0.000000000               0.000000000               0.000000000               0.000000000               0.000000000               0.000000000               0.000000000               0.000000000               0.000000000               0.000000000               0.000000000               0.000000000               0.000000000               0.000000000               0.000000000               0.000000000               0.000000000               0.000000000               0.000000000               0.000000000               0.000000000               0.000000000               0.000000000               0.000000000               0.000000000               0.000000000               0.000000000               0.000000000               0.000000000               0.000000000               0.000000000               0.000000000               0.000000000               0.000000000               0.000000000               0.000000000               0.000000000               0.000000000               0.000000000               0.000000000               0.000000000               0.000000000               0.000000000               0.000000000               0.000000000               0.000000000               0.000000000               0.000000000               0.000000000               0.000000000               0.000000000               0.000000000               0.000000000               0.000000000               0.000000000               0.000000000               0.000000000               0.000000000               0.000000000               0.000000000               0.000000000               0.000000000               0.000000000               0.000000000               0.000000000               0.000000000               0.000000000               0.000000000               0.000000000               0.000000000               0.000000000               0.000000000               0.000000000               0.000000000               0.000000000               0.000000000               0.000000000               0.000000000               0.000000000               0.000000000               0.000000000               0.000000000               0.000000000               0.000000000               0.000000000               0.000000000               0.000000000               0.000000000               0.000000000               0.000000000               0.000000000               0.000000000               0.000000000               0.000000000               0.000000000               0.000000000               0.000000000               0.000000000               0.000000000               0.000000000               0.000000000               0.000000000               0.000000000               0.000000000               0.000000000               0.000000000               0.000000000               0.000000000               0.000000000               0.000000000               0.000000000               0.000000000               0.000000000               0.000000000               0.000000000               0.000000000               0.000000000               0.000000000               0.000000000               0.000000000               0.000000000               0.000000000               0.000000000               0.000000000               0.000000000               0.000000000               0.000000000               0.000000000               0.000000000               0.000000000               0.000000000               0.000000000               0.000000000               0.000000000               0.000000000               0.000000000               0.000000000               0.000000000               0.000000000               0.000000000               0.000000000               0.000000000               0.000000000               0.000000000               0.000000000               0.000000000               0.000000000               0.000000000               0.000000000               0.000000000               0.000000000               0.000000000               0.000000000               0.000000000               0.000000000               0.000000000               0.000000000               0.000000000               0.000000000               0.000000000               0.000000000               0.000000000               0.000000000               0.000000000               0.000000000               0.000000000               0.000000000               0.000000000               0.000000000               0.000000000               0.000000000               0.000000000               0.000000000               0.000000000               0.000000000               0.000000000               0.000000000               0.000000000               0.000000000               0.000000000               0.000000000               0.000000000               0.000000000               0.000000000               0.000000000               0.000000000               0.000000000               0.000000000               0.000000000               0.000000000               0.000000000               0.000000000               0.000000000               0.000000000               0.000000000               0.000000000               0.000000000               0.000000000               0.000000000               0.000000000               0.000000000               0.000000000               0.000000000               0.000000000               0.000000000               0.000000000               0.000000000               0.000000000               0.000000000               0.000000000               0.000000000               0.000000000               0.000000000               0.000000000               0.000000000               0.000000000               0.000000000               0.000000000               0.000000000               0.000000000               0.000000000               0.000000000               0.000000000               0.000000000               0.000000000               0.000000000               0.000000000               0.000000000               0.000000000               0.000000000               0.000000000               0.000000000               0.000000000               0.000000000               0.000000000               0.000000000               0.000000000               0.000000000               0.000000000               0.000000000               0.000000000               0.000000000               0.000000000               0.000000000               0.000000000               0.000000000               0.000000000               0.000000000               0.000000000               0.000000000               0.000000000               0.000000000               0.000000000               0.000000000               0.000000000               0.000000000               0.000000000               0.000000000               0.000000000               0.000000000               0.000000000               0.000000000               0.000000000               0.000000000               0.000000000               0.000000000               0.000000000               0.000000000               0.000000000               0.000000000               0.000000000               0.000000000               0.000000000               0.000000000               0.000000000               0.000000000               0.000000000               0.000000000               0.000000000               0.000000000               0.000000000               0.000000000               0.000000000               0.002055321               0.020896414               0.001418683              -0.001841302               0.007579169               0.005737867               0.000000000               0.000000000               0.000000000               0.000000000               0.001838736               0.016055463               0.000636894              -0.001317404               0.005790902               0.004473499               0.000000000               0.000000000               0.000000000               0.000000000               0.002246111               0.012137602              -0.000137201              -0.000674907               0.004270796               0.003595889               0.000000000               0.000000000               0.000000000               0.000000000               0.002002547               0.009903427              -0.000459110              -0.000486972               0.003463434               0.002976461               0.000000000               0.000000000               0.000000000               0.000000000               0.001596965               0.008470740              -0.000584263              -0.000459980               0.002976878               0.002516899               0.000000000               0.000000000               0.000000000               0.000000000               0.001193383               0.007449866              -0.000619331              -0.000483714               0.002644502               0.002160788               0.000000000               0.000000000               0.000000000               0.000000000               0.000842015               0.006653060              -0.000612199              -0.000515876               0.002389623               0.001873747               0.000000000               0.000000000               0.000000000               0.000000000               0.000555940               0.005979466              -0.000587555              -0.000538955               0.002172787               0.001633832               0.000000000               0.000000000               0.000000000               0.000000000               0.000337901               0.005376226              -0.000556273              -0.000545314               0.001973829               0.001428514               0.000000000               0.000000000               0.000000000               0.000000000               0.000181696               0.004811540              -0.000523045              -0.000533305               0.001781599               0.001248294               0.000000000               0.000000000               0.000000000               0.000000000               0.000071023               0.004264617              -0.000490153              -0.000506442               0.001590339               0.001083896               0.000000000               0.000000000               0.000000000               0.000000000              -0.000007787               0.003717553              -0.000452574              -0.000467613               0.001395043               0.000927430               0.000000000               0.000000000               0.000000000               0.000000000              -0.000060087               0.003151521              -0.000405873              -0.000416472               0.001189321               0.000772849               0.000000000               0.000000000               0.000000000               0.000000000              -0.000083217               0.002552295              -0.000345115              -0.000350243               0.000967504               0.000617261               0.000000000               0.000000000               0.000000000               0.000000000              -0.000080652               0.001905712              -0.000262388              -0.000268458               0.000724717               0.000456259               0.000000000               0.000000000               0.000000000               0.000000000              -0.000050364               0.001198790              -0.000148888              -0.000168735               0.000455838               0.000287103               0.000000000               0.000000000               0.000000000               0.000000000              -0.000081936               0.000673677              -0.000093932              -0.000114935               0.000262868               0.000147933               0.000000000               0.000000000               0.000000000               0.000000000               0.002196567               0.019589431               0.002618928              -0.001624963               0.007071399               0.005446436               0.000000000               0.000000000               0.000000000               0.000000000               0.001656341               0.015229639               0.001165268              -0.001282574               0.005504020               0.004221446               0.000000000               0.000000000               0.000000000               0.000000000               0.001720574               0.011812624              -0.000259121              -0.000831361               0.004214622               0.003383261               0.000000000               0.000000000               0.000000000               0.000000000               0.001356037               0.009835848              -0.000828728              -0.000720965               0.003518905               0.002797939               0.000000000               0.000000000               0.000000000               0.000000000               0.000933331               0.008536720              -0.001037828              -0.000717089               0.003084575               0.002367485               0.000000000               0.000000000               0.000000000               0.000000000               0.000562600               0.007585084              -0.001088550              -0.000737159               0.002774056               0.002036897               0.000000000               0.000000000               0.000000000               0.000000000               0.000267470               0.006823172              -0.001067304              -0.000752594               0.002525232               0.001772639               0.000000000               0.000000000               0.000000000               0.000000000               0.000049783               0.006169132              -0.001015314              -0.000752472               0.002307181               0.001554709               0.000000000               0.000000000               0.000000000               0.000000000              -0.000097937               0.005573267              -0.000953604              -0.000733383               0.002102198               0.001368815               0.000000000               0.000000000               0.000000000               0.000000000              -0.000186353               0.005012087              -0.000890807              -0.000696392               0.001902810               0.001206418               0.000000000               0.000000000               0.000000000               0.000000000              -0.000231785               0.004471947              -0.000828454              -0.000645912               0.001705938               0.001060026               0.000000000               0.000000000               0.000000000               0.000000000              -0.000246017               0.003939059              -0.000757023              -0.000584638               0.001507886               0.000923248               0.000000000               0.000000000               0.000000000               0.000000000              -0.000232506               0.003400843              -0.000668854              -0.000512294               0.001304368               0.000792073               0.000000000               0.000000000               0.000000000               0.000000000              -0.000196653               0.002852964              -0.000559199              -0.000430364               0.001094433               0.000664069               0.000000000               0.000000000               0.000000000               0.000000000              -0.000144884               0.002296437              -0.000418944              -0.000341385               0.000879266               0.000537881               0.000000000               0.000000000               0.000000000               0.000000000              -0.000078056               0.001737345              -0.000233500              -0.000246439               0.000661255               0.000414817               0.000000000               0.000000000               0.000000000               0.000000000              -0.000081475               0.001350982              -0.000142971              -0.000199425               0.000516798               0.000317373               0.000000000               0.000000000               0.000000000               0.000000000               0.002299773               0.017603252               0.003430354              -0.001337990               0.006313688               0.004975698               0.000000000               0.000000000               0.000000000               0.000000000               0.001310321               0.013996135               0.001511674              -0.001258144               0.005084713               0.003826569               0.000000000               0.000000000               0.000000000               0.000000000               0.000901594               0.011336780              -0.000334586              -0.001078997               0.004138554               0.003059558               0.000000000               0.000000000               0.000000000               0.000000000               0.000401291               0.009720151              -0.001024975              -0.001064532               0.003594862               0.002530330               0.000000000               0.000000000               0.000000000               0.000000000              -0.000009218               0.008590734              -0.001257127              -0.001077296               0.003222648               0.002145352               0.000000000               0.000000000               0.000000000               0.000000000              -0.000303590               0.007722185              -0.001296432              -0.001079117               0.002933741               0.001854624               0.000000000               0.000000000               0.000000000               0.000000000              -0.000496398               0.006998032              -0.001257121              -0.001060901               0.002686288               0.001625386               0.000000000               0.000000000               0.000000000               0.000000000              -0.000604240               0.006363165              -0.001185151              -0.001021983               0.002461695               0.001439711               0.000000000               0.000000000               0.000000000               0.000000000              -0.000649409               0.005778687              -0.001099463              -0.000965862               0.002248164               0.001282301               0.000000000               0.000000000               0.000000000               0.000000000              -0.000647868               0.005224368              -0.001013906              -0.000895995               0.002040103               0.001144109               0.000000000               0.000000000               0.000000000               0.000000000              -0.000607565               0.004689591              -0.000930817              -0.000814034               0.001834526               0.001020492               0.000000000               0.000000000               0.000000000               0.000000000              -0.000533213               0.004171726              -0.000837570              -0.000721419               0.001631034               0.000909615               0.000000000               0.000000000               0.000000000               0.000000000              -0.000435308               0.003669778              -0.000725094              -0.000621962               0.001430567               0.000808606               0.000000000               0.000000000               0.000000000               0.000000000              -0.000325723               0.003189015              -0.000591566              -0.000520772               0.001236585               0.000715813               0.000000000               0.000000000               0.000000000               0.000000000              -0.000216310               0.002740155              -0.000430383              -0.000423635               0.001054587               0.000630953               0.000000000               0.000000000               0.000000000               0.000000000              -0.000109697               0.002340434              -0.000232863              -0.000333690               0.000891367               0.000557677               0.000000000               0.000000000               0.000000000               0.000000000              -0.000082614               0.002096026              -0.000138258              -0.000292983               0.000796329               0.000503347               0.000000000               0.000000000               0.000000000               0.000000000               0.002224828               0.015170545               0.003783623              -0.001062008               0.005410800               0.004348792               0.000000000               0.000000000               0.000000000               0.000000000               0.000772718               0.012524200               0.001670601              -0.001275754               0.004599943               0.003324189               0.000000000               0.000000000               0.000000000               0.000000000              -0.000123179               0.010768995              -0.000318489              -0.001392313               0.004053733               0.002661420               0.000000000               0.000000000               0.000000000               0.000000000              -0.000704200               0.009540024              -0.000999476              -0.001456575               0.003665501               0.002208926               0.000000000               0.000000000               0.000000000               0.000000000              -0.001043648               0.008582070              -0.001204743              -0.001464123               0.003348702               0.001884579               0.000000000               0.000000000               0.000000000               0.000000000              -0.001206926               0.007788778              -0.001224319              -0.001426191               0.003071630               0.001645439               0.000000000               0.000000000               0.000000000               0.000000000              -0.001252450               0.007093102              -0.001175835              -0.001356304               0.002816445               0.001460141               0.000000000               0.000000000               0.000000000               0.000000000              -0.001227005               0.006466422              -0.001099835              -0.001268427               0.002578261               0.001309834               0.000000000               0.000000000               0.000000000               0.000000000              -0.001155590               0.005889227              -0.001009118              -0.001169497               0.002352888               0.001183391               0.000000000               0.000000000               0.000000000               0.000000000              -0.001048922               0.005345419              -0.000917003              -0.001061521               0.002135629               0.001074108               0.000000000               0.000000000               0.000000000               0.000000000              -0.000909831               0.004828891              -0.000829396              -0.000944796               0.001924546               0.000979750               0.000000000               0.000000000               0.000000000               0.000000000              -0.000746903               0.004341796              -0.000735846              -0.000822811               0.001721521               0.000898710               0.000000000               0.000000000               0.000000000               0.000000000              -0.000577314               0.003894143              -0.000624259              -0.000703259               0.001532454               0.000829195               0.000000000               0.000000000               0.000000000               0.000000000              -0.000409729               0.003496238              -0.000494646              -0.000590677               0.001362293               0.000771616               0.000000000               0.000000000               0.000000000               0.000000000              -0.000254202               0.003156860              -0.000346971              -0.000489932               0.001215587               0.000725655               0.000000000               0.000000000               0.000000000               0.000000000              -0.000120002               0.002896609              -0.000182230              -0.000407076               0.001101219               0.000694143               0.000000000               0.000000000               0.000000000               0.000000000              -0.000072228               0.002765545              -0.000104519              -0.000372778               0.001046098               0.000673321               0.000000000               0.000000000               0.000000000               0.000000000               0.001865504               0.012551861               0.003696906              -0.000869419               0.004473717               0.003604298               0.000000000               0.000000000               0.000000000               0.000000000               0.000055260               0.010976123               0.001680271              -0.001351291               0.004109101               0.002757810               0.000000000               0.000000000               0.000000000               0.000000000              -0.001230719               0.010150031              -0.000178380              -0.001730269               0.003960066               0.002229797               0.000000000               0.000000000               0.000000000               0.000000000              -0.001790388               0.009280862              -0.000758060              -0.001831499               0.003704089               0.001872590               0.000000000               0.000000000               0.000000000               0.000000000              -0.001984384               0.008473956              -0.000921946              -0.001803384               0.003425752               0.001622368               0.000000000               0.000000000               0.000000000               0.000000000              -0.001974003               0.007743301              -0.000932768              -0.001708160               0.003150461               0.001442301               0.000000000               0.000000000               0.000000000               0.000000000              -0.001855732               0.007068235              -0.000891173              -0.001579425               0.002882530               0.001303105               0.000000000               0.000000000               0.000000000               0.000000000              -0.001685909               0.006450416              -0.000834097              -0.001438515               0.002629622               0.001191107               0.000000000               0.000000000               0.000000000               0.000000000              -0.001486846               0.005885794              -0.000761445              -0.001293289               0.002393008               0.001099719               0.000000000               0.000000000               0.000000000               0.000000000              -0.001269409               0.005360637              -0.000684592              -0.001146105               0.002168896               0.001022791               0.000000000               0.000000000               0.000000000               0.000000000              -0.001036911               0.004879154              -0.000610973              -0.000998733               0.001959279               0.000960546               0.000000000               0.000000000               0.000000000               0.000000000              -0.000798693               0.004447053              -0.000533445              -0.000855389               0.001767466               0.000912076               0.000000000               0.000000000               0.000000000               0.000000000              -0.000574221               0.004074571              -0.000443431              -0.000724653               0.001599728               0.000875075               0.000000000               0.000000000               0.000000000               0.000000000              -0.000373852               0.003768634              -0.000335257              -0.000611272               0.001459956               0.000848684               0.000000000               0.000000000               0.000000000               0.000000000              -0.000206648               0.003537222              -0.000216550              -0.000519645               0.001352277               0.000832633               0.000000000               0.000000000               0.000000000               0.000000000              -0.000086113               0.003396601              -0.000104220              -0.000456867               0.001284478               0.000827611               0.000000000               0.000000000               0.000000000               0.000000000              -0.000039310               0.003353714              -0.000052011              -0.000433955               0.001262545               0.000828591               0.000000000               0.000000000               0.000000000               0.000000000               0.001159291               0.009979127               0.003253898              -0.000812658               0.003597228               0.002784570               0.000000000               0.000000000               0.000000000               0.000000000              -0.000802709               0.009475622               0.001598470              -0.001485466               0.003653664               0.002168198               0.000000000               0.000000000               0.000000000               0.000000000              -0.002294410               0.009501876               0.000090011              -0.002048133               0.003849971               0.001801838               0.000000000               0.000000000               0.000000000               0.000000000              -0.002712558               0.008931289              -0.000350819              -0.002133615               0.003688272               0.001554656               0.000000000               0.000000000               0.000000000               0.000000000              -0.002704837               0.008243713              -0.000487015              -0.002044773               0.003429468               0.001384695               0.000000000               0.000000000               0.000000000               0.000000000              -0.002506744               0.007562765              -0.000511639              -0.001885370               0.003149353               0.001263983               0.000000000               0.000000000               0.000000000               0.000000000              -0.002224693               0.006916874              -0.000497994              -0.001698865               0.002871890               0.001173025               0.000000000               0.000000000               0.000000000               0.000000000              -0.001912714               0.006325410              -0.000479262              -0.001507940               0.002611096               0.001103155               0.000000000               0.000000000               0.000000000               0.000000000              -0.001591461               0.005788907              -0.000442547              -0.001320408               0.002369752               0.001049344               0.000000000               0.000000000               0.000000000               0.000000000              -0.001267314               0.005303422              -0.000396756              -0.001138168               0.002147179               0.001009011               0.000000000               0.000000000               0.000000000               0.000000000              -0.000957147               0.004877548              -0.000352132              -0.000968621               0.001948707               0.000980086               0.000000000               0.000000000               0.000000000               0.000000000              -0.000671830               0.004517304              -0.000301251              -0.000816597               0.001777952               0.000961355               0.000000000               0.000000000               0.000000000               0.000000000              -0.000423011               0.004226948              -0.000237868              -0.000686996               0.001637967               0.000950971               0.000000000               0.000000000               0.000000000               0.000000000              -0.000223613               0.004010787              -0.000159945              -0.000585202               0.001531983               0.000946781               0.000000000               0.000000000               0.000000000               0.000000000              -0.000081691               0.003878657              -0.000080911              -0.000515465               0.001464694               0.000949229               0.000000000               0.000000000               0.000000000               0.000000000              -0.000012064               0.003829643              -0.000024690              -0.000483228               0.001437611               0.000954383               0.000000000               0.000000000               0.000000000               0.000000000               0.000010162               0.003840788              -0.000000923              -0.000476286               0.001439012               0.000962726               0.000000000               0.000000000               0.000000000               0.000000000               0.000129387               0.007609435               0.002563273              -0.000902659               0.002837339               0.001934680               0.000000000               0.000000000               0.000000000               0.000000000              -0.001755749               0.008113222               0.001475677              -0.001672555               0.003261898               0.001589343               0.000000000               0.000000000               0.000000000               0.000000000              -0.003211150               0.008826829               0.000466993              -0.002307529               0.003711423               0.001403894               0.000000000               0.000000000               0.000000000               0.000000000              -0.003386772               0.008476177               0.000149724              -0.002329556               0.003601883               0.001272327               0.000000000               0.000000000               0.000000000               0.000000000              -0.003152676               0.007891944               0.000011478              -0.002168741               0.003353535               0.001184794               0.000000000               0.000000000               0.000000000               0.000000000              -0.002769783               0.007269724              -0.000052955              -0.001947379               0.003072344               0.001124964               0.000000000               0.000000000               0.000000000               0.000000000              -0.002337785               0.006675150              -0.000084903              -0.001711059               0.002795381               0.001084322               0.000000000               0.000000000               0.000000000               0.000000000              -0.001901279               0.006132057              -0.000112938              -0.001479483               0.002537160               0.001057677               0.000000000               0.000000000               0.000000000               0.000000000              -0.001472585               0.005637599              -0.000125587              -0.001256916               0.002298153               0.001041237               0.000000000               0.000000000               0.000000000               0.000000000              -0.001068584               0.005208285              -0.000124627              -0.001051752               0.002086662               0.001034910               0.000000000               0.000000000               0.000000000               0.000000000              -0.000712558               0.004853343              -0.000116929              -0.000873875               0.001909056               0.001035181               0.000000000               0.000000000               0.000000000               0.000000000              -0.000413136               0.004576099              -0.000096816              -0.000726937               0.001767663               0.001040727               0.000000000               0.000000000               0.000000000               0.000000000              -0.000174500               0.004377179              -0.000064697              -0.000612583               0.001663239               0.001050656               0.000000000               0.000000000               0.000000000               0.000000000              -0.000010143               0.004259106              -0.000024970              -0.000536190               0.001598418               0.001062228               0.000000000               0.000000000               0.000000000               0.000000000               0.000067933               0.004222549               0.000010608              -0.000502343               0.001574950               0.001072607               0.000000000               0.000000000               0.000000000               0.000000000               0.000062911               0.004251140               0.000020624              -0.000507799               0.001586299               0.001078499               0.000000000               0.000000000               0.000000000               0.000000000               0.000046792               0.004296337               0.000020655              -0.000519494               0.001605263               0.001085769               0.000000000               0.000000000               0.000000000               0.000000000              -0.001093758               0.005612622               0.001729106              -0.001111735               0.002241433               0.001129698               0.000000000               0.000000000               0.000000000               0.000000000              -0.002699015               0.006898828               0.001347823              -0.001874480               0.002924413               0.001049933               0.000000000               0.000000000               0.000000000               0.000000000              -0.003940617               0.008136650               0.000921233              -0.002494806               0.003543792               0.001048985               0.000000000               0.000000000               0.000000000               0.000000000              -0.003854842               0.008017182               0.000678620              -0.002447708               0.003488270               0.001040562               0.000000000               0.000000000               0.000000000               0.000000000              -0.003430037               0.007570321               0.000512606              -0.002232548               0.003267598               0.001035049               0.000000000               0.000000000               0.000000000               0.000000000              -0.002902905               0.007037985               0.000395971              -0.001968332               0.003002082               0.001033750               0.000000000               0.000000000               0.000000000               0.000000000              -0.002345095               0.006519863               0.000313062              -0.001694389               0.002738062               0.001043673               0.000000000               0.000000000               0.000000000               0.000000000              -0.001804757               0.006036443               0.000238862              -0.001431336               0.002489240               0.001057904               0.000000000               0.000000000               0.000000000               0.000000000              -0.001294678               0.005589067               0.000172108              -0.001184135               0.002257715               0.001073581               0.000000000               0.000000000               0.000000000               0.000000000              -0.000838181               0.005205491               0.000117862              -0.000965002               0.002056814               0.001091812               0.000000000               0.000000000               0.000000000               0.000000000              -0.000454075               0.004902680               0.000081067              -0.000783111               0.001895247               0.001112136               0.000000000               0.000000000               0.000000000               0.000000000              -0.000144598               0.004682939               0.000058684              -0.000639590               0.001774161               0.001134571               0.000000000               0.000000000               0.000000000               0.000000000               0.000081854               0.004545127               0.000046317              -0.000537444               0.001694175               0.001156731               0.000000000               0.000000000               0.000000000               0.000000000               0.000214861               0.004494558               0.000040493              -0.000481246               0.001658586               0.001177341               0.000000000               0.000000000               0.000000000               0.000000000               0.000257674               0.004532036               0.000034536              -0.000469876               0.001667289               0.001197413               0.000000000               0.000000000               0.000000000               0.000000000               0.000226982               0.004634160               0.000021793              -0.000494150               0.001709421               0.001215271               0.000000000               0.000000000               0.000000000               0.000000000               0.000185889               0.004703694               0.000012249              -0.000518252               0.001740633               0.001222381               0.000000000               0.000000000               0.000000000               0.000000000              -0.002513795               0.003759639               0.000853863              -0.001412625               0.001724075               0.000311450               0.000000000               0.000000000               0.000000000               0.000000000              -0.003502063               0.005477567               0.001211369              -0.001997965               0.002491826               0.000493861               0.000000000               0.000000000               0.000000000               0.000000000              -0.004391048               0.007101969               0.001397486              -0.002534383               0.003212093               0.000677710               0.000000000               0.000000000               0.000000000               0.000000000              -0.004155951               0.007341068               0.001232719              -0.002476109               0.003272368               0.000796259               0.000000000               0.000000000               0.000000000               0.000000000              -0.003651069               0.007143844               0.001042094              -0.002262126               0.003135299               0.000873174               0.000000000               0.000000000               0.000000000               0.000000000              -0.003077867               0.006804528               0.000877691              -0.002004761               0.002936407               0.000931646               0.000000000               0.000000000               0.000000000               0.000000000              -0.002484519               0.006432179               0.000745246              -0.001735713               0.002722609               0.000986896               0.000000000               0.000000000               0.000000000               0.000000000              -0.001909234               0.006063253               0.000626343              -0.001473866               0.002512353               0.001038487               0.000000000               0.000000000               0.000000000               0.000000000              -0.001372500               0.005709541               0.000510600              -0.001228377               0.002312620               0.001084243               0.000000000               0.000000000               0.000000000               0.000000000              -0.000881733               0.005391761               0.000407196              -0.001004617               0.002132108               0.001127491               0.000000000               0.000000000               0.000000000               0.000000000              -0.000455495               0.005131955               0.000322171              -0.000812303               0.001981402               0.001169099               0.000000000               0.000000000               0.000000000               0.000000000              -0.000102175               0.004937156               0.000245854              -0.000655459               0.001864188               0.001208730               0.000000000               0.000000000               0.000000000               0.000000000               0.000170392               0.004807663               0.000173754              -0.000537060               0.001781558               0.001244499               0.000000000               0.000000000               0.000000000               0.000000000               0.000357488               0.004747785               0.000112677              -0.000459414               0.001735717               0.001276303               0.000000000               0.000000000               0.000000000               0.000000000               0.000458525               0.004763653               0.000061091              -0.000423508               0.001729038               0.001305529               0.000000000               0.000000000               0.000000000               0.000000000               0.000486770               0.004856206               0.000022203              -0.000424486               0.001760215               0.001335729               0.000000000               0.000000000               0.000000000               0.000000000               0.000470135               0.004915343               0.000003086              -0.000438116               0.001784470               0.001346354               0.000000000               0.000000000               0.000000000               0.000000000              -0.004307549               0.002083497               0.000012189              -0.001875765               0.001319745              -0.000556020               0.000000000               0.000000000               0.000000000               0.000000000              -0.004402848               0.004039760               0.001019813              -0.002156033               0.002065250              -0.000090783               0.000000000               0.000000000               0.000000000               0.000000000              -0.004764495               0.005868412               0.001783713              -0.002520231               0.002796194               0.000275963               0.000000000               0.000000000               0.000000000               0.000000000              -0.004390968               0.006447951               0.001764190              -0.002452601               0.002966829               0.000514228               0.000000000               0.000000000               0.000000000               0.000000000              -0.003830961               0.006535778               0.001581944              -0.002253578               0.002929763               0.000676186               0.000000000               0.000000000               0.000000000               0.000000000              -0.003235062               0.006424112               0.001387830              -0.002016157               0.002813402               0.000797244               0.000000000               0.000000000               0.000000000               0.000000000              -0.002638871               0.006230269               0.001211953              -0.001768356               0.002666187               0.000897831               0.000000000               0.000000000               0.000000000               0.000000000              -0.002055155               0.006000306               0.001051237              -0.001520718               0.002506988               0.000986270               0.000000000               0.000000000               0.000000000               0.000000000              -0.001498483               0.005757631               0.000899623              -0.001281632               0.002346402               0.001064770               0.000000000               0.000000000               0.000000000               0.000000000              -0.000974508               0.005520174               0.000760185              -0.001055460               0.002191860               0.001136400               0.000000000               0.000000000               0.000000000               0.000000000              -0.000501349               0.005308149               0.000632065              -0.000851523               0.002053206               0.001201684               0.000000000               0.000000000               0.000000000               0.000000000              -0.000093917               0.005132742               0.000506908              -0.000676810               0.001936500               0.001259690               0.000000000               0.000000000               0.000000000               0.000000000               0.000245836               0.005004635               0.000383040              -0.000533390               0.001845992               0.001312602               0.000000000               0.000000000               0.000000000               0.000000000               0.000514073               0.004925245               0.000266511              -0.000422877               0.001782691               0.001359814               0.000000000               0.000000000               0.000000000               0.000000000               0.000702505               0.004897447               0.000156133              -0.000348741               0.001748713               0.001399972               0.000000000               0.000000000               0.000000000               0.000000000               0.000807699               0.004927683               0.000066159              -0.000313073               0.001746902               0.001433830               0.000000000               0.000000000               0.000000000               0.000000000               0.000829711               0.004950282               0.000027523              -0.000307643               0.001752625               0.001444982               0.000000000               0.000000000               0.000000000               0.000000000              -0.006336022               0.000727768              -0.000718522              -0.002466976               0.001064907              -0.001402069               0.000000000               0.000000000               0.000000000               0.000000000              -0.005433895               0.002676335               0.000758695              -0.002372248               0.001682849              -0.000689399               0.000000000               0.000000000               0.000000000               0.000000000              -0.005073656               0.004442626               0.001977265              -0.002457944               0.002300174              -0.000157770               0.000000000               0.000000000               0.000000000               0.000000000              -0.004483981               0.005259001               0.002141663              -0.002338863               0.002532603               0.000193740               0.000000000               0.000000000               0.000000000               0.000000000              -0.003855155               0.005607809               0.002015586              -0.002146654               0.002584802               0.000438148               0.000000000               0.000000000               0.000000000               0.000000000              -0.003240447               0.005731406               0.001822605              -0.001931589               0.002554312               0.000622723               0.000000000               0.000000000               0.000000000               0.000000000              -0.002647819               0.005737934               0.001626554              -0.001710170               0.002482682               0.000772512               0.000000000               0.000000000               0.000000000               0.000000000              -0.002067690               0.005671822               0.001443130              -0.001484358               0.002385374               0.000901016               0.000000000               0.000000000               0.000000000               0.000000000              -0.001501763               0.005565916               0.001272288              -0.001258898               0.002274919               0.001016021               0.000000000               0.000000000               0.000000000               0.000000000              -0.000961364               0.005439378               0.001111884              -0.001040432               0.002159918               0.001119487               0.000000000               0.000000000               0.000000000               0.000000000              -0.000454979               0.005307760               0.000958660              -0.000834085               0.002047264               0.001213179               0.000000000               0.000000000               0.000000000               0.000000000               0.000002572               0.005183501               0.000804297              -0.000646972               0.001943474               0.001296502               0.000000000               0.000000000               0.000000000               0.000000000               0.000405729               0.005084820               0.000647844              -0.000483453               0.001856074               0.001372621               0.000000000               0.000000000               0.000000000               0.000000000               0.000739812               0.005008355               0.000487494              -0.000348614               0.001785640               0.001437025               0.000000000               0.000000000               0.000000000               0.000000000               0.000997874               0.004964216               0.000320468              -0.000246324               0.001736830               0.001490506               0.000000000               0.000000000               0.000000000               0.000000000               0.001165298               0.004963321               0.000154488              -0.000183428               0.001715566               0.001532139               0.000000000               0.000000000               0.000000000               0.000000000               0.001217075               0.004971055               0.000074200              -0.000164979               0.001711995               0.001547016               0.000000000               0.000000000               0.000000000               0.000000000              -0.008458451              -0.000227871              -0.001224440              -0.003143433               0.000971847              -0.002171586               0.000000000               0.000000000               0.000000000               0.000000000              -0.006529805               0.001467431               0.000469843              -0.002632102               0.001366502              -0.001265601               0.000000000               0.000000000               0.000000000               0.000000000              -0.005332285               0.002952196               0.001944437              -0.002368627               0.001773595              -0.000595032               0.000000000               0.000000000               0.000000000               0.000000000              -0.004449012               0.003873963               0.002271559              -0.002152621               0.002008847              -0.000143774               0.000000000               0.000000000               0.000000000               0.000000000              -0.003722641               0.004427743               0.002225690              -0.001949454               0.002125717               0.000176262               0.000000000               0.000000000               0.000000000               0.000000000              -0.003086474               0.004765115               0.002066580              -0.001753064               0.002172709               0.000419646               0.000000000               0.000000000               0.000000000               0.000000000              -0.002495640               0.004966268               0.001885803              -0.001556646               0.002174287               0.000617642               0.000000000               0.000000000               0.000000000               0.000000000              -0.001919449               0.005079865               0.001707881              -0.001354774               0.002144862               0.000790088               0.000000000               0.000000000               0.000000000               0.000000000              -0.001356595               0.005132280               0.001533854              -0.001150256               0.002094161               0.000943905               0.000000000               0.000000000               0.000000000               0.000000000              -0.000814293               0.005140473               0.001368919              -0.000947917               0.002029446               0.001081529               0.000000000               0.000000000               0.000000000               0.000000000              -0.000289873               0.005120909               0.001211469              -0.000748815               0.001956557               0.001207743               0.000000000               0.000000000               0.000000000               0.000000000               0.000207392               0.005081273               0.001053272              -0.000557386               0.001879536               0.001322150               0.000000000               0.000000000               0.000000000               0.000000000               0.000667394               0.005036310               0.000886766              -0.000379265               0.001805175               0.001425909               0.000000000               0.000000000               0.000000000               0.000000000               0.001075745               0.004997048               0.000705292              -0.000221227               0.001739408               0.001518181               0.000000000               0.000000000               0.000000000               0.000000000               0.001416559               0.004974002               0.000499136              -0.000090541               0.001688164               0.001597623               0.000000000               0.000000000               0.000000000               0.000000000               0.001667742               0.004978070               0.000260345               0.000003144               0.001658292               0.001661436               0.000000000               0.000000000               0.000000000               0.000000000               0.001776248               0.004992179               0.000137081               0.000042070               0.001650020               0.001692090               0.000000000               0.000000000               0.000000000               0.000000000              -0.010483355              -0.000814344              -0.001399855              -0.003829463               0.001005032              -0.002824430               0.000000000               0.000000000               0.000000000               0.000000000              -0.007604522               0.000485586               0.000218315              -0.002912391               0.001132651              -0.001779740               0.000000000               0.000000000               0.000000000               0.000000000              -0.005558436               0.001556808               0.001683896              -0.002279012               0.001278597              -0.001000414               0.000000000               0.000000000               0.000000000               0.000000000              -0.004339762               0.002466084               0.002094637              -0.001935668               0.001467240              -0.000468428               0.000000000               0.000000000               0.000000000               0.000000000              -0.003486048               0.003147773               0.002120129              -0.001700736               0.001616158              -0.000084578               0.000000000               0.000000000               0.000000000               0.000000000              -0.002804665               0.003648934               0.002014638              -0.001507863               0.001718919               0.000211056               0.000000000               0.000000000               0.000000000               0.000000000              -0.002205034               0.004017171               0.001877331              -0.001329032               0.001782054               0.000453022               0.000000000               0.000000000               0.000000000               0.000000000              -0.001640545               0.004297379               0.001730038              -0.001152375               0.001816570               0.000664195               0.000000000               0.000000000               0.000000000               0.000000000              -0.001092170               0.004508582               0.001573961              -0.000973135               0.001827224               0.000854089               0.000000000               0.000000000               0.000000000               0.000000000              -0.000551962               0.004666550               0.001426248              -0.000790303               0.001818935               0.001028632               0.000000000               0.000000000               0.000000000               0.000000000              -0.000018917               0.004777990               0.001285994              -0.000604342               0.001794094               0.001189753               0.000000000               0.000000000               0.000000000               0.000000000               0.000504343               0.004848289               0.001142286              -0.000416907               0.001755049               0.001338142               0.000000000               0.000000000               0.000000000               0.000000000               0.001015386               0.004889845               0.000990418              -0.000230461               0.001706752               0.001476291               0.000000000               0.000000000               0.000000000               0.000000000               0.001509731               0.004917744               0.000817902              -0.000048569               0.001655421               0.001606852               0.000000000               0.000000000               0.000000000               0.000000000               0.001969693               0.004944628               0.000604056               0.000120555               0.001608008               0.001728563               0.000000000               0.000000000               0.000000000               0.000000000               0.002374346               0.004975318               0.000330187               0.000268462               0.001568935               0.001837398               0.000000000               0.000000000               0.000000000               0.000000000               0.002607558               0.005009868               0.000186867               0.000351597               0.001552740               0.001904337               0.000000000               0.000000000               0.000000000               0.000000000              -0.012162908              -0.001111797              -0.001207406              -0.004422113               0.001103431              -0.003318682               0.000000000               0.000000000               0.000000000               0.000000000              -0.008525945              -0.000217911               0.000056393              -0.003169988               0.000984019              -0.002185969               0.000000000               0.000000000               0.000000000               0.000000000              -0.005757885               0.000428406               0.001232024              -0.002212755               0.000880381              -0.001332375               0.000000000               0.000000000               0.000000000               0.000000000              -0.004219258               0.001248620               0.001606336              -0.001738297               0.000995631              -0.000742666               0.000000000               0.000000000               0.000000000               0.000000000              -0.003221627               0.001977136               0.001668876              -0.001455250               0.001144120              -0.000311130               0.000000000               0.000000000               0.000000000               0.000000000              -0.002479723               0.002582909               0.001616962              -0.001252757               0.001278546               0.000025789               0.000000000               0.000000000               0.000000000               0.000000000              -0.001864174               0.003080717               0.001529676              -0.001084153               0.001388279               0.000304126               0.000000000               0.000000000               0.000000000               0.000000000              -0.001315347               0.003492338               0.001425465              -0.000929796               0.001474032               0.000544237               0.000000000               0.000000000               0.000000000               0.000000000              -0.000785842               0.003838023               0.001311759              -0.000774442               0.001537475               0.000763033               0.000000000               0.000000000               0.000000000               0.000000000              -0.000253318               0.004128786               0.001201331              -0.000611091               0.001579945               0.000968853               0.000000000               0.000000000               0.000000000               0.000000000               0.000281715               0.004361730               0.001093659              -0.000439573               0.001600420               0.001160847               0.000000000               0.000000000               0.000000000               0.000000000               0.000825627               0.004540144               0.000984803              -0.000257908               0.001599335               0.001341427               0.000000000               0.000000000               0.000000000               0.000000000               0.001386356               0.004678154               0.000870946              -0.000064886               0.001580998               0.001516111               0.000000000               0.000000000               0.000000000               0.000000000               0.001964984               0.004788402               0.000735980               0.000138317               0.001550012               0.001688329               0.000000000               0.000000000               0.000000000               0.000000000               0.002561635               0.004877901               0.000558263               0.000350872               0.001508993               0.001859865               0.000000000               0.000000000               0.000000000               0.000000000               0.003171730               0.004947816               0.000314681               0.000570916               0.001458950               0.002029866               0.000000000               0.000000000               0.000000000               0.000000000               0.003589281               0.005017762               0.000188536               0.000718753               0.001432986               0.002151739               0.000000000               0.000000000               0.000000000               0.000000000              -0.013274553              -0.001222944              -0.000693967              -0.004825086               0.001200706              -0.003624380               0.000000000               0.000000000               0.000000000               0.000000000              -0.009149339              -0.000629236              -0.000003104              -0.003352345               0.000907697              -0.002444648               0.000000000               0.000000000               0.000000000               0.000000000              -0.005900665              -0.000306286               0.000649239              -0.002174462               0.000622721              -0.001551741               0.000000000               0.000000000               0.000000000               0.000000000              -0.004128451               0.000417757               0.000871620              -0.001600387               0.000672710              -0.000927677               0.000000000               0.000000000               0.000000000               0.000000000              -0.003012520               0.001154882               0.000921079              -0.001274053               0.000809639              -0.000464414               0.000000000               0.000000000               0.000000000               0.000000000              -0.002217810               0.001813402               0.000904489              -0.001058352               0.000957245              -0.000101107               0.000000000               0.000000000               0.000000000               0.000000000              -0.001589981               0.002387847               0.000863464              -0.000894722               0.001094181               0.000199459               0.000000000               0.000000000               0.000000000               0.000000000              -0.001046906               0.002886036               0.000810700              -0.000753343               0.001213116               0.000459774               0.000000000               0.000000000               0.000000000               0.000000000              -0.000532378               0.003318553               0.000753136              -0.000614460               0.001310993               0.000696533               0.000000000               0.000000000               0.000000000               0.000000000              -0.000016119               0.003694212               0.000694413              -0.000467820               0.001387332               0.000919511               0.000000000               0.000000000               0.000000000               0.000000000               0.000515520               0.004011514               0.000635014              -0.000308119               0.001439864               0.001131745               0.000000000               0.000000000               0.000000000               0.000000000               0.001072925               0.004271746               0.000576335              -0.000131621               0.001467775               0.001336153               0.000000000               0.000000000               0.000000000               0.000000000               0.001667099               0.004487929               0.000514651               0.000064170               0.001474571               0.001538741               0.000000000               0.000000000               0.000000000               0.000000000               0.002309158               0.004671178               0.000440147               0.000282034               0.001463032               0.001745067               0.000000000               0.000000000               0.000000000               0.000000000               0.003015208               0.004820341               0.000340467               0.000528155               0.001430712               0.001958868               0.000000000               0.000000000               0.000000000               0.000000000               0.003801759               0.004925610               0.000195824               0.000809950               0.001371870               0.002181820               0.000000000               0.000000000               0.000000000               0.000000000               0.004387821               0.005025552               0.000121371               0.001017229               0.001336091               0.002353320               0.000000000               0.000000000               0.000000000               0.000000000               0.000000000               0.000000000               0.000000000               0.000000000               0.000000000               0.000000000               0.000000000               0.000000000               0.000000000               0.000000000               0.000000000               0.000000000               0.000000000               0.000000000               0.000000000               0.000000000               0.000000000               0.000000000               0.000000000               0.000000000               0.000000000               0.000000000               0.000000000               0.000000000               0.000000000               0.000000000               0.000000000               0.000000000               0.000000000               0.000000000               0.000000000               0.000000000               0.000000000               0.000000000               0.000000000               0.000000000               0.000000000               0.000000000               0.000000000               0.000000000               0.000000000               0.000000000               0.000000000               0.000000000               0.000000000               0.000000000               0.000000000               0.000000000               0.000000000               0.000000000               0.000000000               0.000000000               0.000000000               0.000000000               0.000000000               0.000000000               0.000000000               0.000000000               0.000000000               0.000000000               0.000000000               0.000000000               0.000000000               0.000000000               0.000000000               0.000000000               0.000000000               0.000000000               0.000000000               0.000000000               0.000000000               0.000000000               0.000000000               0.000000000               0.000000000               0.000000000               0.000000000               0.000000000               0.000000000               0.000000000               0.000000000               0.000000000               0.000000000               0.000000000               0.000000000               0.000000000               0.000000000               0.000000000               0.000000000               0.000000000               0.000000000               0.000000000               0.000000000               0.000000000               0.000000000               0.000000000               0.000000000               0.000000000               0.000000000               0.000000000               0.000000000               0.000000000               0.000000000               0.000000000               0.000000000               0.000000000               0.000000000               0.000000000               0.000000000               0.000000000               0.000000000               0.000000000               0.000000000               0.000000000               0.000000000               0.000000000               0.000000000               0.000000000               0.000000000               0.000000000               0.000000000               0.000000000               0.000000000               0.000000000               0.000000000               0.000000000               0.000000000               0.000000000               0.000000000               0.000000000               0.000000000               0.000000000               0.000000000               0.000000000               0.000000000               0.000000000               0.000000000               0.000000000               0.000000000               0.000000000               0.000000000               0.000000000               0.000000000               0.000000000               0.000000000               0.000000000               0.000000000               0.000000000               0.000000000               0.000000000               0.000000000               0.000000000               0.000000000               0.000000000               0.000000000               0.000000000               0.000000000               0.000000000               0.000000000               0.000000000               0.000000000               0.000000000               0.000000000               0.000000000               0.000000000               0.000000000               0.000000000               0.000000000               0.000000000               0.000000000 </DataArray>
</PointData>
</Piece>
</UnstructuredGrid> </VTKFile>
