<?xml version="1.0"?>
<VTKFile type="UnstructuredGrid" version="0.1">
<UnstructuredGrid>
<Piece NumberOfPoints="      1156" NumberOfCells="      1024">
<Points>
<DataArray type="Float64"                                    Name="coordinates"                                                      NumberOfComponents=" 3" format="ascii">
              0.133000000               0.000000000               0.000000000               0.155937500               0.000000000               0.000000000               0.178875000               0.000000000               0.000000000               0.201812500               0.000000000               0.000000000               0.224750000               0.000000000               0.000000000               0.247687500               0.000000000               0.000000000               0.270625000               0.000000000               0.000000000               0.293562500               0.000000000               0.000000000               0.316500000               0.000000000               0.000000000               0.339437500               0.000000000               0.000000000               0.362375000               0.000000000               0.000000000               0.385312500               0.000000000               0.000000000               0.408250000               0.000000000               0.000000000               0.431187500               0.000000000               0.000000000               0.454125000               0.000000000               0.000000000               0.477062500               0.000000000               0.000000000               0.500000000               0.000000000               0.000000000               0.132359569               0.013036280               0.000000000               0.155337096               0.016127762               0.000000000               0.178314623               0.019219245               0.000000000               0.201292150               0.022310727               0.000000000               0.224269676               0.025402210               0.000000000               0.247247203               0.028493692               0.000000000               0.270224730               0.031585175               0.000000000               0.293202257               0.034676657               0.000000000               0.316179784               0.037768140               0.000000000               0.339157311               0.040859622               0.000000000               0.362134838               0.043951105               0.000000000               0.385112365               0.047042587               0.000000000               0.408089892               0.050134070               0.000000000               0.431067419               0.053225552               0.000000000               0.454044946               0.056317035               0.000000000               0.477022473               0.059408517               0.000000000               0.500000000               0.062500000               0.000000000               0.130444442               0.025947013               0.000000000               0.153541665               0.032137825               0.000000000               0.176638887               0.038328636               0.000000000               0.199736109               0.044519448               0.000000000               0.222833332               0.050710260               0.000000000               0.245930554               0.056901071               0.000000000               0.269027776               0.063091883               0.000000000               0.292124999               0.069282695               0.000000000               0.315222221               0.075473506               0.000000000               0.338319444               0.081664318               0.000000000               0.361416666               0.087855130               0.000000000               0.384513888               0.094045942               0.000000000               0.407611111               0.100236753               0.000000000               0.430708333               0.106427565               0.000000000               0.453805555               0.112618377               0.000000000               0.476902778               0.118809188               0.000000000               0.500000000               0.125000000               0.000000000               0.127273065               0.038607862               0.000000000               0.150568498               0.047913621               0.000000000               0.173863932               0.057219379               0.000000000               0.197159365               0.066525138               0.000000000               0.220454798               0.075830897               0.000000000               0.243750232               0.085136655               0.000000000               0.267045665               0.094442414               0.000000000               0.290341099               0.103748172               0.000000000               0.313636532               0.113053931               0.000000000               0.336931966               0.122359690               0.000000000               0.360227399               0.131665448               0.000000000               0.383522833               0.140971207               0.000000000               0.406818266               0.150276966               0.000000000               0.430113700               0.159582724               0.000000000               0.453409133               0.168888483               0.000000000               0.476704567               0.178194241               0.000000000               0.500000000               0.187500000               0.000000000               0.122875978               0.050896897               0.000000000               0.146446229               0.063340840               0.000000000               0.170016481               0.075784784               0.000000000               0.193586732               0.088228728               0.000000000               0.217156983               0.100672672               0.000000000               0.240727235               0.113116616               0.000000000               0.264297486               0.125560560               0.000000000               0.287867738               0.138004504               0.000000000               0.311437989               0.150448448               0.000000000               0.335008240               0.162892392               0.000000000               0.358578492               0.175336336               0.000000000               0.382148743               0.187780280               0.000000000               0.405718994               0.200224224               0.000000000               0.429289246               0.212668168               0.000000000               0.452859497               0.225112112               0.000000000               0.476429749               0.237556056               0.000000000               0.500000000               0.250000000               0.000000000               0.117295528               0.062695766               0.000000000               0.141214558               0.078308531               0.000000000               0.165133587               0.093921295               0.000000000               0.189052617               0.109534060               0.000000000               0.212971646               0.125146824               0.000000000               0.236890676               0.140759589               0.000000000               0.260809705               0.156372354               0.000000000               0.284728735               0.171985118               0.000000000               0.308647764               0.187597883               0.000000000               0.332566794               0.203210648               0.000000000               0.356485823               0.218823412               0.000000000               0.380404853               0.234436177               0.000000000               0.404323882               0.250048941               0.000000000               0.428242912               0.265661706               0.000000000               0.452161941               0.281274471               0.000000000               0.476080971               0.296887235               0.000000000               0.500000000               0.312500000               0.000000000               0.110585458               0.073890841               0.000000000               0.134923867               0.092710163               0.000000000               0.159262276               0.111529486               0.000000000               0.183600685               0.130348808               0.000000000               0.207939094               0.149168131               0.000000000               0.232277503               0.167987453               0.000000000               0.256615912               0.186806776               0.000000000               0.280954320               0.205626098               0.000000000               0.305292729               0.224445420               0.000000000               0.329631138               0.243264743               0.000000000               0.353969547               0.262084065               0.000000000               0.378307956               0.280903388               0.000000000               0.402646365               0.299722710               0.000000000               0.426984773               0.318542033               0.000000000               0.451323182               0.337361355               0.000000000               0.475661591               0.356180678               0.000000000               0.500000000               0.375000000               0.000000000               0.102810390               0.084374307               0.000000000               0.127634741               0.106444663               0.000000000               0.152459092               0.128515018               0.000000000               0.177283442               0.150585374               0.000000000               0.202107793               0.172655730               0.000000000               0.226932143               0.194726086               0.000000000               0.251756494               0.216796442               0.000000000               0.276580845               0.238866798               0.000000000               0.301405195               0.260937153               0.000000000               0.326229546               0.283007509               0.000000000               0.351053896               0.305077865               0.000000000               0.375878247               0.327148221               0.000000000               0.400702598               0.349218577               0.000000000               0.425526948               0.371288933               0.000000000               0.450351299               0.393359288               0.000000000               0.475175649               0.415429644               0.000000000               0.500000000               0.437500000               0.000000000               0.094045202               0.094045202               0.000000000               0.119417377               0.119417377               0.000000000               0.144789552               0.144789552               0.000000000               0.170161727               0.170161727               0.000000000               0.195533901               0.195533901               0.000000000               0.220906076               0.220906076               0.000000000               0.246278251               0.246278251               0.000000000               0.271650426               0.271650426               0.000000000               0.297022601               0.297022601               0.000000000               0.322394776               0.322394776               0.000000000               0.347766951               0.347766951               0.000000000               0.373139126               0.373139126               0.000000000               0.398511300               0.398511300               0.000000000               0.423883475               0.423883475               0.000000000               0.449255650               0.449255650               0.000000000               0.474627825               0.474627825               0.000000000               0.500000000               0.500000000               0.000000000               0.084374307               0.102810390               0.000000000               0.106444663               0.127634741               0.000000000               0.128515018               0.152459092               0.000000000               0.150585374               0.177283442               0.000000000               0.172655730               0.202107793               0.000000000               0.194726086               0.226932143               0.000000000               0.216796442               0.251756494               0.000000000               0.238866798               0.276580845               0.000000000               0.260937153               0.301405195               0.000000000               0.283007509               0.326229546               0.000000000               0.305077865               0.351053896               0.000000000               0.327148221               0.375878247               0.000000000               0.349218577               0.400702598               0.000000000               0.371288933               0.425526948               0.000000000               0.393359288               0.450351299               0.000000000               0.415429644               0.475175649               0.000000000               0.437500000               0.500000000               0.000000000               0.073890841               0.110585458               0.000000000               0.092710163               0.134923867               0.000000000               0.111529486               0.159262276               0.000000000               0.130348808               0.183600685               0.000000000               0.149168131               0.207939094               0.000000000               0.167987453               0.232277503               0.000000000               0.186806776               0.256615912               0.000000000               0.205626098               0.280954320               0.000000000               0.224445420               0.305292729               0.000000000               0.243264743               0.329631138               0.000000000               0.262084065               0.353969547               0.000000000               0.280903388               0.378307956               0.000000000               0.299722710               0.402646365               0.000000000               0.318542033               0.426984773               0.000000000               0.337361355               0.451323182               0.000000000               0.356180678               0.475661591               0.000000000               0.375000000               0.500000000               0.000000000               0.062695766               0.117295528               0.000000000               0.078308531               0.141214558               0.000000000               0.093921295               0.165133587               0.000000000               0.109534060               0.189052617               0.000000000               0.125146824               0.212971646               0.000000000               0.140759589               0.236890676               0.000000000               0.156372354               0.260809705               0.000000000               0.171985118               0.284728735               0.000000000               0.187597883               0.308647764               0.000000000               0.203210648               0.332566794               0.000000000               0.218823412               0.356485823               0.000000000               0.234436177               0.380404853               0.000000000               0.250048941               0.404323882               0.000000000               0.265661706               0.428242912               0.000000000               0.281274471               0.452161941               0.000000000               0.296887235               0.476080971               0.000000000               0.312500000               0.500000000               0.000000000               0.050896897               0.122875978               0.000000000               0.063340840               0.146446229               0.000000000               0.075784784               0.170016481               0.000000000               0.088228728               0.193586732               0.000000000               0.100672672               0.217156983               0.000000000               0.113116616               0.240727235               0.000000000               0.125560560               0.264297486               0.000000000               0.138004504               0.287867738               0.000000000               0.150448448               0.311437989               0.000000000               0.162892392               0.335008240               0.000000000               0.175336336               0.358578492               0.000000000               0.187780280               0.382148743               0.000000000               0.200224224               0.405718994               0.000000000               0.212668168               0.429289246               0.000000000               0.225112112               0.452859497               0.000000000               0.237556056               0.476429749               0.000000000               0.250000000               0.500000000               0.000000000               0.038607862               0.127273065               0.000000000               0.047913621               0.150568498               0.000000000               0.057219379               0.173863932               0.000000000               0.066525138               0.197159365               0.000000000               0.075830897               0.220454798               0.000000000               0.085136655               0.243750232               0.000000000               0.094442414               0.267045665               0.000000000               0.103748172               0.290341099               0.000000000               0.113053931               0.313636532               0.000000000               0.122359690               0.336931966               0.000000000               0.131665448               0.360227399               0.000000000               0.140971207               0.383522833               0.000000000               0.150276966               0.406818266               0.000000000               0.159582724               0.430113700               0.000000000               0.168888483               0.453409133               0.000000000               0.178194241               0.476704567               0.000000000               0.187500000               0.500000000               0.000000000               0.025947013               0.130444442               0.000000000               0.032137825               0.153541665               0.000000000               0.038328636               0.176638887               0.000000000               0.044519448               0.199736109               0.000000000               0.050710260               0.222833332               0.000000000               0.056901071               0.245930554               0.000000000               0.063091883               0.269027776               0.000000000               0.069282695               0.292124999               0.000000000               0.075473506               0.315222221               0.000000000               0.081664318               0.338319444               0.000000000               0.087855130               0.361416666               0.000000000               0.094045942               0.384513888               0.000000000               0.100236753               0.407611111               0.000000000               0.106427565               0.430708333               0.000000000               0.112618377               0.453805555               0.000000000               0.118809188               0.476902778               0.000000000               0.125000000               0.500000000               0.000000000               0.013036280               0.132359569               0.000000000               0.016127762               0.155337096               0.000000000               0.019219245               0.178314623               0.000000000               0.022310727               0.201292150               0.000000000               0.025402210               0.224269676               0.000000000               0.028493692               0.247247203               0.000000000               0.031585175               0.270224730               0.000000000               0.034676657               0.293202257               0.000000000               0.037768140               0.316179784               0.000000000               0.040859622               0.339157311               0.000000000               0.043951105               0.362134838               0.000000000               0.047042587               0.385112365               0.000000000               0.050134070               0.408089892               0.000000000               0.053225552               0.431067419               0.000000000               0.056317035               0.454044946               0.000000000               0.059408517               0.477022473               0.000000000               0.062500000               0.500000000               0.000000000               0.000000000               0.133000000               0.000000000               0.000000000               0.155937500               0.000000000               0.000000000               0.178875000               0.000000000               0.000000000               0.201812500               0.000000000               0.000000000               0.224750000               0.000000000               0.000000000               0.247687500               0.000000000               0.000000000               0.270625000               0.000000000               0.000000000               0.293562500               0.000000000               0.000000000               0.316500000               0.000000000               0.000000000               0.339437500               0.000000000               0.000000000               0.362375000               0.000000000               0.000000000               0.385312500               0.000000000               0.000000000               0.408250000               0.000000000               0.000000000               0.431187500               0.000000000               0.000000000               0.454125000               0.000000000               0.000000000               0.477062500               0.000000000               0.000000000               0.500000000               0.000000000               0.133000000               0.000000000               0.000000000               0.155937500               0.000000000               0.000000000               0.178875000               0.000000000               0.000000000               0.201812500               0.000000000               0.000000000               0.224750000               0.000000000               0.000000000               0.247687500               0.000000000               0.000000000               0.270625000               0.000000000               0.000000000               0.293562500               0.000000000               0.000000000               0.316500000               0.000000000               0.000000000               0.339437500               0.000000000               0.000000000               0.362375000               0.000000000               0.000000000               0.385312500               0.000000000               0.000000000               0.408250000               0.000000000               0.000000000               0.431187500               0.000000000               0.000000000               0.454125000               0.000000000               0.000000000               0.477062500               0.000000000               0.000000000               0.500000000               0.000000000               0.000000000               0.132359569              -0.013036280               0.000000000               0.155337096              -0.016127762               0.000000000               0.178314623              -0.019219245               0.000000000               0.201292150              -0.022310727               0.000000000               0.224269676              -0.025402210               0.000000000               0.247247203              -0.028493692               0.000000000               0.270224730              -0.031585175               0.000000000               0.293202257              -0.034676657               0.000000000               0.316179784              -0.037768140               0.000000000               0.339157311              -0.040859622               0.000000000               0.362134838              -0.043951105               0.000000000               0.385112365              -0.047042587               0.000000000               0.408089892              -0.050134070               0.000000000               0.431067419              -0.053225552               0.000000000               0.454044946              -0.056317035               0.000000000               0.477022473              -0.059408517               0.000000000               0.500000000              -0.062500000               0.000000000               0.130444442              -0.025947013               0.000000000               0.153541665              -0.032137825               0.000000000               0.176638887              -0.038328636               0.000000000               0.199736109              -0.044519448               0.000000000               0.222833332              -0.050710260               0.000000000               0.245930554              -0.056901071               0.000000000               0.269027776              -0.063091883               0.000000000               0.292124999              -0.069282695               0.000000000               0.315222221              -0.075473506               0.000000000               0.338319444              -0.081664318               0.000000000               0.361416666              -0.087855130               0.000000000               0.384513888              -0.094045942               0.000000000               0.407611111              -0.100236753               0.000000000               0.430708333              -0.106427565               0.000000000               0.453805555              -0.112618377               0.000000000               0.476902778              -0.118809188               0.000000000               0.500000000              -0.125000000               0.000000000               0.127273065              -0.038607862               0.000000000               0.150568498              -0.047913621               0.000000000               0.173863932              -0.057219379               0.000000000               0.197159365              -0.066525138               0.000000000               0.220454798              -0.075830897               0.000000000               0.243750232              -0.085136655               0.000000000               0.267045665              -0.094442414               0.000000000               0.290341099              -0.103748172               0.000000000               0.313636532              -0.113053931               0.000000000               0.336931966              -0.122359690               0.000000000               0.360227399              -0.131665448               0.000000000               0.383522833              -0.140971207               0.000000000               0.406818266              -0.150276966               0.000000000               0.430113700              -0.159582724               0.000000000               0.453409133              -0.168888483               0.000000000               0.476704567              -0.178194241               0.000000000               0.500000000              -0.187500000               0.000000000               0.122875978              -0.050896897               0.000000000               0.146446229              -0.063340840               0.000000000               0.170016481              -0.075784784               0.000000000               0.193586732              -0.088228728               0.000000000               0.217156983              -0.100672672               0.000000000               0.240727235              -0.113116616               0.000000000               0.264297486              -0.125560560               0.000000000               0.287867738              -0.138004504               0.000000000               0.311437989              -0.150448448               0.000000000               0.335008240              -0.162892392               0.000000000               0.358578492              -0.175336336               0.000000000               0.382148743              -0.187780280               0.000000000               0.405718994              -0.200224224               0.000000000               0.429289246              -0.212668168               0.000000000               0.452859497              -0.225112112               0.000000000               0.476429749              -0.237556056               0.000000000               0.500000000              -0.250000000               0.000000000               0.117295528              -0.062695766               0.000000000               0.141214558              -0.078308531               0.000000000               0.165133587              -0.093921295               0.000000000               0.189052617              -0.109534060               0.000000000               0.212971646              -0.125146824               0.000000000               0.236890676              -0.140759589               0.000000000               0.260809705              -0.156372354               0.000000000               0.284728735              -0.171985118               0.000000000               0.308647764              -0.187597883               0.000000000               0.332566794              -0.203210648               0.000000000               0.356485823              -0.218823412               0.000000000               0.380404853              -0.234436177               0.000000000               0.404323882              -0.250048941               0.000000000               0.428242912              -0.265661706               0.000000000               0.452161941              -0.281274471               0.000000000               0.476080971              -0.296887235               0.000000000               0.500000000              -0.312500000               0.000000000               0.110585458              -0.073890841               0.000000000               0.134923867              -0.092710163               0.000000000               0.159262276              -0.111529486               0.000000000               0.183600685              -0.130348808               0.000000000               0.207939094              -0.149168131               0.000000000               0.232277503              -0.167987453               0.000000000               0.256615912              -0.186806776               0.000000000               0.280954320              -0.205626098               0.000000000               0.305292729              -0.224445420               0.000000000               0.329631138              -0.243264743               0.000000000               0.353969547              -0.262084065               0.000000000               0.378307956              -0.280903388               0.000000000               0.402646365              -0.299722710               0.000000000               0.426984773              -0.318542033               0.000000000               0.451323182              -0.337361355               0.000000000               0.475661591              -0.356180678               0.000000000               0.500000000              -0.375000000               0.000000000               0.102810390              -0.084374307               0.000000000               0.127634741              -0.106444663               0.000000000               0.152459092              -0.128515018               0.000000000               0.177283442              -0.150585374               0.000000000               0.202107793              -0.172655730               0.000000000               0.226932143              -0.194726086               0.000000000               0.251756494              -0.216796442               0.000000000               0.276580845              -0.238866798               0.000000000               0.301405195              -0.260937153               0.000000000               0.326229546              -0.283007509               0.000000000               0.351053896              -0.305077865               0.000000000               0.375878247              -0.327148221               0.000000000               0.400702598              -0.349218577               0.000000000               0.425526948              -0.371288933               0.000000000               0.450351299              -0.393359288               0.000000000               0.475175649              -0.415429644               0.000000000               0.500000000              -0.437500000               0.000000000               0.094045202              -0.094045202               0.000000000               0.119417377              -0.119417377               0.000000000               0.144789552              -0.144789552               0.000000000               0.170161727              -0.170161727               0.000000000               0.195533901              -0.195533901               0.000000000               0.220906076              -0.220906076               0.000000000               0.246278251              -0.246278251               0.000000000               0.271650426              -0.271650426               0.000000000               0.297022601              -0.297022601               0.000000000               0.322394776              -0.322394776               0.000000000               0.347766951              -0.347766951               0.000000000               0.373139126              -0.373139126               0.000000000               0.398511300              -0.398511300               0.000000000               0.423883475              -0.423883475               0.000000000               0.449255650              -0.449255650               0.000000000               0.474627825              -0.474627825               0.000000000               0.500000000              -0.500000000               0.000000000               0.084374307              -0.102810390               0.000000000               0.106444663              -0.127634741               0.000000000               0.128515018              -0.152459092               0.000000000               0.150585374              -0.177283442               0.000000000               0.172655730              -0.202107793               0.000000000               0.194726086              -0.226932143               0.000000000               0.216796442              -0.251756494               0.000000000               0.238866798              -0.276580845               0.000000000               0.260937153              -0.301405195               0.000000000               0.283007509              -0.326229546               0.000000000               0.305077865              -0.351053896               0.000000000               0.327148221              -0.375878247               0.000000000               0.349218577              -0.400702598               0.000000000               0.371288933              -0.425526948               0.000000000               0.393359288              -0.450351299               0.000000000               0.415429644              -0.475175649               0.000000000               0.437500000              -0.500000000               0.000000000               0.073890841              -0.110585458               0.000000000               0.092710163              -0.134923867               0.000000000               0.111529486              -0.159262276               0.000000000               0.130348808              -0.183600685               0.000000000               0.149168131              -0.207939094               0.000000000               0.167987453              -0.232277503               0.000000000               0.186806776              -0.256615912               0.000000000               0.205626098              -0.280954320               0.000000000               0.224445420              -0.305292729               0.000000000               0.243264743              -0.329631138               0.000000000               0.262084065              -0.353969547               0.000000000               0.280903388              -0.378307956               0.000000000               0.299722710              -0.402646365               0.000000000               0.318542033              -0.426984773               0.000000000               0.337361355              -0.451323182               0.000000000               0.356180678              -0.475661591               0.000000000               0.375000000              -0.500000000               0.000000000               0.062695766              -0.117295528               0.000000000               0.078308531              -0.141214558               0.000000000               0.093921295              -0.165133587               0.000000000               0.109534060              -0.189052617               0.000000000               0.125146824              -0.212971646               0.000000000               0.140759589              -0.236890676               0.000000000               0.156372354              -0.260809705               0.000000000               0.171985118              -0.284728735               0.000000000               0.187597883              -0.308647764               0.000000000               0.203210648              -0.332566794               0.000000000               0.218823412              -0.356485823               0.000000000               0.234436177              -0.380404853               0.000000000               0.250048941              -0.404323882               0.000000000               0.265661706              -0.428242912               0.000000000               0.281274471              -0.452161941               0.000000000               0.296887235              -0.476080971               0.000000000               0.312500000              -0.500000000               0.000000000               0.050896897              -0.122875978               0.000000000               0.063340840              -0.146446229               0.000000000               0.075784784              -0.170016481               0.000000000               0.088228728              -0.193586732               0.000000000               0.100672672              -0.217156983               0.000000000               0.113116616              -0.240727235               0.000000000               0.125560560              -0.264297486               0.000000000               0.138004504              -0.287867738               0.000000000               0.150448448              -0.311437989               0.000000000               0.162892392              -0.335008240               0.000000000               0.175336336              -0.358578492               0.000000000               0.187780280              -0.382148743               0.000000000               0.200224224              -0.405718994               0.000000000               0.212668168              -0.429289246               0.000000000               0.225112112              -0.452859497               0.000000000               0.237556056              -0.476429749               0.000000000               0.250000000              -0.500000000               0.000000000               0.038607862              -0.127273065               0.000000000               0.047913621              -0.150568498               0.000000000               0.057219379              -0.173863932               0.000000000               0.066525138              -0.197159365               0.000000000               0.075830897              -0.220454798               0.000000000               0.085136655              -0.243750232               0.000000000               0.094442414              -0.267045665               0.000000000               0.103748172              -0.290341099               0.000000000               0.113053931              -0.313636532               0.000000000               0.122359690              -0.336931966               0.000000000               0.131665448              -0.360227399               0.000000000               0.140971207              -0.383522833               0.000000000               0.150276966              -0.406818266               0.000000000               0.159582724              -0.430113700               0.000000000               0.168888483              -0.453409133               0.000000000               0.178194241              -0.476704567               0.000000000               0.187500000              -0.500000000               0.000000000               0.025947013              -0.130444442               0.000000000               0.032137825              -0.153541665               0.000000000               0.038328636              -0.176638887               0.000000000               0.044519448              -0.199736109               0.000000000               0.050710260              -0.222833332               0.000000000               0.056901071              -0.245930554               0.000000000               0.063091883              -0.269027776               0.000000000               0.069282695              -0.292124999               0.000000000               0.075473506              -0.315222221               0.000000000               0.081664318              -0.338319444               0.000000000               0.087855130              -0.361416666               0.000000000               0.094045942              -0.384513888               0.000000000               0.100236753              -0.407611111               0.000000000               0.106427565              -0.430708333               0.000000000               0.112618377              -0.453805555               0.000000000               0.118809188              -0.476902778               0.000000000               0.125000000              -0.500000000               0.000000000               0.013036280              -0.132359569               0.000000000               0.016127762              -0.155337096               0.000000000               0.019219245              -0.178314623               0.000000000               0.022310727              -0.201292150               0.000000000               0.025402210              -0.224269676               0.000000000               0.028493692              -0.247247203               0.000000000               0.031585175              -0.270224730               0.000000000               0.034676657              -0.293202257               0.000000000               0.037768140              -0.316179784               0.000000000               0.040859622              -0.339157311               0.000000000               0.043951105              -0.362134838               0.000000000               0.047042587              -0.385112365               0.000000000               0.050134070              -0.408089892               0.000000000               0.053225552              -0.431067419               0.000000000               0.056317035              -0.454044946               0.000000000               0.059408517              -0.477022473               0.000000000               0.062500000              -0.500000000               0.000000000               0.000000000              -0.133000000               0.000000000               0.000000000              -0.155937500               0.000000000               0.000000000              -0.178875000               0.000000000               0.000000000              -0.201812500               0.000000000               0.000000000              -0.224750000               0.000000000               0.000000000              -0.247687500               0.000000000               0.000000000              -0.270625000               0.000000000               0.000000000              -0.293562500               0.000000000               0.000000000              -0.316500000               0.000000000               0.000000000              -0.339437500               0.000000000               0.000000000              -0.362375000               0.000000000               0.000000000              -0.385312500               0.000000000               0.000000000              -0.408250000               0.000000000               0.000000000              -0.431187500               0.000000000               0.000000000              -0.454125000               0.000000000               0.000000000              -0.477062500               0.000000000               0.000000000              -0.500000000               0.000000000              -0.133000000               0.000000000               0.000000000              -0.155937500               0.000000000               0.000000000              -0.178875000               0.000000000               0.000000000              -0.201812500               0.000000000               0.000000000              -0.224750000               0.000000000               0.000000000              -0.247687500               0.000000000               0.000000000              -0.270625000               0.000000000               0.000000000              -0.293562500               0.000000000               0.000000000              -0.316500000               0.000000000               0.000000000              -0.339437500               0.000000000               0.000000000              -0.362375000               0.000000000               0.000000000              -0.385312500               0.000000000               0.000000000              -0.408250000               0.000000000               0.000000000              -0.431187500               0.000000000               0.000000000              -0.454125000               0.000000000               0.000000000              -0.477062500               0.000000000               0.000000000              -0.500000000               0.000000000               0.000000000              -0.132359569              -0.013036280               0.000000000              -0.155337096              -0.016127762               0.000000000              -0.178314623              -0.019219245               0.000000000              -0.201292150              -0.022310727               0.000000000              -0.224269676              -0.025402210               0.000000000              -0.247247203              -0.028493692               0.000000000              -0.270224730              -0.031585175               0.000000000              -0.293202257              -0.034676657               0.000000000              -0.316179784              -0.037768140               0.000000000              -0.339157311              -0.040859622               0.000000000              -0.362134838              -0.043951105               0.000000000              -0.385112365              -0.047042587               0.000000000              -0.408089892              -0.050134070               0.000000000              -0.431067419              -0.053225552               0.000000000              -0.454044946              -0.056317035               0.000000000              -0.477022473              -0.059408517               0.000000000              -0.500000000              -0.062500000               0.000000000              -0.130444442              -0.025947013               0.000000000              -0.153541665              -0.032137825               0.000000000              -0.176638887              -0.038328636               0.000000000              -0.199736109              -0.044519448               0.000000000              -0.222833332              -0.050710260               0.000000000              -0.245930554              -0.056901071               0.000000000              -0.269027776              -0.063091883               0.000000000              -0.292124999              -0.069282695               0.000000000              -0.315222221              -0.075473506               0.000000000              -0.338319444              -0.081664318               0.000000000              -0.361416666              -0.087855130               0.000000000              -0.384513888              -0.094045942               0.000000000              -0.407611111              -0.100236753               0.000000000              -0.430708333              -0.106427565               0.000000000              -0.453805555              -0.112618377               0.000000000              -0.476902778              -0.118809188               0.000000000              -0.500000000              -0.125000000               0.000000000              -0.127273065              -0.038607862               0.000000000              -0.150568498              -0.047913621               0.000000000              -0.173863932              -0.057219379               0.000000000              -0.197159365              -0.066525138               0.000000000              -0.220454798              -0.075830897               0.000000000              -0.243750232              -0.085136655               0.000000000              -0.267045665              -0.094442414               0.000000000              -0.290341099              -0.103748172               0.000000000              -0.313636532              -0.113053931               0.000000000              -0.336931966              -0.122359690               0.000000000              -0.360227399              -0.131665448               0.000000000              -0.383522833              -0.140971207               0.000000000              -0.406818266              -0.150276966               0.000000000              -0.430113700              -0.159582724               0.000000000              -0.453409133              -0.168888483               0.000000000              -0.476704567              -0.178194241               0.000000000              -0.500000000              -0.187500000               0.000000000              -0.122875978              -0.050896897               0.000000000              -0.146446229              -0.063340840               0.000000000              -0.170016481              -0.075784784               0.000000000              -0.193586732              -0.088228728               0.000000000              -0.217156983              -0.100672672               0.000000000              -0.240727235              -0.113116616               0.000000000              -0.264297486              -0.125560560               0.000000000              -0.287867738              -0.138004504               0.000000000              -0.311437989              -0.150448448               0.000000000              -0.335008240              -0.162892392               0.000000000              -0.358578492              -0.175336336               0.000000000              -0.382148743              -0.187780280               0.000000000              -0.405718994              -0.200224224               0.000000000              -0.429289246              -0.212668168               0.000000000              -0.452859497              -0.225112112               0.000000000              -0.476429749              -0.237556056               0.000000000              -0.500000000              -0.250000000               0.000000000              -0.117295528              -0.062695766               0.000000000              -0.141214558              -0.078308531               0.000000000              -0.165133587              -0.093921295               0.000000000              -0.189052617              -0.109534060               0.000000000              -0.212971646              -0.125146824               0.000000000              -0.236890676              -0.140759589               0.000000000              -0.260809705              -0.156372354               0.000000000              -0.284728735              -0.171985118               0.000000000              -0.308647764              -0.187597883               0.000000000              -0.332566794              -0.203210648               0.000000000              -0.356485823              -0.218823412               0.000000000              -0.380404853              -0.234436177               0.000000000              -0.404323882              -0.250048941               0.000000000              -0.428242912              -0.265661706               0.000000000              -0.452161941              -0.281274471               0.000000000              -0.476080971              -0.296887235               0.000000000              -0.500000000              -0.312500000               0.000000000              -0.110585458              -0.073890841               0.000000000              -0.134923867              -0.092710163               0.000000000              -0.159262276              -0.111529486               0.000000000              -0.183600685              -0.130348808               0.000000000              -0.207939094              -0.149168131               0.000000000              -0.232277503              -0.167987453               0.000000000              -0.256615912              -0.186806776               0.000000000              -0.280954320              -0.205626098               0.000000000              -0.305292729              -0.224445420               0.000000000              -0.329631138              -0.243264743               0.000000000              -0.353969547              -0.262084065               0.000000000              -0.378307956              -0.280903388               0.000000000              -0.402646365              -0.299722710               0.000000000              -0.426984773              -0.318542033               0.000000000              -0.451323182              -0.337361355               0.000000000              -0.475661591              -0.356180678               0.000000000              -0.500000000              -0.375000000               0.000000000              -0.102810390              -0.084374307               0.000000000              -0.127634741              -0.106444663               0.000000000              -0.152459092              -0.128515018               0.000000000              -0.177283442              -0.150585374               0.000000000              -0.202107793              -0.172655730               0.000000000              -0.226932143              -0.194726086               0.000000000              -0.251756494              -0.216796442               0.000000000              -0.276580845              -0.238866798               0.000000000              -0.301405195              -0.260937153               0.000000000              -0.326229546              -0.283007509               0.000000000              -0.351053896              -0.305077865               0.000000000              -0.375878247              -0.327148221               0.000000000              -0.400702598              -0.349218577               0.000000000              -0.425526948              -0.371288933               0.000000000              -0.450351299              -0.393359288               0.000000000              -0.475175649              -0.415429644               0.000000000              -0.500000000              -0.437500000               0.000000000              -0.094045202              -0.094045202               0.000000000              -0.119417377              -0.119417377               0.000000000              -0.144789552              -0.144789552               0.000000000              -0.170161727              -0.170161727               0.000000000              -0.195533901              -0.195533901               0.000000000              -0.220906076              -0.220906076               0.000000000              -0.246278251              -0.246278251               0.000000000              -0.271650426              -0.271650426               0.000000000              -0.297022601              -0.297022601               0.000000000              -0.322394776              -0.322394776               0.000000000              -0.347766951              -0.347766951               0.000000000              -0.373139126              -0.373139126               0.000000000              -0.398511300              -0.398511300               0.000000000              -0.423883475              -0.423883475               0.000000000              -0.449255650              -0.449255650               0.000000000              -0.474627825              -0.474627825               0.000000000              -0.500000000              -0.500000000               0.000000000              -0.084374307              -0.102810390               0.000000000              -0.106444663              -0.127634741               0.000000000              -0.128515018              -0.152459092               0.000000000              -0.150585374              -0.177283442               0.000000000              -0.172655730              -0.202107793               0.000000000              -0.194726086              -0.226932143               0.000000000              -0.216796442              -0.251756494               0.000000000              -0.238866798              -0.276580845               0.000000000              -0.260937153              -0.301405195               0.000000000              -0.283007509              -0.326229546               0.000000000              -0.305077865              -0.351053896               0.000000000              -0.327148221              -0.375878247               0.000000000              -0.349218577              -0.400702598               0.000000000              -0.371288933              -0.425526948               0.000000000              -0.393359288              -0.450351299               0.000000000              -0.415429644              -0.475175649               0.000000000              -0.437500000              -0.500000000               0.000000000              -0.073890841              -0.110585458               0.000000000              -0.092710163              -0.134923867               0.000000000              -0.111529486              -0.159262276               0.000000000              -0.130348808              -0.183600685               0.000000000              -0.149168131              -0.207939094               0.000000000              -0.167987453              -0.232277503               0.000000000              -0.186806776              -0.256615912               0.000000000              -0.205626098              -0.280954320               0.000000000              -0.224445420              -0.305292729               0.000000000              -0.243264743              -0.329631138               0.000000000              -0.262084065              -0.353969547               0.000000000              -0.280903388              -0.378307956               0.000000000              -0.299722710              -0.402646365               0.000000000              -0.318542033              -0.426984773               0.000000000              -0.337361355              -0.451323182               0.000000000              -0.356180678              -0.475661591               0.000000000              -0.375000000              -0.500000000               0.000000000              -0.062695766              -0.117295528               0.000000000              -0.078308531              -0.141214558               0.000000000              -0.093921295              -0.165133587               0.000000000              -0.109534060              -0.189052617               0.000000000              -0.125146824              -0.212971646               0.000000000              -0.140759589              -0.236890676               0.000000000              -0.156372354              -0.260809705               0.000000000              -0.171985118              -0.284728735               0.000000000              -0.187597883              -0.308647764               0.000000000              -0.203210648              -0.332566794               0.000000000              -0.218823412              -0.356485823               0.000000000              -0.234436177              -0.380404853               0.000000000              -0.250048941              -0.404323882               0.000000000              -0.265661706              -0.428242912               0.000000000              -0.281274471              -0.452161941               0.000000000              -0.296887235              -0.476080971               0.000000000              -0.312500000              -0.500000000               0.000000000              -0.050896897              -0.122875978               0.000000000              -0.063340840              -0.146446229               0.000000000              -0.075784784              -0.170016481               0.000000000              -0.088228728              -0.193586732               0.000000000              -0.100672672              -0.217156983               0.000000000              -0.113116616              -0.240727235               0.000000000              -0.125560560              -0.264297486               0.000000000              -0.138004504              -0.287867738               0.000000000              -0.150448448              -0.311437989               0.000000000              -0.162892392              -0.335008240               0.000000000              -0.175336336              -0.358578492               0.000000000              -0.187780280              -0.382148743               0.000000000              -0.200224224              -0.405718994               0.000000000              -0.212668168              -0.429289246               0.000000000              -0.225112112              -0.452859497               0.000000000              -0.237556056              -0.476429749               0.000000000              -0.250000000              -0.500000000               0.000000000              -0.038607862              -0.127273065               0.000000000              -0.047913621              -0.150568498               0.000000000              -0.057219379              -0.173863932               0.000000000              -0.066525138              -0.197159365               0.000000000              -0.075830897              -0.220454798               0.000000000              -0.085136655              -0.243750232               0.000000000              -0.094442414              -0.267045665               0.000000000              -0.103748172              -0.290341099               0.000000000              -0.113053931              -0.313636532               0.000000000              -0.122359690              -0.336931966               0.000000000              -0.131665448              -0.360227399               0.000000000              -0.140971207              -0.383522833               0.000000000              -0.150276966              -0.406818266               0.000000000              -0.159582724              -0.430113700               0.000000000              -0.168888483              -0.453409133               0.000000000              -0.178194241              -0.476704567               0.000000000              -0.187500000              -0.500000000               0.000000000              -0.025947013              -0.130444442               0.000000000              -0.032137825              -0.153541665               0.000000000              -0.038328636              -0.176638887               0.000000000              -0.044519448              -0.199736109               0.000000000              -0.050710260              -0.222833332               0.000000000              -0.056901071              -0.245930554               0.000000000              -0.063091883              -0.269027776               0.000000000              -0.069282695              -0.292124999               0.000000000              -0.075473506              -0.315222221               0.000000000              -0.081664318              -0.338319444               0.000000000              -0.087855130              -0.361416666               0.000000000              -0.094045942              -0.384513888               0.000000000              -0.100236753              -0.407611111               0.000000000              -0.106427565              -0.430708333               0.000000000              -0.112618377              -0.453805555               0.000000000              -0.118809188              -0.476902778               0.000000000              -0.125000000              -0.500000000               0.000000000              -0.013036280              -0.132359569               0.000000000              -0.016127762              -0.155337096               0.000000000              -0.019219245              -0.178314623               0.000000000              -0.022310727              -0.201292150               0.000000000              -0.025402210              -0.224269676               0.000000000              -0.028493692              -0.247247203               0.000000000              -0.031585175              -0.270224730               0.000000000              -0.034676657              -0.293202257               0.000000000              -0.037768140              -0.316179784               0.000000000              -0.040859622              -0.339157311               0.000000000              -0.043951105              -0.362134838               0.000000000              -0.047042587              -0.385112365               0.000000000              -0.050134070              -0.408089892               0.000000000              -0.053225552              -0.431067419               0.000000000              -0.056317035              -0.454044946               0.000000000              -0.059408517              -0.477022473               0.000000000              -0.062500000              -0.500000000               0.000000000               0.000000000              -0.133000000               0.000000000               0.000000000              -0.155937500               0.000000000               0.000000000              -0.178875000               0.000000000               0.000000000              -0.201812500               0.000000000               0.000000000              -0.224750000               0.000000000               0.000000000              -0.247687500               0.000000000               0.000000000              -0.270625000               0.000000000               0.000000000              -0.293562500               0.000000000               0.000000000              -0.316500000               0.000000000               0.000000000              -0.339437500               0.000000000               0.000000000              -0.362375000               0.000000000               0.000000000              -0.385312500               0.000000000               0.000000000              -0.408250000               0.000000000               0.000000000              -0.431187500               0.000000000               0.000000000              -0.454125000               0.000000000               0.000000000              -0.477062500               0.000000000               0.000000000              -0.500000000               0.000000000              -0.133000000               0.000000000               0.000000000              -0.155937500               0.000000000               0.000000000              -0.178875000               0.000000000               0.000000000              -0.201812500               0.000000000               0.000000000              -0.224750000               0.000000000               0.000000000              -0.247687500               0.000000000               0.000000000              -0.270625000               0.000000000               0.000000000              -0.293562500               0.000000000               0.000000000              -0.316500000               0.000000000               0.000000000              -0.339437500               0.000000000               0.000000000              -0.362375000               0.000000000               0.000000000              -0.385312500               0.000000000               0.000000000              -0.408250000               0.000000000               0.000000000              -0.431187500               0.000000000               0.000000000              -0.454125000               0.000000000               0.000000000              -0.477062500               0.000000000               0.000000000              -0.500000000               0.000000000               0.000000000              -0.132359569               0.013036280               0.000000000              -0.155337096               0.016127762               0.000000000              -0.178314623               0.019219245               0.000000000              -0.201292150               0.022310727               0.000000000              -0.224269676               0.025402210               0.000000000              -0.247247203               0.028493692               0.000000000              -0.270224730               0.031585175               0.000000000              -0.293202257               0.034676657               0.000000000              -0.316179784               0.037768140               0.000000000              -0.339157311               0.040859622               0.000000000              -0.362134838               0.043951105               0.000000000              -0.385112365               0.047042587               0.000000000              -0.408089892               0.050134070               0.000000000              -0.431067419               0.053225552               0.000000000              -0.454044946               0.056317035               0.000000000              -0.477022473               0.059408517               0.000000000              -0.500000000               0.062500000               0.000000000              -0.130444442               0.025947013               0.000000000              -0.153541665               0.032137825               0.000000000              -0.176638887               0.038328636               0.000000000              -0.199736109               0.044519448               0.000000000              -0.222833332               0.050710260               0.000000000              -0.245930554               0.056901071               0.000000000              -0.269027776               0.063091883               0.000000000              -0.292124999               0.069282695               0.000000000              -0.315222221               0.075473506               0.000000000              -0.338319444               0.081664318               0.000000000              -0.361416666               0.087855130               0.000000000              -0.384513888               0.094045942               0.000000000              -0.407611111               0.100236753               0.000000000              -0.430708333               0.106427565               0.000000000              -0.453805555               0.112618377               0.000000000              -0.476902778               0.118809188               0.000000000              -0.500000000               0.125000000               0.000000000              -0.127273065               0.038607862               0.000000000              -0.150568498               0.047913621               0.000000000              -0.173863932               0.057219379               0.000000000              -0.197159365               0.066525138               0.000000000              -0.220454798               0.075830897               0.000000000              -0.243750232               0.085136655               0.000000000              -0.267045665               0.094442414               0.000000000              -0.290341099               0.103748172               0.000000000              -0.313636532               0.113053931               0.000000000              -0.336931966               0.122359690               0.000000000              -0.360227399               0.131665448               0.000000000              -0.383522833               0.140971207               0.000000000              -0.406818266               0.150276966               0.000000000              -0.430113700               0.159582724               0.000000000              -0.453409133               0.168888483               0.000000000              -0.476704567               0.178194241               0.000000000              -0.500000000               0.187500000               0.000000000              -0.122875978               0.050896897               0.000000000              -0.146446229               0.063340840               0.000000000              -0.170016481               0.075784784               0.000000000              -0.193586732               0.088228728               0.000000000              -0.217156983               0.100672672               0.000000000              -0.240727235               0.113116616               0.000000000              -0.264297486               0.125560560               0.000000000              -0.287867738               0.138004504               0.000000000              -0.311437989               0.150448448               0.000000000              -0.335008240               0.162892392               0.000000000              -0.358578492               0.175336336               0.000000000              -0.382148743               0.187780280               0.000000000              -0.405718994               0.200224224               0.000000000              -0.429289246               0.212668168               0.000000000              -0.452859497               0.225112112               0.000000000              -0.476429749               0.237556056               0.000000000              -0.500000000               0.250000000               0.000000000              -0.117295528               0.062695766               0.000000000              -0.141214558               0.078308531               0.000000000              -0.165133587               0.093921295               0.000000000              -0.189052617               0.109534060               0.000000000              -0.212971646               0.125146824               0.000000000              -0.236890676               0.140759589               0.000000000              -0.260809705               0.156372354               0.000000000              -0.284728735               0.171985118               0.000000000              -0.308647764               0.187597883               0.000000000              -0.332566794               0.203210648               0.000000000              -0.356485823               0.218823412               0.000000000              -0.380404853               0.234436177               0.000000000              -0.404323882               0.250048941               0.000000000              -0.428242912               0.265661706               0.000000000              -0.452161941               0.281274471               0.000000000              -0.476080971               0.296887235               0.000000000              -0.500000000               0.312500000               0.000000000              -0.110585458               0.073890841               0.000000000              -0.134923867               0.092710163               0.000000000              -0.159262276               0.111529486               0.000000000              -0.183600685               0.130348808               0.000000000              -0.207939094               0.149168131               0.000000000              -0.232277503               0.167987453               0.000000000              -0.256615912               0.186806776               0.000000000              -0.280954320               0.205626098               0.000000000              -0.305292729               0.224445420               0.000000000              -0.329631138               0.243264743               0.000000000              -0.353969547               0.262084065               0.000000000              -0.378307956               0.280903388               0.000000000              -0.402646365               0.299722710               0.000000000              -0.426984773               0.318542033               0.000000000              -0.451323182               0.337361355               0.000000000              -0.475661591               0.356180678               0.000000000              -0.500000000               0.375000000               0.000000000              -0.102810390               0.084374307               0.000000000              -0.127634741               0.106444663               0.000000000              -0.152459092               0.128515018               0.000000000              -0.177283442               0.150585374               0.000000000              -0.202107793               0.172655730               0.000000000              -0.226932143               0.194726086               0.000000000              -0.251756494               0.216796442               0.000000000              -0.276580845               0.238866798               0.000000000              -0.301405195               0.260937153               0.000000000              -0.326229546               0.283007509               0.000000000              -0.351053896               0.305077865               0.000000000              -0.375878247               0.327148221               0.000000000              -0.400702598               0.349218577               0.000000000              -0.425526948               0.371288933               0.000000000              -0.450351299               0.393359288               0.000000000              -0.475175649               0.415429644               0.000000000              -0.500000000               0.437500000               0.000000000              -0.094045202               0.094045202               0.000000000              -0.119417377               0.119417377               0.000000000              -0.144789552               0.144789552               0.000000000              -0.170161727               0.170161727               0.000000000              -0.195533901               0.195533901               0.000000000              -0.220906076               0.220906076               0.000000000              -0.246278251               0.246278251               0.000000000              -0.271650426               0.271650426               0.000000000              -0.297022601               0.297022601               0.000000000              -0.322394776               0.322394776               0.000000000              -0.347766951               0.347766951               0.000000000              -0.373139126               0.373139126               0.000000000              -0.398511300               0.398511300               0.000000000              -0.423883475               0.423883475               0.000000000              -0.449255650               0.449255650               0.000000000              -0.474627825               0.474627825               0.000000000              -0.500000000               0.500000000               0.000000000              -0.084374307               0.102810390               0.000000000              -0.106444663               0.127634741               0.000000000              -0.128515018               0.152459092               0.000000000              -0.150585374               0.177283442               0.000000000              -0.172655730               0.202107793               0.000000000              -0.194726086               0.226932143               0.000000000              -0.216796442               0.251756494               0.000000000              -0.238866798               0.276580845               0.000000000              -0.260937153               0.301405195               0.000000000              -0.283007509               0.326229546               0.000000000              -0.305077865               0.351053896               0.000000000              -0.327148221               0.375878247               0.000000000              -0.349218577               0.400702598               0.000000000              -0.371288933               0.425526948               0.000000000              -0.393359288               0.450351299               0.000000000              -0.415429644               0.475175649               0.000000000              -0.437500000               0.500000000               0.000000000              -0.073890841               0.110585458               0.000000000              -0.092710163               0.134923867               0.000000000              -0.111529486               0.159262276               0.000000000              -0.130348808               0.183600685               0.000000000              -0.149168131               0.207939094               0.000000000              -0.167987453               0.232277503               0.000000000              -0.186806776               0.256615912               0.000000000              -0.205626098               0.280954320               0.000000000              -0.224445420               0.305292729               0.000000000              -0.243264743               0.329631138               0.000000000              -0.262084065               0.353969547               0.000000000              -0.280903388               0.378307956               0.000000000              -0.299722710               0.402646365               0.000000000              -0.318542033               0.426984773               0.000000000              -0.337361355               0.451323182               0.000000000              -0.356180678               0.475661591               0.000000000              -0.375000000               0.500000000               0.000000000              -0.062695766               0.117295528               0.000000000              -0.078308531               0.141214558               0.000000000              -0.093921295               0.165133587               0.000000000              -0.109534060               0.189052617               0.000000000              -0.125146824               0.212971646               0.000000000              -0.140759589               0.236890676               0.000000000              -0.156372354               0.260809705               0.000000000              -0.171985118               0.284728735               0.000000000              -0.187597883               0.308647764               0.000000000              -0.203210648               0.332566794               0.000000000              -0.218823412               0.356485823               0.000000000              -0.234436177               0.380404853               0.000000000              -0.250048941               0.404323882               0.000000000              -0.265661706               0.428242912               0.000000000              -0.281274471               0.452161941               0.000000000              -0.296887235               0.476080971               0.000000000              -0.312500000               0.500000000               0.000000000              -0.050896897               0.122875978               0.000000000              -0.063340840               0.146446229               0.000000000              -0.075784784               0.170016481               0.000000000              -0.088228728               0.193586732               0.000000000              -0.100672672               0.217156983               0.000000000              -0.113116616               0.240727235               0.000000000              -0.125560560               0.264297486               0.000000000              -0.138004504               0.287867738               0.000000000              -0.150448448               0.311437989               0.000000000              -0.162892392               0.335008240               0.000000000              -0.175336336               0.358578492               0.000000000              -0.187780280               0.382148743               0.000000000              -0.200224224               0.405718994               0.000000000              -0.212668168               0.429289246               0.000000000              -0.225112112               0.452859497               0.000000000              -0.237556056               0.476429749               0.000000000              -0.250000000               0.500000000               0.000000000              -0.038607862               0.127273065               0.000000000              -0.047913621               0.150568498               0.000000000              -0.057219379               0.173863932               0.000000000              -0.066525138               0.197159365               0.000000000              -0.075830897               0.220454798               0.000000000              -0.085136655               0.243750232               0.000000000              -0.094442414               0.267045665               0.000000000              -0.103748172               0.290341099               0.000000000              -0.113053931               0.313636532               0.000000000              -0.122359690               0.336931966               0.000000000              -0.131665448               0.360227399               0.000000000              -0.140971207               0.383522833               0.000000000              -0.150276966               0.406818266               0.000000000              -0.159582724               0.430113700               0.000000000              -0.168888483               0.453409133               0.000000000              -0.178194241               0.476704567               0.000000000              -0.187500000               0.500000000               0.000000000              -0.025947013               0.130444442               0.000000000              -0.032137825               0.153541665               0.000000000              -0.038328636               0.176638887               0.000000000              -0.044519448               0.199736109               0.000000000              -0.050710260               0.222833332               0.000000000              -0.056901071               0.245930554               0.000000000              -0.063091883               0.269027776               0.000000000              -0.069282695               0.292124999               0.000000000              -0.075473506               0.315222221               0.000000000              -0.081664318               0.338319444               0.000000000              -0.087855130               0.361416666               0.000000000              -0.094045942               0.384513888               0.000000000              -0.100236753               0.407611111               0.000000000              -0.106427565               0.430708333               0.000000000              -0.112618377               0.453805555               0.000000000              -0.118809188               0.476902778               0.000000000              -0.125000000               0.500000000               0.000000000              -0.013036280               0.132359569               0.000000000              -0.016127762               0.155337096               0.000000000              -0.019219245               0.178314623               0.000000000              -0.022310727               0.201292150               0.000000000              -0.025402210               0.224269676               0.000000000              -0.028493692               0.247247203               0.000000000              -0.031585175               0.270224730               0.000000000              -0.034676657               0.293202257               0.000000000              -0.037768140               0.316179784               0.000000000              -0.040859622               0.339157311               0.000000000              -0.043951105               0.362134838               0.000000000              -0.047042587               0.385112365               0.000000000              -0.050134070               0.408089892               0.000000000              -0.053225552               0.431067419               0.000000000              -0.056317035               0.454044946               0.000000000              -0.059408517               0.477022473               0.000000000              -0.062500000               0.500000000               0.000000000               0.000000000               0.133000000               0.000000000               0.000000000               0.155937500               0.000000000               0.000000000               0.178875000               0.000000000               0.000000000               0.201812500               0.000000000               0.000000000               0.224750000               0.000000000               0.000000000               0.247687500               0.000000000               0.000000000               0.270625000               0.000000000               0.000000000               0.293562500               0.000000000               0.000000000               0.316500000               0.000000000               0.000000000               0.339437500               0.000000000               0.000000000               0.362375000               0.000000000               0.000000000               0.385312500               0.000000000               0.000000000               0.408250000               0.000000000               0.000000000               0.431187500               0.000000000               0.000000000               0.454125000               0.000000000               0.000000000               0.477062500               0.000000000               0.000000000               0.500000000               0.000000000 </DataArray>
</Points>
<Cells>
<DataArray type="Int32"                                    Name="connectivity"                                                      NumberOfComponents=" 1" format="ascii">
         0          1         18         17          1          2         19         18          2          3         20         19          3          4         21         20          4          5         22         21          5          6         23         22          6          7         24         23          7          8         25         24          8          9         26         25          9         10         27         26         10         11         28         27         11         12         29         28         12         13         30         29         13         14         31         30         14         15         32         31         15         16         33         32         17         18         35         34         18         19         36         35         19         20         37         36         20         21         38         37         21         22         39         38         22         23         40         39         23         24         41         40         24         25         42         41         25         26         43         42         26         27         44         43         27         28         45         44         28         29         46         45         29         30         47         46         30         31         48         47         31         32         49         48         32         33         50         49         34         35         52         51         35         36         53         52         36         37         54         53         37         38         55         54         38         39         56         55         39         40         57         56         40         41         58         57         41         42         59         58         42         43         60         59         43         44         61         60         44         45         62         61         45         46         63         62         46         47         64         63         47         48         65         64         48         49         66         65         49         50         67         66         51         52         69         68         52         53         70         69         53         54         71         70         54         55         72         71         55         56         73         72         56         57         74         73         57         58         75         74         58         59         76         75         59         60         77         76         60         61         78         77         61         62         79         78         62         63         80         79         63         64         81         80         64         65         82         81         65         66         83         82         66         67         84         83         68         69         86         85         69         70         87         86         70         71         88         87         71         72         89         88         72         73         90         89         73         74         91         90         74         75         92         91         75         76         93         92         76         77         94         93         77         78         95         94         78         79         96         95         79         80         97         96         80         81         98         97         81         82         99         98         82         83        100         99         83         84        101        100         85         86        103        102         86         87        104        103         87         88        105        104         88         89        106        105         89         90        107        106         90         91        108        107         91         92        109        108         92         93        110        109         93         94        111        110         94         95        112        111         95         96        113        112         96         97        114        113         97         98        115        114         98         99        116        115         99        100        117        116        100        101        118        117        102        103        120        119        103        104        121        120        104        105        122        121        105        106        123        122        106        107        124        123        107        108        125        124        108        109        126        125        109        110        127        126        110        111        128        127        111        112        129        128        112        113        130        129        113        114        131        130        114        115        132        131        115        116        133        132        116        117        134        133        117        118        135        134        119        120        137        136        120        121        138        137        121        122        139        138        122        123        140        139        123        124        141        140        124        125        142        141        125        126        143        142        126        127        144        143        127        128        145        144        128        129        146        145        129        130        147        146        130        131        148        147        131        132        149        148        132        133        150        149        133        134        151        150        134        135        152        151        136        137        154        153        137        138        155        154        138        139        156        155        139        140        157        156        140        141        158        157        141        142        159        158        142        143        160        159        143        144        161        160        144        145        162        161        145        146        163        162        146        147        164        163        147        148        165        164        148        149        166        165        149        150        167        166        150        151        168        167        151        152        169        168        153        154        171        170        154        155        172        171        155        156        173        172        156        157        174        173        157        158        175        174        158        159        176        175        159        160        177        176        160        161        178        177        161        162        179        178        162        163        180        179        163        164        181        180        164        165        182        181        165        166        183        182        166        167        184        183        167        168        185        184        168        169        186        185        170        171        188        187        171        172        189        188        172        173        190        189        173        174        191        190        174        175        192        191        175        176        193        192        176        177        194        193        177        178        195        194        178        179        196        195        179        180        197        196        180        181        198        197        181        182        199        198        182        183        200        199        183        184        201        200        184        185        202        201        185        186        203        202        187        188        205        204        188        189        206        205        189        190        207        206        190        191        208        207        191        192        209        208        192        193        210        209        193        194        211        210        194        195        212        211        195        196        213        212        196        197        214        213        197        198        215        214        198        199        216        215        199        200        217        216        200        201        218        217        201        202        219        218        202        203        220        219        204        205        222        221        205        206        223        222        206        207        224        223        207        208        225        224        208        209        226        225        209        210        227        226        210        211        228        227        211        212        229        228        212        213        230        229        213        214        231        230        214        215        232        231        215        216        233        232        216        217        234        233        217        218        235        234        218        219        236        235        219        220        237        236        221        222        239        238        222        223        240        239        223        224        241        240        224        225        242        241        225        226        243        242        226        227        244        243        227        228        245        244        228        229        246        245        229        230        247        246        230        231        248        247        231        232        249        248        232        233        250        249        233        234        251        250        234        235        252        251        235        236        253        252        236        237        254        253        238        239        256        255        239        240        257        256        240        241        258        257        241        242        259        258        242        243        260        259        243        244        261        260        244        245        262        261        245        246        263        262        246        247        264        263        247        248        265        264        248        249        266        265        249        250        267        266        250        251        268        267        251        252        269        268        252        253        270        269        253        254        271        270        255        256        273        272        256        257        274        273        257        258        275        274        258        259        276        275        259        260        277        276        260        261        278        277        261        262        279        278        262        263        280        279        263        264        281        280        264        265        282        281        265        266        283        282        266        267        284        283        267        268        285        284        268        269        286        285        269        270        287        286        270        271        288        287        306        307          1          0        307        308          2          1        308        309          3          2        309        310          4          3        310        311          5          4        311        312          6          5        312        313          7          6        313        314          8          7        314        315          9          8        315        316         10          9        316        317         11         10        317        318         12         11        318        319         13         12        319        320         14         13        320        321         15         14        321        322         16         15        323        324        307        306        324        325        308        307        325        326        309        308        326        327        310        309        327        328        311        310        328        329        312        311        329        330        313        312        330        331        314        313        331        332        315        314        332        333        316        315        333        334        317        316        334        335        318        317        335        336        319        318        336        337        320        319        337        338        321        320        338        339        322        321        340        341        324        323        341        342        325        324        342        343        326        325        343        344        327        326        344        345        328        327        345        346        329        328        346        347        330        329        347        348        331        330        348        349        332        331        349        350        333        332        350        351        334        333        351        352        335        334        352        353        336        335        353        354        337        336        354        355        338        337        355        356        339        338        357        358        341        340        358        359        342        341        359        360        343        342        360        361        344        343        361        362        345        344        362        363        346        345        363        364        347        346        364        365        348        347        365        366        349        348        366        367        350        349        367        368        351        350        368        369        352        351        369        370        353        352        370        371        354        353        371        372        355        354        372        373        356        355        374        375        358        357        375        376        359        358        376        377        360        359        377        378        361        360        378        379        362        361        379        380        363        362        380        381        364        363        381        382        365        364        382        383        366        365        383        384        367        366        384        385        368        367        385        386        369        368        386        387        370        369        387        388        371        370        388        389        372        371        389        390        373        372        391        392        375        374        392        393        376        375        393        394        377        376        394        395        378        377        395        396        379        378        396        397        380        379        397        398        381        380        398        399        382        381        399        400        383        382        400        401        384        383        401        402        385        384        402        403        386        385        403        404        387        386        404        405        388        387        405        406        389        388        406        407        390        389        408        409        392        391        409        410        393        392        410        411        394        393        411        412        395        394        412        413        396        395        413        414        397        396        414        415        398        397        415        416        399        398        416        417        400        399        417        418        401        400        418        419        402        401        419        420        403        402        420        421        404        403        421        422        405        404        422        423        406        405        423        424        407        406        425        426        409        408        426        427        410        409        427        428        411        410        428        429        412        411        429        430        413        412        430        431        414        413        431        432        415        414        432        433        416        415        433        434        417        416        434        435        418        417        435        436        419        418        436        437        420        419        437        438        421        420        438        439        422        421        439        440        423        422        440        441        424        423        442        443        426        425        443        444        427        426        444        445        428        427        445        446        429        428        446        447        430        429        447        448        431        430        448        449        432        431        449        450        433        432        450        451        434        433        451        452        435        434        452        453        436        435        453        454        437        436        454        455        438        437        455        456        439        438        456        457        440        439        457        458        441        440        459        460        443        442        460        461        444        443        461        462        445        444        462        463        446        445        463        464        447        446        464        465        448        447        465        466        449        448        466        467        450        449        467        468        451        450        468        469        452        451        469        470        453        452        470        471        454        453        471        472        455        454        472        473        456        455        473        474        457        456        474        475        458        457        476        477        460        459        477        478        461        460        478        479        462        461        479        480        463        462        480        481        464        463        481        482        465        464        482        483        466        465        483        484        467        466        484        485        468        467        485        486        469        468        486        487        470        469        487        488        471        470        488        489        472        471        489        490        473        472        490        491        474        473        491        492        475        474        493        494        477        476        494        495        478        477        495        496        479        478        496        497        480        479        497        498        481        480        498        499        482        481        499        500        483        482        500        501        484        483        501        502        485        484        502        503        486        485        503        504        487        486        504        505        488        487        505        506        489        488        506        507        490        489        507        508        491        490        508        509        492        491        510        511        494        493        511        512        495        494        512        513        496        495        513        514        497        496        514        515        498        497        515        516        499        498        516        517        500        499        517        518        501        500        518        519        502        501        519        520        503        502        520        521        504        503        521        522        505        504        522        523        506        505        523        524        507        506        524        525        508        507        525        526        509        508        527        528        511        510        528        529        512        511        529        530        513        512        530        531        514        513        531        532        515        514        532        533        516        515        533        534        517        516        534        535        518        517        535        536        519        518        536        537        520        519        537        538        521        520        538        539        522        521        539        540        523        522        540        541        524        523        541        542        525        524        542        543        526        525        544        545        528        527        545        546        529        528        546        547        530        529        547        548        531        530        548        549        532        531        549        550        533        532        550        551        534        533        551        552        535        534        552        553        536        535        553        554        537        536        554        555        538        537        555        556        539        538        556        557        540        539        557        558        541        540        558        559        542        541        559        560        543        542        561        562        545        544        562        563        546        545        563        564        547        546        564        565        548        547        565        566        549        548        566        567        550        549        567        568        551        550        568        569        552        551        569        570        553        552        570        571        554        553        571        572        555        554        572        573        556        555        573        574        557        556        574        575        558        557        575        576        559        558        576        577        560        559        578        579        596        595        579        580        597        596        580        581        598        597        581        582        599        598        582        583        600        599        583        584        601        600        584        585        602        601        585        586        603        602        586        587        604        603        587        588        605        604        588        589        606        605        589        590        607        606        590        591        608        607        591        592        609        608        592        593        610        609        593        594        611        610        595        596        613        612        596        597        614        613        597        598        615        614        598        599        616        615        599        600        617        616        600        601        618        617        601        602        619        618        602        603        620        619        603        604        621        620        604        605        622        621        605        606        623        622        606        607        624        623        607        608        625        624        608        609        626        625        609        610        627        626        610        611        628        627        612        613        630        629        613        614        631        630        614        615        632        631        615        616        633        632        616        617        634        633        617        618        635        634        618        619        636        635        619        620        637        636        620        621        638        637        621        622        639        638        622        623        640        639        623        624        641        640        624        625        642        641        625        626        643        642        626        627        644        643        627        628        645        644        629        630        647        646        630        631        648        647        631        632        649        648        632        633        650        649        633        634        651        650        634        635        652        651        635        636        653        652        636        637        654        653        637        638        655        654        638        639        656        655        639        640        657        656        640        641        658        657        641        642        659        658        642        643        660        659        643        644        661        660        644        645        662        661        646        647        664        663        647        648        665        664        648        649        666        665        649        650        667        666        650        651        668        667        651        652        669        668        652        653        670        669        653        654        671        670        654        655        672        671        655        656        673        672        656        657        674        673        657        658        675        674        658        659        676        675        659        660        677        676        660        661        678        677        661        662        679        678        663        664        681        680        664        665        682        681        665        666        683        682        666        667        684        683        667        668        685        684        668        669        686        685        669        670        687        686        670        671        688        687        671        672        689        688        672        673        690        689        673        674        691        690        674        675        692        691        675        676        693        692        676        677        694        693        677        678        695        694        678        679        696        695        680        681        698        697        681        682        699        698        682        683        700        699        683        684        701        700        684        685        702        701        685        686        703        702        686        687        704        703        687        688        705        704        688        689        706        705        689        690        707        706        690        691        708        707        691        692        709        708        692        693        710        709        693        694        711        710        694        695        712        711        695        696        713        712        697        698        715        714        698        699        716        715        699        700        717        716        700        701        718        717        701        702        719        718        702        703        720        719        703        704        721        720        704        705        722        721        705        706        723        722        706        707        724        723        707        708        725        724        708        709        726        725        709        710        727        726        710        711        728        727        711        712        729        728        712        713        730        729        714        715        732        731        715        716        733        732        716        717        734        733        717        718        735        734        718        719        736        735        719        720        737        736        720        721        738        737        721        722        739        738        722        723        740        739        723        724        741        740        724        725        742        741        725        726        743        742        726        727        744        743        727        728        745        744        728        729        746        745        729        730        747        746        731        732        749        748        732        733        750        749        733        734        751        750        734        735        752        751        735        736        753        752        736        737        754        753        737        738        755        754        738        739        756        755        739        740        757        756        740        741        758        757        741        742        759        758        742        743        760        759        743        744        761        760        744        745        762        761        745        746        763        762        746        747        764        763        748        749        766        765        749        750        767        766        750        751        768        767        751        752        769        768        752        753        770        769        753        754        771        770        754        755        772        771        755        756        773        772        756        757        774        773        757        758        775        774        758        759        776        775        759        760        777        776        760        761        778        777        761        762        779        778        762        763        780        779        763        764        781        780        765        766        783        782        766        767        784        783        767        768        785        784        768        769        786        785        769        770        787        786        770        771        788        787        771        772        789        788        772        773        790        789        773        774        791        790        774        775        792        791        775        776        793        792        776        777        794        793        777        778        795        794        778        779        796        795        779        780        797        796        780        781        798        797        782        783        800        799        783        784        801        800        784        785        802        801        785        786        803        802        786        787        804        803        787        788        805        804        788        789        806        805        789        790        807        806        790        791        808        807        791        792        809        808        792        793        810        809        793        794        811        810        794        795        812        811        795        796        813        812        796        797        814        813        797        798        815        814        799        800        817        816        800        801        818        817        801        802        819        818        802        803        820        819        803        804        821        820        804        805        822        821        805        806        823        822        806        807        824        823        807        808        825        824        808        809        826        825        809        810        827        826        810        811        828        827        811        812        829        828        812        813        830        829        813        814        831        830        814        815        832        831        816        817        834        833        817        818        835        834        818        819        836        835        819        820        837        836        820        821        838        837        821        822        839        838        822        823        840        839        823        824        841        840        824        825        842        841        825        826        843        842        826        827        844        843        827        828        845        844        828        829        846        845        829        830        847        846        830        831        848        847        831        832        849        848        833        834        562        561        834        835        563        562        835        836        564        563        836        837        565        564        837        838        566        565        838        839        567        566        839        840        568        567        840        841        569        568        841        842        570        569        842        843        571        570        843        844        572        571        844        845        573        572        845        846        574        573        846        847        575        574        847        848        576        575        848        849        577        576        884        885        579        578        885        886        580        579        886        887        581        580        887        888        582        581        888        889        583        582        889        890        584        583        890        891        585        584        891        892        586        585        892        893        587        586        893        894        588        587        894        895        589        588        895        896        590        589        896        897        591        590        897        898        592        591        898        899        593        592        899        900        594        593        901        902        885        884        902        903        886        885        903        904        887        886        904        905        888        887        905        906        889        888        906        907        890        889        907        908        891        890        908        909        892        891        909        910        893        892        910        911        894        893        911        912        895        894        912        913        896        895        913        914        897        896        914        915        898        897        915        916        899        898        916        917        900        899        918        919        902        901        919        920        903        902        920        921        904        903        921        922        905        904        922        923        906        905        923        924        907        906        924        925        908        907        925        926        909        908        926        927        910        909        927        928        911        910        928        929        912        911        929        930        913        912        930        931        914        913        931        932        915        914        932        933        916        915        933        934        917        916        935        936        919        918        936        937        920        919        937        938        921        920        938        939        922        921        939        940        923        922        940        941        924        923        941        942        925        924        942        943        926        925        943        944        927        926        944        945        928        927        945        946        929        928        946        947        930        929        947        948        931        930        948        949        932        931        949        950        933        932        950        951        934        933        952        953        936        935        953        954        937        936        954        955        938        937        955        956        939        938        956        957        940        939        957        958        941        940        958        959        942        941        959        960        943        942        960        961        944        943        961        962        945        944        962        963        946        945        963        964        947        946        964        965        948        947        965        966        949        948        966        967        950        949        967        968        951        950        969        970        953        952        970        971        954        953        971        972        955        954        972        973        956        955        973        974        957        956        974        975        958        957        975        976        959        958        976        977        960        959        977        978        961        960        978        979        962        961        979        980        963        962        980        981        964        963        981        982        965        964        982        983        966        965        983        984        967        966        984        985        968        967        986        987        970        969        987        988        971        970        988        989        972        971        989        990        973        972        990        991        974        973        991        992        975        974        992        993        976        975        993        994        977        976        994        995        978        977        995        996        979        978        996        997        980        979        997        998        981        980        998        999        982        981        999       1000        983        982       1000       1001        984        983       1001       1002        985        984       1003       1004        987        986       1004       1005        988        987       1005       1006        989        988       1006       1007        990        989       1007       1008        991        990       1008       1009        992        991       1009       1010        993        992       1010       1011        994        993       1011       1012        995        994       1012       1013        996        995       1013       1014        997        996       1014       1015        998        997       1015       1016        999        998       1016       1017       1000        999       1017       1018       1001       1000       1018       1019       1002       1001       1020       1021       1004       1003       1021       1022       1005       1004       1022       1023       1006       1005       1023       1024       1007       1006       1024       1025       1008       1007       1025       1026       1009       1008       1026       1027       1010       1009       1027       1028       1011       1010       1028       1029       1012       1011       1029       1030       1013       1012       1030       1031       1014       1013       1031       1032       1015       1014       1032       1033       1016       1015       1033       1034       1017       1016       1034       1035       1018       1017       1035       1036       1019       1018       1037       1038       1021       1020       1038       1039       1022       1021       1039       1040       1023       1022       1040       1041       1024       1023       1041       1042       1025       1024       1042       1043       1026       1025       1043       1044       1027       1026       1044       1045       1028       1027       1045       1046       1029       1028       1046       1047       1030       1029       1047       1048       1031       1030       1048       1049       1032       1031       1049       1050       1033       1032       1050       1051       1034       1033       1051       1052       1035       1034       1052       1053       1036       1035       1054       1055       1038       1037       1055       1056       1039       1038       1056       1057       1040       1039       1057       1058       1041       1040       1058       1059       1042       1041       1059       1060       1043       1042       1060       1061       1044       1043       1061       1062       1045       1044       1062       1063       1046       1045       1063       1064       1047       1046       1064       1065       1048       1047       1065       1066       1049       1048       1066       1067       1050       1049       1067       1068       1051       1050       1068       1069       1052       1051       1069       1070       1053       1052       1071       1072       1055       1054       1072       1073       1056       1055       1073       1074       1057       1056       1074       1075       1058       1057       1075       1076       1059       1058       1076       1077       1060       1059       1077       1078       1061       1060       1078       1079       1062       1061       1079       1080       1063       1062       1080       1081       1064       1063       1081       1082       1065       1064       1082       1083       1066       1065       1083       1084       1067       1066       1084       1085       1068       1067       1085       1086       1069       1068       1086       1087       1070       1069       1088       1089       1072       1071       1089       1090       1073       1072       1090       1091       1074       1073       1091       1092       1075       1074       1092       1093       1076       1075       1093       1094       1077       1076       1094       1095       1078       1077       1095       1096       1079       1078       1096       1097       1080       1079       1097       1098       1081       1080       1098       1099       1082       1081       1099       1100       1083       1082       1100       1101       1084       1083       1101       1102       1085       1084       1102       1103       1086       1085       1103       1104       1087       1086       1105       1106       1089       1088       1106       1107       1090       1089       1107       1108       1091       1090       1108       1109       1092       1091       1109       1110       1093       1092       1110       1111       1094       1093       1111       1112       1095       1094       1112       1113       1096       1095       1113       1114       1097       1096       1114       1115       1098       1097       1115       1116       1099       1098       1116       1117       1100       1099       1117       1118       1101       1100       1118       1119       1102       1101       1119       1120       1103       1102       1120       1121       1104       1103       1122       1123       1106       1105       1123       1124       1107       1106       1124       1125       1108       1107       1125       1126       1109       1108       1126       1127       1110       1109       1127       1128       1111       1110       1128       1129       1112       1111       1129       1130       1113       1112       1130       1131       1114       1113       1131       1132       1115       1114       1132       1133       1116       1115       1133       1134       1117       1116       1134       1135       1118       1117       1135       1136       1119       1118       1136       1137       1120       1119       1137       1138       1121       1120        272        273       1123       1122        273        274       1124       1123        274        275       1125       1124        275        276       1126       1125        276        277       1127       1126        277        278       1128       1127        278        279       1129       1128        279        280       1130       1129        280        281       1131       1130        281        282       1132       1131        282        283       1133       1132        283        284       1134       1133        284        285       1135       1134        285        286       1136       1135        286        287       1137       1136        287        288       1138       1137 </DataArray>
<DataArray type="Int32"                                    Name="offsets"                                                      NumberOfComponents=" 1" format="ascii">
         4          8         12         16         20         24         28         32         36         40         44         48         52         56         60         64         68         72         76         80         84         88         92         96        100        104        108        112        116        120        124        128        132        136        140        144        148        152        156        160        164        168        172        176        180        184        188        192        196        200        204        208        212        216        220        224        228        232        236        240        244        248        252        256        260        264        268        272        276        280        284        288        292        296        300        304        308        312        316        320        324        328        332        336        340        344        348        352        356        360        364        368        372        376        380        384        388        392        396        400        404        408        412        416        420        424        428        432        436        440        444        448        452        456        460        464        468        472        476        480        484        488        492        496        500        504        508        512        516        520        524        528        532        536        540        544        548        552        556        560        564        568        572        576        580        584        588        592        596        600        604        608        612        616        620        624        628        632        636        640        644        648        652        656        660        664        668        672        676        680        684        688        692        696        700        704        708        712        716        720        724        728        732        736        740        744        748        752        756        760        764        768        772        776        780        784        788        792        796        800        804        808        812        816        820        824        828        832        836        840        844        848        852        856        860        864        868        872        876        880        884        888        892        896        900        904        908        912        916        920        924        928        932        936        940        944        948        952        956        960        964        968        972        976        980        984        988        992        996       1000       1004       1008       1012       1016       1020       1024       1028       1032       1036       1040       1044       1048       1052       1056       1060       1064       1068       1072       1076       1080       1084       1088       1092       1096       1100       1104       1108       1112       1116       1120       1124       1128       1132       1136       1140       1144       1148       1152       1156       1160       1164       1168       1172       1176       1180       1184       1188       1192       1196       1200       1204       1208       1212       1216       1220       1224       1228       1232       1236       1240       1244       1248       1252       1256       1260       1264       1268       1272       1276       1280       1284       1288       1292       1296       1300       1304       1308       1312       1316       1320       1324       1328       1332       1336       1340       1344       1348       1352       1356       1360       1364       1368       1372       1376       1380       1384       1388       1392       1396       1400       1404       1408       1412       1416       1420       1424       1428       1432       1436       1440       1444       1448       1452       1456       1460       1464       1468       1472       1476       1480       1484       1488       1492       1496       1500       1504       1508       1512       1516       1520       1524       1528       1532       1536       1540       1544       1548       1552       1556       1560       1564       1568       1572       1576       1580       1584       1588       1592       1596       1600       1604       1608       1612       1616       1620       1624       1628       1632       1636       1640       1644       1648       1652       1656       1660       1664       1668       1672       1676       1680       1684       1688       1692       1696       1700       1704       1708       1712       1716       1720       1724       1728       1732       1736       1740       1744       1748       1752       1756       1760       1764       1768       1772       1776       1780       1784       1788       1792       1796       1800       1804       1808       1812       1816       1820       1824       1828       1832       1836       1840       1844       1848       1852       1856       1860       1864       1868       1872       1876       1880       1884       1888       1892       1896       1900       1904       1908       1912       1916       1920       1924       1928       1932       1936       1940       1944       1948       1952       1956       1960       1964       1968       1972       1976       1980       1984       1988       1992       1996       2000       2004       2008       2012       2016       2020       2024       2028       2032       2036       2040       2044       2048       2052       2056       2060       2064       2068       2072       2076       2080       2084       2088       2092       2096       2100       2104       2108       2112       2116       2120       2124       2128       2132       2136       2140       2144       2148       2152       2156       2160       2164       2168       2172       2176       2180       2184       2188       2192       2196       2200       2204       2208       2212       2216       2220       2224       2228       2232       2236       2240       2244       2248       2252       2256       2260       2264       2268       2272       2276       2280       2284       2288       2292       2296       2300       2304       2308       2312       2316       2320       2324       2328       2332       2336       2340       2344       2348       2352       2356       2360       2364       2368       2372       2376       2380       2384       2388       2392       2396       2400       2404       2408       2412       2416       2420       2424       2428       2432       2436       2440       2444       2448       2452       2456       2460       2464       2468       2472       2476       2480       2484       2488       2492       2496       2500       2504       2508       2512       2516       2520       2524       2528       2532       2536       2540       2544       2548       2552       2556       2560       2564       2568       2572       2576       2580       2584       2588       2592       2596       2600       2604       2608       2612       2616       2620       2624       2628       2632       2636       2640       2644       2648       2652       2656       2660       2664       2668       2672       2676       2680       2684       2688       2692       2696       2700       2704       2708       2712       2716       2720       2724       2728       2732       2736       2740       2744       2748       2752       2756       2760       2764       2768       2772       2776       2780       2784       2788       2792       2796       2800       2804       2808       2812       2816       2820       2824       2828       2832       2836       2840       2844       2848       2852       2856       2860       2864       2868       2872       2876       2880       2884       2888       2892       2896       2900       2904       2908       2912       2916       2920       2924       2928       2932       2936       2940       2944       2948       2952       2956       2960       2964       2968       2972       2976       2980       2984       2988       2992       2996       3000       3004       3008       3012       3016       3020       3024       3028       3032       3036       3040       3044       3048       3052       3056       3060       3064       3068       3072       3076       3080       3084       3088       3092       3096       3100       3104       3108       3112       3116       3120       3124       3128       3132       3136       3140       3144       3148       3152       3156       3160       3164       3168       3172       3176       3180       3184       3188       3192       3196       3200       3204       3208       3212       3216       3220       3224       3228       3232       3236       3240       3244       3248       3252       3256       3260       3264       3268       3272       3276       3280       3284       3288       3292       3296       3300       3304       3308       3312       3316       3320       3324       3328       3332       3336       3340       3344       3348       3352       3356       3360       3364       3368       3372       3376       3380       3384       3388       3392       3396       3400       3404       3408       3412       3416       3420       3424       3428       3432       3436       3440       3444       3448       3452       3456       3460       3464       3468       3472       3476       3480       3484       3488       3492       3496       3500       3504       3508       3512       3516       3520       3524       3528       3532       3536       3540       3544       3548       3552       3556       3560       3564       3568       3572       3576       3580       3584       3588       3592       3596       3600       3604       3608       3612       3616       3620       3624       3628       3632       3636       3640       3644       3648       3652       3656       3660       3664       3668       3672       3676       3680       3684       3688       3692       3696       3700       3704       3708       3712       3716       3720       3724       3728       3732       3736       3740       3744       3748       3752       3756       3760       3764       3768       3772       3776       3780       3784       3788       3792       3796       3800       3804       3808       3812       3816       3820       3824       3828       3832       3836       3840       3844       3848       3852       3856       3860       3864       3868       3872       3876       3880       3884       3888       3892       3896       3900       3904       3908       3912       3916       3920       3924       3928       3932       3936       3940       3944       3948       3952       3956       3960       3964       3968       3972       3976       3980       3984       3988       3992       3996       4000       4004       4008       4012       4016       4020       4024       4028       4032       4036       4040       4044       4048       4052       4056       4060       4064       4068       4072       4076       4080       4084       4088       4092       4096 </DataArray>
<DataArray type="UInt8"                                    Name="types"                                                      NumberOfComponents=" 1" format="ascii">
         9          9          9          9          9          9          9          9          9          9          9          9          9          9          9          9          9          9          9          9          9          9          9          9          9          9          9          9          9          9          9          9          9          9          9          9          9          9          9          9          9          9          9          9          9          9          9          9          9          9          9          9          9          9          9          9          9          9          9          9          9          9          9          9          9          9          9          9          9          9          9          9          9          9          9          9          9          9          9          9          9          9          9          9          9          9          9          9          9          9          9          9          9          9          9          9          9          9          9          9          9          9          9          9          9          9          9          9          9          9          9          9          9          9          9          9          9          9          9          9          9          9          9          9          9          9          9          9          9          9          9          9          9          9          9          9          9          9          9          9          9          9          9          9          9          9          9          9          9          9          9          9          9          9          9          9          9          9          9          9          9          9          9          9          9          9          9          9          9          9          9          9          9          9          9          9          9          9          9          9          9          9          9          9          9          9          9          9          9          9          9          9          9          9          9          9          9          9          9          9          9          9          9          9          9          9          9          9          9          9          9          9          9          9          9          9          9          9          9          9          9          9          9          9          9          9          9          9          9          9          9          9          9          9          9          9          9          9          9          9          9          9          9          9          9          9          9          9          9          9          9          9          9          9          9          9          9          9          9          9          9          9          9          9          9          9          9          9          9          9          9          9          9          9          9          9          9          9          9          9          9          9          9          9          9          9          9          9          9          9          9          9          9          9          9          9          9          9          9          9          9          9          9          9          9          9          9          9          9          9          9          9          9          9          9          9          9          9          9          9          9          9          9          9          9          9          9          9          9          9          9          9          9          9          9          9          9          9          9          9          9          9          9          9          9          9          9          9          9          9          9          9          9          9          9          9          9          9          9          9          9          9          9          9          9          9          9          9          9          9          9          9          9          9          9          9          9          9          9          9          9          9          9          9          9          9          9          9          9          9          9          9          9          9          9          9          9          9          9          9          9          9          9          9          9          9          9          9          9          9          9          9          9          9          9          9          9          9          9          9          9          9          9          9          9          9          9          9          9          9          9          9          9          9          9          9          9          9          9          9          9          9          9          9          9          9          9          9          9          9          9          9          9          9          9          9          9          9          9          9          9          9          9          9          9          9          9          9          9          9          9          9          9          9          9          9          9          9          9          9          9          9          9          9          9          9          9          9          9          9          9          9          9          9          9          9          9          9          9          9          9          9          9          9          9          9          9          9          9          9          9          9          9          9          9          9          9          9          9          9          9          9          9          9          9          9          9          9          9          9          9          9          9          9          9          9          9          9          9          9          9          9          9          9          9          9          9          9          9          9          9          9          9          9          9          9          9          9          9          9          9          9          9          9          9          9          9          9          9          9          9          9          9          9          9          9          9          9          9          9          9          9          9          9          9          9          9          9          9          9          9          9          9          9          9          9          9          9          9          9          9          9          9          9          9          9          9          9          9          9          9          9          9          9          9          9          9          9          9          9          9          9          9          9          9          9          9          9          9          9          9          9          9          9          9          9          9          9          9          9          9          9          9          9          9          9          9          9          9          9          9          9          9          9          9          9          9          9          9          9          9          9          9          9          9          9          9          9          9          9          9          9          9          9          9          9          9          9          9          9          9          9          9          9          9          9          9          9          9          9          9          9          9          9          9          9          9          9          9          9          9          9          9          9          9          9          9          9          9          9          9          9          9          9          9          9          9          9          9          9          9          9          9          9          9          9          9          9          9          9          9          9          9          9          9          9          9          9          9          9          9          9          9          9          9          9          9          9          9          9          9          9          9          9          9          9          9          9          9          9          9          9          9          9          9          9          9          9          9          9          9          9          9          9          9          9          9          9          9          9          9          9          9          9          9          9          9          9          9          9          9          9          9          9          9          9          9          9          9          9          9          9          9          9          9          9          9          9          9          9          9          9          9          9          9          9          9          9          9          9          9          9          9          9          9          9          9          9          9          9          9          9          9          9          9          9          9          9          9          9          9          9          9          9          9          9          9          9          9          9          9          9          9          9          9          9          9          9          9          9          9          9          9          9          9          9          9          9          9          9          9          9          9          9          9          9          9          9          9          9          9          9          9          9          9          9          9          9          9          9          9          9          9          9          9          9          9          9          9          9          9          9          9          9          9          9          9          9          9          9          9          9          9          9          9          9          9          9          9          9          9          9          9          9          9          9          9          9          9          9          9          9          9          9          9          9          9          9          9          9          9          9          9          9          9          9          9          9          9          9          9          9          9          9          9          9          9          9          9          9          9          9          9          9          9          9          9          9          9          9          9          9          9          9          9          9          9          9          9          9          9          9          9          9          9          9          9          9          9          9          9          9          9          9          9          9          9          9          9          9          9          9          9          9          9          9          9          9          9          9          9          9          9          9          9          9          9          9          9          9          9          9          9          9 </DataArray>
</Cells>
<CellData>
<DataArray type="Int32"                                    Name="material"                                                      NumberOfComponents=" 1" format="ascii">
         1          1          1          1          1          1          1          1          1          1          1          1          1          1          1          1          1          1          1          1          1          1          1          1          1          1          1          1          1          1          1          1          1          1          1          1          1          1          1          1          1          1          1          1          1          1          1          1          1          1          1          1          1          1          1          1          1          1          1          1          1          1          1          1          1          1          1          1          1          1          1          1          1          1          1          1          1          1          1          1          1          1          1          1          1          1          1          1          1          1          1          1          1          1          1          1          1          1          1          1          1          1          1          1          1          1          1          1          1          1          1          1          1          1          1          1          1          1          1          1          1          1          1          1          1          1          1          1          1          1          1          1          1          1          1          1          1          1          1          1          1          1          1          1          1          1          1          1          1          1          1          1          1          1          1          1          1          1          1          1          1          1          1          1          1          1          1          1          1          1          1          1          1          1          1          1          1          1          1          1          1          1          1          1          1          1          1          1          1          1          1          1          1          1          1          1          1          1          1          1          1          1          1          1          1          1          1          1          1          1          1          1          1          1          1          1          1          1          1          1          1          1          1          1          1          1          1          1          1          1          1          1          1          1          1          1          1          1          1          1          1          1          1          1          1          1          1          1          1          1          1          1          1          1          1          1          1          1          1          1          1          1          1          1          1          1          1          1          1          1          1          1          1          1          1          1          1          1          1          1          1          1          1          1          1          1          1          1          1          1          1          1          1          1          1          1          1          1          1          1          1          1          1          1          1          1          1          1          1          1          1          1          1          1          1          1          1          1          1          1          1          1          1          1          1          1          1          1          1          1          1          1          1          1          1          1          1          1          1          1          1          1          1          1          1          1          1          1          1          1          1          1          1          1          1          1          1          1          1          1          1          1          1          1          1          1          1          1          1          1          1          1          1          1          1          1          1          1          1          1          1          1          1          1          1          1          1          1          1          1          1          1          1          1          1          1          1          1          1          1          1          1          1          1          1          1          1          1          1          1          1          1          1          1          1          1          1          1          1          1          1          1          1          1          1          1          1          1          1          1          1          1          1          1          1          1          1          1          1          1          1          1          1          1          1          1          1          1          1          1          1          1          1          1          1          1          1          1          1          1          1          1          1          1          1          1          1          1          1          1          1          1          1          1          1          1          1          1          1          1          1          1          1          1          1          1          1          1          1          1          1          1          1          1          1          1          1          1          1          1          1          1          1          1          1          1          1          1          1          1          1          1          1          1          1          1          1          1          1          1          1          1          1          1          1          1          1          1          1          1          1          1          1          1          1          1          1          1          1          1          1          1          1          1          1          1          1          1          1          1          1          1          1          1          1          1          1          1          1          1          1          1          1          1          1          1          1          1          1          1          1          1          1          1          1          1          1          1          1          1          1          1          1          1          1          1          1          1          1          1          1          1          1          1          1          1          1          1          1          1          1          1          1          1          1          1          1          1          1          1          1          1          1          1          1          1          1          1          1          1          1          1          1          1          1          1          1          1          1          1          1          1          1          1          1          1          1          1          1          1          1          1          1          1          1          1          1          1          1          1          1          1          1          1          1          1          1          1          1          1          1          1          1          1          1          1          1          1          1          1          1          1          1          1          1          1          1          1          1          1          1          1          1          1          1          1          1          1          1          1          1          1          1          1          1          1          1          1          1          1          1          1          1          1          1          1          1          1          1          1          1          1          1          1          1          1          1          1          1          1          1          1          1          1          1          1          1          1          1          1          1          1          1          1          1          1          1          1          1          1          1          1          1          1          1          1          1          1          1          1          1          1          1          1          1          1          1          1          1          1          1          1          1          1          1          1          1          1          1          1          1          1          1          1          1          1          1          1          1          1          1          1          1          1          1          1          1          1          1          1          1          1          1          1          1          1          1          1          1          1          1          1          1          1          1          1          1          1          1          1          1          1          1          1          1          1          1          1          1          1          1          1          1          1          1          1          1          1          1          1          1          1          1          1          1          1          1          1          1          1          1          1          1          1          1          1          1          1          1          1          1          1          1          1          1          1          1          1          1          1          1          1          1          1          1          1          1          1          1          1          1          1          1          1          1          1          1          1          1          1          1          1          1          1          1          1          1          1          1          1          1          1          1          1          1          1          1          1          1          1          1          1          1          1          1          1          1          1          1          1          1          1          1          1          1          1          1          1          1          1          1          1          1          1          1          1          1          1          1          1          1          1          1          1          1          1          1          1          1          1          1          1          1          1          1          1          1          1          1          1          1          1          1          1          1          1          1          1          1          1          1          1          1          1          1          1          1          1          1          1          1          1          1          1          1          1          1          1          1          1          1          1          1          1          1          1          1          1          1          1          1          1          1          1          1          1          1          1          1          1          1          1          1          1          1          1          1          1          1          1          1          1          1          1          1          1          1          1          1          1          1          1          1          1 </DataArray>
</CellData>
<PointData>
<DataArray type="Float64"                                    Name="u"                                                      NumberOfComponents=" 3" format="ascii">
             -0.000306566               0.000000000               0.999999987              -0.000343140              -0.000000000               0.999999987              -0.000359913              -0.000000000               0.999999987              -0.000369554               0.000000000               0.999999987              -0.000377050               0.000000000               0.999999987              -0.000384615               0.000000000               0.999999987              -0.000393307               0.000000000               0.999999987              -0.000403353               0.000000000               0.999999987              -0.000414678               0.000000000               0.999999987              -0.000427126               0.000000000               0.999999987              -0.000440498               0.000000000               0.999999987              -0.000454627               0.000000000               0.999999987              -0.000469489              -0.000000000               0.999999987              -0.000484957               0.000000000               0.999999987              -0.000500720               0.000000000               0.999999987              -0.000516384               0.000000000               0.999999987              -0.000531580               0.000000000               0.999999987              -0.000304797               0.000092619               0.999999987              -0.000339196               0.000078408               0.999999987              -0.000354644               0.000073075               0.999999987              -0.000363498               0.000072370               0.999999987              -0.000370579               0.000074285               0.999999987              -0.000377958               0.000077966               0.999999987              -0.000386463               0.000082786               0.999999987              -0.000396309               0.000088094               0.999999987              -0.000407416               0.000093562               0.999999987              -0.000419582               0.000099047               0.999999987              -0.000432697               0.000104244               0.999999987              -0.000446564               0.000109048               0.999999987              -0.000461042               0.000113565               0.999999987              -0.000475883               0.000117545               0.999999987              -0.000490825               0.000120503               0.999999987              -0.000505724               0.000122032               0.999999987              -0.000520241               0.000121461               0.999999987              -0.000299649               0.000184255               0.999999987              -0.000327665               0.000156136               0.999999987              -0.000339328               0.000146093               0.999999987              -0.000346136               0.000145268               0.999999987              -0.000352217               0.000149584               0.999999987              -0.000359061               0.000157184               0.999999987              -0.000367269               0.000166824               0.999999987              -0.000376833               0.000177422               0.999999987              -0.000387535               0.000188288               0.999999987              -0.000399186               0.000199065               0.999999987              -0.000411520               0.000209495               0.999999987              -0.000424414               0.000219434               0.999999987              -0.000437788               0.000228564               0.999999987              -0.000451296               0.000236525               0.999999987              -0.000464681               0.000242808               0.999999987              -0.000477763               0.000246958               0.999999987              -0.000490419               0.000248149               0.999999987              -0.000291298               0.000273964               0.999999987              -0.000309221               0.000232617               0.999999987              -0.000315496               0.000218984               0.999999987              -0.000319632               0.000218994               0.999999987              -0.000324506               0.000226406               0.999999987              -0.000330971               0.000238292               0.999999987              -0.000339038               0.000252874               0.999999987              -0.000348370               0.000268694               0.999999987              -0.000358709               0.000284762               0.999999987              -0.000369756               0.000300751               0.999999987              -0.000381358               0.000316403               0.999999987              -0.000393282               0.000331387               0.999999987              -0.000405292               0.000345059               0.999999987              -0.000417102               0.000357155               0.999999987              -0.000428554               0.000367228               0.999999987              -0.000439499               0.000374922               0.999999987              -0.000449784               0.000379715               0.999999987              -0.000279872               0.000360876               0.999999987              -0.000284816               0.000307474               0.999999987              -0.000285080               0.000291702               0.999999987              -0.000286742               0.000293622               0.999999987              -0.000290944               0.000304758               0.999999987              -0.000297436               0.000321227               0.999999987              -0.000305629               0.000340732               0.999999987              -0.000315042               0.000361568               0.999999987              -0.000325205               0.000382697               0.999999987              -0.000335865               0.000403812               0.999999987              -0.000346648               0.000424462               0.999999987              -0.000357250               0.000444106               0.999999987              -0.000367463               0.000462234               0.999999987              -0.000377109               0.000478589               0.999999987              -0.000386074               0.000493032               0.999999987              -0.000394332               0.000505252               0.999999987              -0.000401943               0.000515013               0.999999987              -0.000265503               0.000444207               0.999999987              -0.000255710               0.000380493               0.999999987              -0.000250482               0.000364080               0.999999987              -0.000250630               0.000368780               0.999999987              -0.000254966               0.000384018               0.999999987              -0.000262116               0.000405166               0.999999987              -0.000271051               0.000429335               0.999999987              -0.000280929               0.000454913               0.999999987              -0.000291107               0.000480814               0.999999987              -0.000301269               0.000506652               0.999999987              -0.000311002               0.000531800               0.999999987              -0.000320054               0.000555733               0.999999987              -0.000328240               0.000578112               0.999999987              -0.000335515               0.000598821               0.999999987              -0.000341943               0.000617851               0.999999987              -0.000347701               0.000634930               0.999999987              -0.000352903               0.000650460               0.999999987              -0.000248420               0.000523136               0.999999987              -0.000223335               0.000451637               0.999999987              -0.000214039               0.000435879               0.999999987              -0.000214090               0.000443731               0.999999987              -0.000219628               0.000463177               0.999999987              -0.000228261               0.000488673               0.999999987              -0.000238220               0.000517303               0.999999987              -0.000248585               0.000547251               0.999999987              -0.000258729               0.000577500               0.999999987              -0.000268236               0.000607518               0.999999987              -0.000276822               0.000636679               0.999999987              -0.000284152               0.000664514               0.999999987              -0.000290298               0.000690802               0.999999987              -0.000295455               0.000715533               0.999999987              -0.000299714               0.000738654               0.999999987              -0.000303126               0.000760239               0.999999987              -0.000305894               0.000780744               0.999999987              -0.000228971               0.000596777               0.999999987              -0.000189472               0.000520728               0.999999987              -0.000178092               0.000506435               0.999999987              -0.000179629               0.000517405               0.999999987              -0.000187350               0.000540726               0.999999987              -0.000197625               0.000570367               0.999999987              -0.000208547               0.000603152               0.999999987              -0.000219176               0.000637091               0.999999987              -0.000229003               0.000671300               0.999999987              -0.000237586               0.000705234               0.999999987              -0.000244675               0.000738046               0.999999987              -0.000250223               0.000769363               0.999999987              -0.000254417               0.000799045               0.999999987              -0.000257319               0.000827244               0.999999987              -0.000259043               0.000854024               0.999999987              -0.000259732               0.000879557               0.999999987              -0.000259755               0.000904301               0.999999987              -0.000208042               0.000663827               0.999999987              -0.000155560               0.000587579               0.999999987              -0.000144812               0.000574807               0.999999987              -0.000148954               0.000588568               0.999999987              -0.000159081               0.000615498               0.999999987              -0.000170910               0.000648966               0.999999987              -0.000182548               0.000685544               0.999999987              -0.000193160               0.000723251               0.999999987              -0.000202269               0.000761244               0.999999987              -0.000209481               0.000798681               0.999999987              -0.000214728               0.000834758               0.999999987              -0.000218130               0.000869175               0.999999987              -0.000219821               0.000901984               0.999999987              -0.000219973               0.000933407               0.999999987              -0.000218766               0.000963698               0.999999987              -0.000216803               0.000993073               0.999999987              -0.000214533               0.001021869               0.999999987              -0.000187002               0.000726683               0.999999987              -0.000128434               0.000659621               0.999999987              -0.000114786               0.000642244               0.999999987              -0.000117314               0.000650182               0.999999987              -0.000126154               0.000671689               0.999999987              -0.000137113               0.000700671               0.999999987              -0.000148195               0.000733538               0.999999987              -0.000158254               0.000768443               0.999999987              -0.000166774               0.000804349               0.999999987              -0.000173747               0.000840427               0.999999987              -0.000178939               0.000875970               0.999999987              -0.000182187               0.000910463               0.999999987              -0.000183641               0.000943774               0.999999987              -0.000183291               0.000975964               0.999999987              -0.000181364               0.001007231               0.999999987              -0.000178101               0.001037645               0.999999987              -0.000174229               0.001067495               0.999999987              -0.000163864               0.000783516               0.999999987              -0.000103900               0.000728704               0.999999987              -0.000087468               0.000710752               0.999999987              -0.000087708               0.000714529               0.999999987              -0.000094810               0.000731472               0.999999987              -0.000104520               0.000756314               0.999999987              -0.000114642               0.000785749               0.999999987              -0.000123978               0.000817887               0.999999987              -0.000131902               0.000851611               0.999999987              -0.000138317               0.000886010               0.999999987              -0.000143173               0.000920505               0.999999987              -0.000146101               0.000954593               0.999999987              -0.000147152               0.000987895               0.999999987              -0.000146289               0.001020430               0.999999987              -0.000143454               0.001052263               0.999999987              -0.000138832               0.001083528               0.999999987              -0.000132990               0.001114408               0.999999987              -0.000139137               0.000833160               0.999999987              -0.000081849               0.000792993               0.999999987              -0.000063736               0.000777473               0.999999987              -0.000061569               0.000779347               0.999999987              -0.000066542               0.000793055               0.999999987              -0.000074559               0.000814561               0.999999987              -0.000083307               0.000841085               0.999999987              -0.000091587               0.000870843               0.999999987              -0.000098775               0.000902644               0.999999987              -0.000104411               0.000935541               0.999999987              -0.000108546               0.000968953               0.999999987              -0.000111075               0.001002337               0.999999987              -0.000111570               0.001035381               0.999999987              -0.000109847               0.001068004               0.999999987              -0.000105965               0.001100210               0.999999987              -0.000099789               0.001132033               0.999999987              -0.000091440               0.001163691               0.999999987              -0.000112981               0.000874818               0.999999987              -0.000062250               0.000849985               0.999999987              -0.000044067               0.000839178               0.999999987              -0.000040062               0.000841281               0.999999987              -0.000042821               0.000853320               0.999999987              -0.000048722               0.000872653               0.999999987              -0.000055829               0.000897067               0.999999987              -0.000062736               0.000924981               0.999999987              -0.000068813               0.000955342               0.999999987              -0.000073682               0.000987205               0.999999987              -0.000077141               0.001019794               0.999999987              -0.000079072               0.001052705               0.999999987              -0.000078991               0.001085637               0.999999987              -0.000076523               0.001118377               0.999999987              -0.000071422               0.001151017               0.999999987              -0.000063498               0.001183536               0.999999987              -0.000052303               0.001216026               0.999999987              -0.000085664               0.000907796               0.999999987              -0.000044807               0.000897145               0.999999987              -0.000028546               0.000892218               0.999999987              -0.000023780               0.000896096               0.999999987              -0.000024652               0.000907941               0.999999987              -0.000028542               0.000926234               0.999999987              -0.000033742               0.000949455               0.999999987              -0.000039035               0.000976297               0.999999987              -0.000043812               0.001005723               0.999999987              -0.000047800               0.001037020               0.999999987              -0.000050613               0.001069427               0.999999987              -0.000051891               0.001102488               0.999999987              -0.000051347               0.001135860               0.999999987              -0.000048514               0.001169331               0.999999987              -0.000042832               0.001202794               0.999999987              -0.000033646               0.001236199               0.999999987              -0.000020166               0.001269650               0.999999987              -0.000057516               0.000931586               0.999999987              -0.000029041               0.000932283               0.999999987              -0.000016769               0.000932981               0.999999987              -0.000012494               0.000939308               0.999999987              -0.000012335               0.000951817               0.999999987              -0.000014477               0.000969920               0.999999987              -0.000017758               0.000992655               0.999999987              -0.000021410               0.001019084               0.999999987              -0.000024715               0.001048311               0.999999987              -0.000027544               0.001079614               0.999999987              -0.000029498               0.001112436               0.999999987              -0.000030270               0.001146283               0.999999987              -0.000029567               0.001180832               0.999999987              -0.000027047               0.001215806               0.999999987              -0.000021971               0.001250941               0.999999987              -0.000013388               0.001285992               0.999999987               0.000000028               0.001320856               0.999999987              -0.000028879               0.000945834               0.999999987              -0.000014313               0.000953875               0.999999987              -0.000007694               0.000958662               0.999999987              -0.000005137               0.000966992               0.999999987              -0.000004800               0.000980311               0.999999987              -0.000005655               0.000998535               0.999999987              -0.000007249               0.001021171               0.999999987              -0.000009107               0.001047510               0.999999987              -0.000010864               0.001076818               0.999999987              -0.000012284               0.001108496               0.999999987              -0.000013301               0.001141989               0.999999987              -0.000013648               0.001176863               0.999999987              -0.000013225               0.001212783               0.999999987              -0.000011690               0.001249427               0.999999987              -0.000008620               0.001286467               0.999999987              -0.000003290               0.001323464               0.999999987               0.000005311               0.001359994               0.999999987               0.000000000               0.000950560               0.999999987              -0.000000000               0.000961145               0.999999987              -0.000000000               0.000967408               0.999999987               0.000000000               0.000976467               0.999999987               0.000000000               0.000990176               0.999999987              -0.000000000               0.001008511               0.999999987              -0.000000000               0.001031059               0.999999987              -0.000000000               0.001057361               0.999999987               0.000000000               0.001086788               0.999999987              -0.000000000               0.001118629               0.999999987              -0.000000000               0.001152403               0.999999987               0.000000000               0.001187718               0.999999987              -0.000000000               0.001224317               0.999999987              -0.000000000               0.001261765               0.999999987              -0.000000000               0.001299682               0.999999987              -0.000000000               0.001337616               0.999999987              -0.000000000               0.001374902               0.999999987              -0.000306566               0.000000000               0.999999987              -0.000343140              -0.000000000               0.999999987              -0.000359913              -0.000000000               0.999999987              -0.000369554               0.000000000               0.999999987              -0.000377050               0.000000000               0.999999987              -0.000384615               0.000000000               0.999999987              -0.000393307               0.000000000               0.999999987              -0.000403353               0.000000000               0.999999987              -0.000414678               0.000000000               0.999999987              -0.000427126               0.000000000               0.999999987              -0.000440498               0.000000000               0.999999987              -0.000454627               0.000000000               0.999999987              -0.000469489              -0.000000000               0.999999987              -0.000484957               0.000000000               0.999999987              -0.000500720               0.000000000               0.999999987              -0.000516384               0.000000000               0.999999987              -0.000531580               0.000000000               0.999999987              -0.000304797              -0.000092619               0.999999987              -0.000339196              -0.000078408               0.999999987              -0.000354644              -0.000073075               0.999999987              -0.000363498              -0.000072370               0.999999987              -0.000370579              -0.000074285               0.999999987              -0.000377958              -0.000077966               0.999999987              -0.000386463              -0.000082786               0.999999987              -0.000396309              -0.000088094               0.999999987              -0.000407416              -0.000093562               0.999999987              -0.000419582              -0.000099047               0.999999987              -0.000432697              -0.000104244               0.999999987              -0.000446564              -0.000109048               0.999999987              -0.000461042              -0.000113565               0.999999987              -0.000475883              -0.000117545               0.999999987              -0.000490825              -0.000120503               0.999999987              -0.000505724              -0.000122032               0.999999987              -0.000520241              -0.000121461               0.999999987              -0.000299649              -0.000184255               0.999999987              -0.000327665              -0.000156136               0.999999987              -0.000339328              -0.000146093               0.999999987              -0.000346136              -0.000145268               0.999999987              -0.000352217              -0.000149584               0.999999987              -0.000359061              -0.000157184               0.999999987              -0.000367269              -0.000166824               0.999999987              -0.000376833              -0.000177422               0.999999987              -0.000387535              -0.000188288               0.999999987              -0.000399186              -0.000199065               0.999999987              -0.000411520              -0.000209495               0.999999987              -0.000424414              -0.000219434               0.999999987              -0.000437788              -0.000228564               0.999999987              -0.000451296              -0.000236525               0.999999987              -0.000464681              -0.000242808               0.999999987              -0.000477763              -0.000246958               0.999999987              -0.000490419              -0.000248149               0.999999987              -0.000291298              -0.000273964               0.999999987              -0.000309221              -0.000232617               0.999999987              -0.000315496              -0.000218984               0.999999987              -0.000319632              -0.000218994               0.999999987              -0.000324506              -0.000226406               0.999999987              -0.000330971              -0.000238292               0.999999987              -0.000339038              -0.000252874               0.999999987              -0.000348370              -0.000268694               0.999999987              -0.000358709              -0.000284762               0.999999987              -0.000369756              -0.000300751               0.999999987              -0.000381358              -0.000316403               0.999999987              -0.000393282              -0.000331387               0.999999987              -0.000405292              -0.000345059               0.999999987              -0.000417102              -0.000357155               0.999999987              -0.000428554              -0.000367228               0.999999987              -0.000439499              -0.000374922               0.999999987              -0.000449784              -0.000379715               0.999999987              -0.000279872              -0.000360876               0.999999987              -0.000284816              -0.000307474               0.999999987              -0.000285080              -0.000291702               0.999999987              -0.000286742              -0.000293622               0.999999987              -0.000290944              -0.000304758               0.999999987              -0.000297436              -0.000321227               0.999999987              -0.000305629              -0.000340732               0.999999987              -0.000315042              -0.000361568               0.999999987              -0.000325205              -0.000382697               0.999999987              -0.000335865              -0.000403812               0.999999987              -0.000346648              -0.000424462               0.999999987              -0.000357250              -0.000444106               0.999999987              -0.000367463              -0.000462234               0.999999987              -0.000377109              -0.000478589               0.999999987              -0.000386074              -0.000493032               0.999999987              -0.000394332              -0.000505252               0.999999987              -0.000401943              -0.000515013               0.999999987              -0.000265503              -0.000444207               0.999999987              -0.000255710              -0.000380493               0.999999987              -0.000250482              -0.000364080               0.999999987              -0.000250630              -0.000368780               0.999999987              -0.000254966              -0.000384018               0.999999987              -0.000262116              -0.000405166               0.999999987              -0.000271051              -0.000429335               0.999999987              -0.000280929              -0.000454913               0.999999987              -0.000291107              -0.000480814               0.999999987              -0.000301269              -0.000506652               0.999999987              -0.000311002              -0.000531800               0.999999987              -0.000320054              -0.000555733               0.999999987              -0.000328240              -0.000578112               0.999999987              -0.000335515              -0.000598821               0.999999987              -0.000341943              -0.000617851               0.999999987              -0.000347701              -0.000634930               0.999999987              -0.000352903              -0.000650460               0.999999987              -0.000248420              -0.000523136               0.999999987              -0.000223335              -0.000451637               0.999999987              -0.000214039              -0.000435879               0.999999987              -0.000214090              -0.000443731               0.999999987              -0.000219628              -0.000463177               0.999999987              -0.000228261              -0.000488673               0.999999987              -0.000238220              -0.000517303               0.999999987              -0.000248585              -0.000547251               0.999999987              -0.000258729              -0.000577500               0.999999987              -0.000268236              -0.000607518               0.999999987              -0.000276822              -0.000636679               0.999999987              -0.000284152              -0.000664514               0.999999987              -0.000290298              -0.000690802               0.999999987              -0.000295455              -0.000715533               0.999999987              -0.000299714              -0.000738654               0.999999987              -0.000303126              -0.000760239               0.999999987              -0.000305894              -0.000780744               0.999999987              -0.000228971              -0.000596777               0.999999987              -0.000189472              -0.000520728               0.999999987              -0.000178092              -0.000506435               0.999999987              -0.000179629              -0.000517405               0.999999987              -0.000187350              -0.000540726               0.999999987              -0.000197625              -0.000570367               0.999999987              -0.000208547              -0.000603152               0.999999987              -0.000219176              -0.000637091               0.999999987              -0.000229003              -0.000671300               0.999999987              -0.000237586              -0.000705234               0.999999987              -0.000244675              -0.000738046               0.999999987              -0.000250223              -0.000769363               0.999999987              -0.000254417              -0.000799045               0.999999987              -0.000257319              -0.000827244               0.999999987              -0.000259043              -0.000854024               0.999999987              -0.000259732              -0.000879557               0.999999987              -0.000259755              -0.000904301               0.999999987              -0.000208042              -0.000663827               0.999999987              -0.000155560              -0.000587579               0.999999987              -0.000144812              -0.000574807               0.999999987              -0.000148954              -0.000588568               0.999999987              -0.000159081              -0.000615498               0.999999987              -0.000170910              -0.000648966               0.999999987              -0.000182548              -0.000685544               0.999999987              -0.000193160              -0.000723251               0.999999987              -0.000202269              -0.000761244               0.999999987              -0.000209481              -0.000798681               0.999999987              -0.000214728              -0.000834758               0.999999987              -0.000218130              -0.000869175               0.999999987              -0.000219821              -0.000901984               0.999999987              -0.000219973              -0.000933407               0.999999987              -0.000218766              -0.000963698               0.999999987              -0.000216803              -0.000993073               0.999999987              -0.000214533              -0.001021869               0.999999987              -0.000187002              -0.000726683               0.999999987              -0.000128434              -0.000659621               0.999999987              -0.000114786              -0.000642244               0.999999987              -0.000117314              -0.000650182               0.999999987              -0.000126154              -0.000671689               0.999999987              -0.000137113              -0.000700671               0.999999987              -0.000148195              -0.000733538               0.999999987              -0.000158254              -0.000768443               0.999999987              -0.000166774              -0.000804349               0.999999987              -0.000173747              -0.000840427               0.999999987              -0.000178939              -0.000875970               0.999999987              -0.000182187              -0.000910463               0.999999987              -0.000183641              -0.000943774               0.999999987              -0.000183291              -0.000975964               0.999999987              -0.000181364              -0.001007231               0.999999987              -0.000178101              -0.001037645               0.999999987              -0.000174229              -0.001067495               0.999999987              -0.000163864              -0.000783516               0.999999987              -0.000103900              -0.000728704               0.999999987              -0.000087468              -0.000710752               0.999999987              -0.000087708              -0.000714529               0.999999987              -0.000094810              -0.000731472               0.999999987              -0.000104520              -0.000756314               0.999999987              -0.000114642              -0.000785749               0.999999987              -0.000123978              -0.000817887               0.999999987              -0.000131902              -0.000851611               0.999999987              -0.000138317              -0.000886010               0.999999987              -0.000143173              -0.000920505               0.999999987              -0.000146101              -0.000954593               0.999999987              -0.000147152              -0.000987895               0.999999987              -0.000146289              -0.001020430               0.999999987              -0.000143454              -0.001052263               0.999999987              -0.000138832              -0.001083528               0.999999987              -0.000132990              -0.001114408               0.999999987              -0.000139137              -0.000833160               0.999999987              -0.000081849              -0.000792993               0.999999987              -0.000063736              -0.000777473               0.999999987              -0.000061569              -0.000779347               0.999999987              -0.000066542              -0.000793055               0.999999987              -0.000074559              -0.000814561               0.999999987              -0.000083307              -0.000841085               0.999999987              -0.000091587              -0.000870843               0.999999987              -0.000098775              -0.000902644               0.999999987              -0.000104411              -0.000935541               0.999999987              -0.000108546              -0.000968953               0.999999987              -0.000111075              -0.001002337               0.999999987              -0.000111570              -0.001035381               0.999999987              -0.000109847              -0.001068004               0.999999987              -0.000105965              -0.001100210               0.999999987              -0.000099789              -0.001132033               0.999999987              -0.000091440              -0.001163691               0.999999987              -0.000112981              -0.000874818               0.999999987              -0.000062250              -0.000849985               0.999999987              -0.000044067              -0.000839178               0.999999987              -0.000040062              -0.000841281               0.999999987              -0.000042821              -0.000853320               0.999999987              -0.000048722              -0.000872653               0.999999987              -0.000055829              -0.000897067               0.999999987              -0.000062736              -0.000924981               0.999999987              -0.000068813              -0.000955342               0.999999987              -0.000073682              -0.000987205               0.999999987              -0.000077141              -0.001019794               0.999999987              -0.000079072              -0.001052705               0.999999987              -0.000078991              -0.001085637               0.999999987              -0.000076523              -0.001118377               0.999999987              -0.000071422              -0.001151017               0.999999987              -0.000063498              -0.001183536               0.999999987              -0.000052303              -0.001216026               0.999999987              -0.000085664              -0.000907796               0.999999987              -0.000044807              -0.000897145               0.999999987              -0.000028546              -0.000892218               0.999999987              -0.000023780              -0.000896096               0.999999987              -0.000024652              -0.000907941               0.999999987              -0.000028542              -0.000926234               0.999999987              -0.000033742              -0.000949455               0.999999987              -0.000039035              -0.000976297               0.999999987              -0.000043812              -0.001005723               0.999999987              -0.000047800              -0.001037020               0.999999987              -0.000050613              -0.001069427               0.999999987              -0.000051891              -0.001102488               0.999999987              -0.000051347              -0.001135860               0.999999987              -0.000048514              -0.001169331               0.999999987              -0.000042832              -0.001202794               0.999999987              -0.000033646              -0.001236199               0.999999987              -0.000020166              -0.001269650               0.999999987              -0.000057516              -0.000931586               0.999999987              -0.000029041              -0.000932283               0.999999987              -0.000016769              -0.000932981               0.999999987              -0.000012494              -0.000939308               0.999999987              -0.000012335              -0.000951817               0.999999987              -0.000014477              -0.000969920               0.999999987              -0.000017758              -0.000992655               0.999999987              -0.000021410              -0.001019084               0.999999987              -0.000024715              -0.001048311               0.999999987              -0.000027544              -0.001079614               0.999999987              -0.000029498              -0.001112436               0.999999987              -0.000030270              -0.001146283               0.999999987              -0.000029567              -0.001180832               0.999999987              -0.000027047              -0.001215806               0.999999987              -0.000021971              -0.001250941               0.999999987              -0.000013388              -0.001285992               0.999999987               0.000000028              -0.001320856               0.999999987              -0.000028879              -0.000945834               0.999999987              -0.000014313              -0.000953875               0.999999987              -0.000007694              -0.000958662               0.999999987              -0.000005137              -0.000966992               0.999999987              -0.000004800              -0.000980311               0.999999987              -0.000005655              -0.000998535               0.999999987              -0.000007249              -0.001021171               0.999999987              -0.000009107              -0.001047510               0.999999987              -0.000010864              -0.001076818               0.999999987              -0.000012284              -0.001108496               0.999999987              -0.000013301              -0.001141989               0.999999987              -0.000013648              -0.001176863               0.999999987              -0.000013225              -0.001212783               0.999999987              -0.000011690              -0.001249427               0.999999987              -0.000008620              -0.001286467               0.999999987              -0.000003290              -0.001323464               0.999999987               0.000005311              -0.001359994               0.999999987               0.000000000              -0.000950560               0.999999987              -0.000000000              -0.000961145               0.999999987               0.000000000              -0.000967408               0.999999987               0.000000000              -0.000976467               0.999999987               0.000000000              -0.000990176               0.999999987               0.000000000              -0.001008511               0.999999987               0.000000000              -0.001031059               0.999999987               0.000000000              -0.001057361               0.999999987              -0.000000000              -0.001086788               0.999999987               0.000000000              -0.001118629               0.999999987              -0.000000000              -0.001152403               0.999999987               0.000000000              -0.001187718               0.999999987              -0.000000000              -0.001224317               0.999999987              -0.000000000              -0.001261765               0.999999987               0.000000000              -0.001299682               0.999999987              -0.000000000              -0.001337616               0.999999987              -0.000000000              -0.001374902               0.999999987               0.000306566              -0.000000000               0.999999987               0.000343140               0.000000000               0.999999987               0.000359913              -0.000000000               0.999999987               0.000369554               0.000000000               0.999999987               0.000377050               0.000000000               0.999999987               0.000384615               0.000000000               0.999999987               0.000393307              -0.000000000               0.999999987               0.000403353              -0.000000000               0.999999987               0.000414678               0.000000000               0.999999987               0.000427126               0.000000000               0.999999987               0.000440498              -0.000000000               0.999999987               0.000454627              -0.000000000               0.999999987               0.000469489               0.000000000               0.999999987               0.000484957               0.000000000               0.999999987               0.000500720              -0.000000000               0.999999987               0.000516384               0.000000000               0.999999987               0.000531580               0.000000000               0.999999987               0.000304797              -0.000092619               0.999999987               0.000339196              -0.000078408               0.999999987               0.000354644              -0.000073075               0.999999987               0.000363498              -0.000072370               0.999999987               0.000370579              -0.000074285               0.999999987               0.000377958              -0.000077966               0.999999987               0.000386463              -0.000082786               0.999999987               0.000396309              -0.000088094               0.999999987               0.000407416              -0.000093562               0.999999987               0.000419582              -0.000099047               0.999999987               0.000432697              -0.000104244               0.999999987               0.000446564              -0.000109048               0.999999987               0.000461042              -0.000113565               0.999999987               0.000475883              -0.000117545               0.999999987               0.000490825              -0.000120503               0.999999987               0.000505724              -0.000122032               0.999999987               0.000520241              -0.000121461               0.999999987               0.000299649              -0.000184255               0.999999987               0.000327665              -0.000156136               0.999999987               0.000339328              -0.000146093               0.999999987               0.000346136              -0.000145268               0.999999987               0.000352217              -0.000149584               0.999999987               0.000359061              -0.000157184               0.999999987               0.000367269              -0.000166824               0.999999987               0.000376833              -0.000177422               0.999999987               0.000387535              -0.000188288               0.999999987               0.000399186              -0.000199065               0.999999987               0.000411520              -0.000209495               0.999999987               0.000424414              -0.000219434               0.999999987               0.000437788              -0.000228564               0.999999987               0.000451296              -0.000236525               0.999999987               0.000464681              -0.000242808               0.999999987               0.000477763              -0.000246958               0.999999987               0.000490419              -0.000248149               0.999999987               0.000291298              -0.000273964               0.999999987               0.000309221              -0.000232617               0.999999987               0.000315496              -0.000218984               0.999999987               0.000319632              -0.000218994               0.999999987               0.000324506              -0.000226406               0.999999987               0.000330971              -0.000238292               0.999999987               0.000339038              -0.000252874               0.999999987               0.000348370              -0.000268694               0.999999987               0.000358709              -0.000284762               0.999999987               0.000369756              -0.000300751               0.999999987               0.000381358              -0.000316403               0.999999987               0.000393282              -0.000331387               0.999999987               0.000405292              -0.000345059               0.999999987               0.000417102              -0.000357155               0.999999987               0.000428554              -0.000367228               0.999999987               0.000439499              -0.000374922               0.999999987               0.000449784              -0.000379715               0.999999987               0.000279872              -0.000360876               0.999999987               0.000284816              -0.000307474               0.999999987               0.000285080              -0.000291702               0.999999987               0.000286742              -0.000293622               0.999999987               0.000290944              -0.000304758               0.999999987               0.000297436              -0.000321227               0.999999987               0.000305629              -0.000340732               0.999999987               0.000315042              -0.000361568               0.999999987               0.000325205              -0.000382697               0.999999987               0.000335865              -0.000403812               0.999999987               0.000346648              -0.000424462               0.999999987               0.000357250              -0.000444106               0.999999987               0.000367463              -0.000462234               0.999999987               0.000377109              -0.000478589               0.999999987               0.000386074              -0.000493032               0.999999987               0.000394332              -0.000505252               0.999999987               0.000401943              -0.000515013               0.999999987               0.000265503              -0.000444207               0.999999987               0.000255710              -0.000380493               0.999999987               0.000250482              -0.000364080               0.999999987               0.000250630              -0.000368780               0.999999987               0.000254966              -0.000384018               0.999999987               0.000262116              -0.000405166               0.999999987               0.000271051              -0.000429335               0.999999987               0.000280929              -0.000454913               0.999999987               0.000291107              -0.000480814               0.999999987               0.000301269              -0.000506652               0.999999987               0.000311002              -0.000531800               0.999999987               0.000320054              -0.000555733               0.999999987               0.000328240              -0.000578112               0.999999987               0.000335515              -0.000598821               0.999999987               0.000341943              -0.000617851               0.999999987               0.000347701              -0.000634930               0.999999987               0.000352903              -0.000650460               0.999999987               0.000248420              -0.000523136               0.999999987               0.000223335              -0.000451637               0.999999987               0.000214039              -0.000435879               0.999999987               0.000214090              -0.000443731               0.999999987               0.000219628              -0.000463177               0.999999987               0.000228261              -0.000488673               0.999999987               0.000238220              -0.000517303               0.999999987               0.000248585              -0.000547251               0.999999987               0.000258729              -0.000577500               0.999999987               0.000268236              -0.000607518               0.999999987               0.000276822              -0.000636679               0.999999987               0.000284152              -0.000664514               0.999999987               0.000290298              -0.000690802               0.999999987               0.000295455              -0.000715533               0.999999987               0.000299714              -0.000738654               0.999999987               0.000303126              -0.000760239               0.999999987               0.000305894              -0.000780744               0.999999987               0.000228971              -0.000596777               0.999999987               0.000189472              -0.000520728               0.999999987               0.000178092              -0.000506435               0.999999987               0.000179629              -0.000517405               0.999999987               0.000187350              -0.000540726               0.999999987               0.000197625              -0.000570367               0.999999987               0.000208547              -0.000603152               0.999999987               0.000219176              -0.000637091               0.999999987               0.000229003              -0.000671300               0.999999987               0.000237586              -0.000705234               0.999999987               0.000244675              -0.000738046               0.999999987               0.000250223              -0.000769363               0.999999987               0.000254417              -0.000799045               0.999999987               0.000257319              -0.000827244               0.999999987               0.000259043              -0.000854024               0.999999987               0.000259732              -0.000879557               0.999999987               0.000259755              -0.000904301               0.999999987               0.000208042              -0.000663827               0.999999987               0.000155560              -0.000587579               0.999999987               0.000144812              -0.000574807               0.999999987               0.000148954              -0.000588568               0.999999987               0.000159081              -0.000615498               0.999999987               0.000170910              -0.000648966               0.999999987               0.000182548              -0.000685544               0.999999987               0.000193160              -0.000723251               0.999999987               0.000202269              -0.000761244               0.999999987               0.000209481              -0.000798681               0.999999987               0.000214728              -0.000834758               0.999999987               0.000218130              -0.000869175               0.999999987               0.000219821              -0.000901984               0.999999987               0.000219973              -0.000933407               0.999999987               0.000218766              -0.000963698               0.999999987               0.000216803              -0.000993073               0.999999987               0.000214533              -0.001021869               0.999999987               0.000187002              -0.000726683               0.999999987               0.000128434              -0.000659621               0.999999987               0.000114786              -0.000642244               0.999999987               0.000117314              -0.000650182               0.999999987               0.000126154              -0.000671689               0.999999987               0.000137113              -0.000700671               0.999999987               0.000148195              -0.000733538               0.999999987               0.000158254              -0.000768443               0.999999987               0.000166774              -0.000804349               0.999999987               0.000173747              -0.000840427               0.999999987               0.000178939              -0.000875970               0.999999987               0.000182187              -0.000910463               0.999999987               0.000183641              -0.000943774               0.999999987               0.000183291              -0.000975964               0.999999987               0.000181364              -0.001007231               0.999999987               0.000178101              -0.001037645               0.999999987               0.000174229              -0.001067495               0.999999987               0.000163864              -0.000783516               0.999999987               0.000103900              -0.000728704               0.999999987               0.000087468              -0.000710752               0.999999987               0.000087708              -0.000714529               0.999999987               0.000094810              -0.000731472               0.999999987               0.000104520              -0.000756314               0.999999987               0.000114642              -0.000785749               0.999999987               0.000123978              -0.000817887               0.999999987               0.000131902              -0.000851611               0.999999987               0.000138317              -0.000886010               0.999999987               0.000143173              -0.000920505               0.999999987               0.000146101              -0.000954593               0.999999987               0.000147152              -0.000987895               0.999999987               0.000146289              -0.001020430               0.999999987               0.000143454              -0.001052263               0.999999987               0.000138832              -0.001083528               0.999999987               0.000132990              -0.001114408               0.999999987               0.000139137              -0.000833160               0.999999987               0.000081849              -0.000792993               0.999999987               0.000063736              -0.000777473               0.999999987               0.000061569              -0.000779347               0.999999987               0.000066542              -0.000793055               0.999999987               0.000074559              -0.000814561               0.999999987               0.000083307              -0.000841085               0.999999987               0.000091587              -0.000870843               0.999999987               0.000098775              -0.000902644               0.999999987               0.000104411              -0.000935541               0.999999987               0.000108546              -0.000968953               0.999999987               0.000111075              -0.001002337               0.999999987               0.000111570              -0.001035381               0.999999987               0.000109847              -0.001068004               0.999999987               0.000105965              -0.001100210               0.999999987               0.000099789              -0.001132033               0.999999987               0.000091440              -0.001163691               0.999999987               0.000112981              -0.000874818               0.999999987               0.000062250              -0.000849985               0.999999987               0.000044067              -0.000839178               0.999999987               0.000040062              -0.000841281               0.999999987               0.000042821              -0.000853320               0.999999987               0.000048722              -0.000872653               0.999999987               0.000055829              -0.000897067               0.999999987               0.000062736              -0.000924981               0.999999987               0.000068813              -0.000955342               0.999999987               0.000073682              -0.000987205               0.999999987               0.000077141              -0.001019794               0.999999987               0.000079072              -0.001052705               0.999999987               0.000078991              -0.001085637               0.999999987               0.000076523              -0.001118377               0.999999987               0.000071422              -0.001151017               0.999999987               0.000063498              -0.001183536               0.999999987               0.000052303              -0.001216026               0.999999987               0.000085664              -0.000907796               0.999999987               0.000044807              -0.000897145               0.999999987               0.000028546              -0.000892218               0.999999987               0.000023780              -0.000896096               0.999999987               0.000024652              -0.000907941               0.999999987               0.000028542              -0.000926234               0.999999987               0.000033742              -0.000949455               0.999999987               0.000039035              -0.000976297               0.999999987               0.000043812              -0.001005723               0.999999987               0.000047800              -0.001037020               0.999999987               0.000050613              -0.001069427               0.999999987               0.000051891              -0.001102488               0.999999987               0.000051347              -0.001135860               0.999999987               0.000048514              -0.001169331               0.999999987               0.000042832              -0.001202794               0.999999987               0.000033646              -0.001236199               0.999999987               0.000020166              -0.001269650               0.999999987               0.000057516              -0.000931586               0.999999987               0.000029041              -0.000932283               0.999999987               0.000016769              -0.000932981               0.999999987               0.000012494              -0.000939308               0.999999987               0.000012335              -0.000951817               0.999999987               0.000014477              -0.000969920               0.999999987               0.000017758              -0.000992655               0.999999987               0.000021410              -0.001019084               0.999999987               0.000024715              -0.001048311               0.999999987               0.000027544              -0.001079614               0.999999987               0.000029498              -0.001112436               0.999999987               0.000030270              -0.001146283               0.999999987               0.000029567              -0.001180832               0.999999987               0.000027047              -0.001215806               0.999999987               0.000021971              -0.001250941               0.999999987               0.000013388              -0.001285992               0.999999987              -0.000000028              -0.001320856               0.999999987               0.000028879              -0.000945834               0.999999987               0.000014313              -0.000953875               0.999999987               0.000007694              -0.000958662               0.999999987               0.000005137              -0.000966992               0.999999987               0.000004800              -0.000980311               0.999999987               0.000005655              -0.000998535               0.999999987               0.000007249              -0.001021171               0.999999987               0.000009107              -0.001047510               0.999999987               0.000010864              -0.001076818               0.999999987               0.000012284              -0.001108496               0.999999987               0.000013301              -0.001141989               0.999999987               0.000013648              -0.001176863               0.999999987               0.000013225              -0.001212783               0.999999987               0.000011690              -0.001249427               0.999999987               0.000008620              -0.001286467               0.999999987               0.000003290              -0.001323464               0.999999987              -0.000005311              -0.001359994               0.999999987               0.000000000              -0.000950560               0.999999987              -0.000000000              -0.000961145               0.999999987               0.000000000              -0.000967408               0.999999987               0.000000000              -0.000976467               0.999999987               0.000000000              -0.000990176               0.999999987               0.000000000              -0.001008511               0.999999987               0.000000000              -0.001031059               0.999999987               0.000000000              -0.001057361               0.999999987              -0.000000000              -0.001086788               0.999999987               0.000000000              -0.001118629               0.999999987              -0.000000000              -0.001152403               0.999999987               0.000000000              -0.001187718               0.999999987              -0.000000000              -0.001224317               0.999999987              -0.000000000              -0.001261765               0.999999987               0.000000000              -0.001299682               0.999999987              -0.000000000              -0.001337616               0.999999987              -0.000000000              -0.001374902               0.999999987               0.000306566              -0.000000000               0.999999987               0.000343140               0.000000000               0.999999987               0.000359913              -0.000000000               0.999999987               0.000369554               0.000000000               0.999999987               0.000377050               0.000000000               0.999999987               0.000384615               0.000000000               0.999999987               0.000393307              -0.000000000               0.999999987               0.000403353              -0.000000000               0.999999987               0.000414678               0.000000000               0.999999987               0.000427126               0.000000000               0.999999987               0.000440498              -0.000000000               0.999999987               0.000454627              -0.000000000               0.999999987               0.000469489               0.000000000               0.999999987               0.000484957               0.000000000               0.999999987               0.000500720              -0.000000000               0.999999987               0.000516384               0.000000000               0.999999987               0.000531580               0.000000000               0.999999987               0.000304797               0.000092619               0.999999987               0.000339196               0.000078408               0.999999987               0.000354644               0.000073075               0.999999987               0.000363498               0.000072370               0.999999987               0.000370579               0.000074285               0.999999987               0.000377958               0.000077966               0.999999987               0.000386463               0.000082786               0.999999987               0.000396309               0.000088094               0.999999987               0.000407416               0.000093562               0.999999987               0.000419582               0.000099047               0.999999987               0.000432697               0.000104244               0.999999987               0.000446564               0.000109048               0.999999987               0.000461042               0.000113565               0.999999987               0.000475883               0.000117545               0.999999987               0.000490825               0.000120503               0.999999987               0.000505724               0.000122032               0.999999987               0.000520241               0.000121461               0.999999987               0.000299649               0.000184255               0.999999987               0.000327665               0.000156136               0.999999987               0.000339328               0.000146093               0.999999987               0.000346136               0.000145268               0.999999987               0.000352217               0.000149584               0.999999987               0.000359061               0.000157184               0.999999987               0.000367269               0.000166824               0.999999987               0.000376833               0.000177422               0.999999987               0.000387535               0.000188288               0.999999987               0.000399186               0.000199065               0.999999987               0.000411520               0.000209495               0.999999987               0.000424414               0.000219434               0.999999987               0.000437788               0.000228564               0.999999987               0.000451296               0.000236525               0.999999987               0.000464681               0.000242808               0.999999987               0.000477763               0.000246958               0.999999987               0.000490419               0.000248149               0.999999987               0.000291298               0.000273964               0.999999987               0.000309221               0.000232617               0.999999987               0.000315496               0.000218984               0.999999987               0.000319632               0.000218994               0.999999987               0.000324506               0.000226406               0.999999987               0.000330971               0.000238292               0.999999987               0.000339038               0.000252874               0.999999987               0.000348370               0.000268694               0.999999987               0.000358709               0.000284762               0.999999987               0.000369756               0.000300751               0.999999987               0.000381358               0.000316403               0.999999987               0.000393282               0.000331387               0.999999987               0.000405292               0.000345059               0.999999987               0.000417102               0.000357155               0.999999987               0.000428554               0.000367228               0.999999987               0.000439499               0.000374922               0.999999987               0.000449784               0.000379715               0.999999987               0.000279872               0.000360876               0.999999987               0.000284816               0.000307474               0.999999987               0.000285080               0.000291702               0.999999987               0.000286742               0.000293622               0.999999987               0.000290944               0.000304758               0.999999987               0.000297436               0.000321227               0.999999987               0.000305629               0.000340732               0.999999987               0.000315042               0.000361568               0.999999987               0.000325205               0.000382697               0.999999987               0.000335865               0.000403812               0.999999987               0.000346648               0.000424462               0.999999987               0.000357250               0.000444106               0.999999987               0.000367463               0.000462234               0.999999987               0.000377109               0.000478589               0.999999987               0.000386074               0.000493032               0.999999987               0.000394332               0.000505252               0.999999987               0.000401943               0.000515013               0.999999987               0.000265503               0.000444207               0.999999987               0.000255710               0.000380493               0.999999987               0.000250482               0.000364080               0.999999987               0.000250630               0.000368780               0.999999987               0.000254966               0.000384018               0.999999987               0.000262116               0.000405166               0.999999987               0.000271051               0.000429335               0.999999987               0.000280929               0.000454913               0.999999987               0.000291107               0.000480814               0.999999987               0.000301269               0.000506652               0.999999987               0.000311002               0.000531800               0.999999987               0.000320054               0.000555733               0.999999987               0.000328240               0.000578112               0.999999987               0.000335515               0.000598821               0.999999987               0.000341943               0.000617851               0.999999987               0.000347701               0.000634930               0.999999987               0.000352903               0.000650460               0.999999987               0.000248420               0.000523136               0.999999987               0.000223335               0.000451637               0.999999987               0.000214039               0.000435879               0.999999987               0.000214090               0.000443731               0.999999987               0.000219628               0.000463177               0.999999987               0.000228261               0.000488673               0.999999987               0.000238220               0.000517303               0.999999987               0.000248585               0.000547251               0.999999987               0.000258729               0.000577500               0.999999987               0.000268236               0.000607518               0.999999987               0.000276822               0.000636679               0.999999987               0.000284152               0.000664514               0.999999987               0.000290298               0.000690802               0.999999987               0.000295455               0.000715533               0.999999987               0.000299714               0.000738654               0.999999987               0.000303126               0.000760239               0.999999987               0.000305894               0.000780744               0.999999987               0.000228971               0.000596777               0.999999987               0.000189472               0.000520728               0.999999987               0.000178092               0.000506435               0.999999987               0.000179629               0.000517405               0.999999987               0.000187350               0.000540726               0.999999987               0.000197625               0.000570367               0.999999987               0.000208547               0.000603152               0.999999987               0.000219176               0.000637091               0.999999987               0.000229003               0.000671300               0.999999987               0.000237586               0.000705234               0.999999987               0.000244675               0.000738046               0.999999987               0.000250223               0.000769363               0.999999987               0.000254417               0.000799045               0.999999987               0.000257319               0.000827244               0.999999987               0.000259043               0.000854024               0.999999987               0.000259732               0.000879557               0.999999987               0.000259755               0.000904301               0.999999987               0.000208042               0.000663827               0.999999987               0.000155560               0.000587579               0.999999987               0.000144812               0.000574807               0.999999987               0.000148954               0.000588568               0.999999987               0.000159081               0.000615498               0.999999987               0.000170910               0.000648966               0.999999987               0.000182548               0.000685544               0.999999987               0.000193160               0.000723251               0.999999987               0.000202269               0.000761244               0.999999987               0.000209481               0.000798681               0.999999987               0.000214728               0.000834758               0.999999987               0.000218130               0.000869175               0.999999987               0.000219821               0.000901984               0.999999987               0.000219973               0.000933407               0.999999987               0.000218766               0.000963698               0.999999987               0.000216803               0.000993073               0.999999987               0.000214533               0.001021869               0.999999987               0.000187002               0.000726683               0.999999987               0.000128434               0.000659621               0.999999987               0.000114786               0.000642244               0.999999987               0.000117314               0.000650182               0.999999987               0.000126154               0.000671689               0.999999987               0.000137113               0.000700671               0.999999987               0.000148195               0.000733538               0.999999987               0.000158254               0.000768443               0.999999987               0.000166774               0.000804349               0.999999987               0.000173747               0.000840427               0.999999987               0.000178939               0.000875970               0.999999987               0.000182187               0.000910463               0.999999987               0.000183641               0.000943774               0.999999987               0.000183291               0.000975964               0.999999987               0.000181364               0.001007231               0.999999987               0.000178101               0.001037645               0.999999987               0.000174229               0.001067495               0.999999987               0.000163864               0.000783516               0.999999987               0.000103900               0.000728704               0.999999987               0.000087468               0.000710752               0.999999987               0.000087708               0.000714529               0.999999987               0.000094810               0.000731472               0.999999987               0.000104520               0.000756314               0.999999987               0.000114642               0.000785749               0.999999987               0.000123978               0.000817887               0.999999987               0.000131902               0.000851611               0.999999987               0.000138317               0.000886010               0.999999987               0.000143173               0.000920505               0.999999987               0.000146101               0.000954593               0.999999987               0.000147152               0.000987895               0.999999987               0.000146289               0.001020430               0.999999987               0.000143454               0.001052263               0.999999987               0.000138832               0.001083528               0.999999987               0.000132990               0.001114408               0.999999987               0.000139137               0.000833160               0.999999987               0.000081849               0.000792993               0.999999987               0.000063736               0.000777473               0.999999987               0.000061569               0.000779347               0.999999987               0.000066542               0.000793055               0.999999987               0.000074559               0.000814561               0.999999987               0.000083307               0.000841085               0.999999987               0.000091587               0.000870843               0.999999987               0.000098775               0.000902644               0.999999987               0.000104411               0.000935541               0.999999987               0.000108546               0.000968953               0.999999987               0.000111075               0.001002337               0.999999987               0.000111570               0.001035381               0.999999987               0.000109847               0.001068004               0.999999987               0.000105965               0.001100210               0.999999987               0.000099789               0.001132033               0.999999987               0.000091440               0.001163691               0.999999987               0.000112981               0.000874818               0.999999987               0.000062250               0.000849985               0.999999987               0.000044067               0.000839178               0.999999987               0.000040062               0.000841281               0.999999987               0.000042821               0.000853320               0.999999987               0.000048722               0.000872653               0.999999987               0.000055829               0.000897067               0.999999987               0.000062736               0.000924981               0.999999987               0.000068813               0.000955342               0.999999987               0.000073682               0.000987205               0.999999987               0.000077141               0.001019794               0.999999987               0.000079072               0.001052705               0.999999987               0.000078991               0.001085637               0.999999987               0.000076523               0.001118377               0.999999987               0.000071422               0.001151017               0.999999987               0.000063498               0.001183536               0.999999987               0.000052303               0.001216026               0.999999987               0.000085664               0.000907796               0.999999987               0.000044807               0.000897145               0.999999987               0.000028546               0.000892218               0.999999987               0.000023780               0.000896096               0.999999987               0.000024652               0.000907941               0.999999987               0.000028542               0.000926234               0.999999987               0.000033742               0.000949455               0.999999987               0.000039035               0.000976297               0.999999987               0.000043812               0.001005723               0.999999987               0.000047800               0.001037020               0.999999987               0.000050613               0.001069427               0.999999987               0.000051891               0.001102488               0.999999987               0.000051347               0.001135860               0.999999987               0.000048514               0.001169331               0.999999987               0.000042832               0.001202794               0.999999987               0.000033646               0.001236199               0.999999987               0.000020166               0.001269650               0.999999987               0.000057516               0.000931586               0.999999987               0.000029041               0.000932283               0.999999987               0.000016769               0.000932981               0.999999987               0.000012494               0.000939308               0.999999987               0.000012335               0.000951817               0.999999987               0.000014477               0.000969920               0.999999987               0.000017758               0.000992655               0.999999987               0.000021410               0.001019084               0.999999987               0.000024715               0.001048311               0.999999987               0.000027544               0.001079614               0.999999987               0.000029498               0.001112436               0.999999987               0.000030270               0.001146283               0.999999987               0.000029567               0.001180832               0.999999987               0.000027047               0.001215806               0.999999987               0.000021971               0.001250941               0.999999987               0.000013388               0.001285992               0.999999987              -0.000000028               0.001320856               0.999999987               0.000028879               0.000945834               0.999999987               0.000014313               0.000953875               0.999999987               0.000007694               0.000958662               0.999999987               0.000005137               0.000966992               0.999999987               0.000004800               0.000980311               0.999999987               0.000005655               0.000998535               0.999999987               0.000007249               0.001021171               0.999999987               0.000009107               0.001047510               0.999999987               0.000010864               0.001076818               0.999999987               0.000012284               0.001108496               0.999999987               0.000013301               0.001141989               0.999999987               0.000013648               0.001176863               0.999999987               0.000013225               0.001212783               0.999999987               0.000011690               0.001249427               0.999999987               0.000008620               0.001286467               0.999999987               0.000003290               0.001323464               0.999999987              -0.000005311               0.001359994               0.999999987               0.000000000               0.000950560               0.999999987              -0.000000000               0.000961145               0.999999987              -0.000000000               0.000967408               0.999999987               0.000000000               0.000976467               0.999999987               0.000000000               0.000990176               0.999999987              -0.000000000               0.001008511               0.999999987              -0.000000000               0.001031059               0.999999987              -0.000000000               0.001057361               0.999999987               0.000000000               0.001086788               0.999999987              -0.000000000               0.001118629               0.999999987              -0.000000000               0.001152403               0.999999987               0.000000000               0.001187718               0.999999987              -0.000000000               0.001224317               0.999999987              -0.000000000               0.001261765               0.999999987              -0.000000000               0.001299682               0.999999987              -0.000000000               0.001337616               0.999999987              -0.000000000               0.001374902               0.999999987 </DataArray>
<DataArray type="Float64"                                    Name="defo"                                                      NumberOfComponents=" 3" format="ascii">
             -0.000306566               0.000000000               0.999999987              -0.000343140              -0.000000000               0.999999987              -0.000359913              -0.000000000               0.999999987              -0.000369554               0.000000000               0.999999987              -0.000377050               0.000000000               0.999999987              -0.000384615               0.000000000               0.999999987              -0.000393307               0.000000000               0.999999987              -0.000403353               0.000000000               0.999999987              -0.000414678               0.000000000               0.999999987              -0.000427126               0.000000000               0.999999987              -0.000440498               0.000000000               0.999999987              -0.000454627               0.000000000               0.999999987              -0.000469489              -0.000000000               0.999999987              -0.000484957               0.000000000               0.999999987              -0.000500720               0.000000000               0.999999987              -0.000516384               0.000000000               0.999999987              -0.000531580               0.000000000               0.999999987              -0.000304797               0.000092619               0.999999987              -0.000339196               0.000078408               0.999999987              -0.000354644               0.000073075               0.999999987              -0.000363498               0.000072370               0.999999987              -0.000370579               0.000074285               0.999999987              -0.000377958               0.000077966               0.999999987              -0.000386463               0.000082786               0.999999987              -0.000396309               0.000088094               0.999999987              -0.000407416               0.000093562               0.999999987              -0.000419582               0.000099047               0.999999987              -0.000432697               0.000104244               0.999999987              -0.000446564               0.000109048               0.999999987              -0.000461042               0.000113565               0.999999987              -0.000475883               0.000117545               0.999999987              -0.000490825               0.000120503               0.999999987              -0.000505724               0.000122032               0.999999987              -0.000520241               0.000121461               0.999999987              -0.000299649               0.000184255               0.999999987              -0.000327665               0.000156136               0.999999987              -0.000339328               0.000146093               0.999999987              -0.000346136               0.000145268               0.999999987              -0.000352217               0.000149584               0.999999987              -0.000359061               0.000157184               0.999999987              -0.000367269               0.000166824               0.999999987              -0.000376833               0.000177422               0.999999987              -0.000387535               0.000188288               0.999999987              -0.000399186               0.000199065               0.999999987              -0.000411520               0.000209495               0.999999987              -0.000424414               0.000219434               0.999999987              -0.000437788               0.000228564               0.999999987              -0.000451296               0.000236525               0.999999987              -0.000464681               0.000242808               0.999999987              -0.000477763               0.000246958               0.999999987              -0.000490419               0.000248149               0.999999987              -0.000291298               0.000273964               0.999999987              -0.000309221               0.000232617               0.999999987              -0.000315496               0.000218984               0.999999987              -0.000319632               0.000218994               0.999999987              -0.000324506               0.000226406               0.999999987              -0.000330971               0.000238292               0.999999987              -0.000339038               0.000252874               0.999999987              -0.000348370               0.000268694               0.999999987              -0.000358709               0.000284762               0.999999987              -0.000369756               0.000300751               0.999999987              -0.000381358               0.000316403               0.999999987              -0.000393282               0.000331387               0.999999987              -0.000405292               0.000345059               0.999999987              -0.000417102               0.000357155               0.999999987              -0.000428554               0.000367228               0.999999987              -0.000439499               0.000374922               0.999999987              -0.000449784               0.000379715               0.999999987              -0.000279872               0.000360876               0.999999987              -0.000284816               0.000307474               0.999999987              -0.000285080               0.000291702               0.999999987              -0.000286742               0.000293622               0.999999987              -0.000290944               0.000304758               0.999999987              -0.000297436               0.000321227               0.999999987              -0.000305629               0.000340732               0.999999987              -0.000315042               0.000361568               0.999999987              -0.000325205               0.000382697               0.999999987              -0.000335865               0.000403812               0.999999987              -0.000346648               0.000424462               0.999999987              -0.000357250               0.000444106               0.999999987              -0.000367463               0.000462234               0.999999987              -0.000377109               0.000478589               0.999999987              -0.000386074               0.000493032               0.999999987              -0.000394332               0.000505252               0.999999987              -0.000401943               0.000515013               0.999999987              -0.000265503               0.000444207               0.999999987              -0.000255710               0.000380493               0.999999987              -0.000250482               0.000364080               0.999999987              -0.000250630               0.000368780               0.999999987              -0.000254966               0.000384018               0.999999987              -0.000262116               0.000405166               0.999999987              -0.000271051               0.000429335               0.999999987              -0.000280929               0.000454913               0.999999987              -0.000291107               0.000480814               0.999999987              -0.000301269               0.000506652               0.999999987              -0.000311002               0.000531800               0.999999987              -0.000320054               0.000555733               0.999999987              -0.000328240               0.000578112               0.999999987              -0.000335515               0.000598821               0.999999987              -0.000341943               0.000617851               0.999999987              -0.000347701               0.000634930               0.999999987              -0.000352903               0.000650460               0.999999987              -0.000248420               0.000523136               0.999999987              -0.000223335               0.000451637               0.999999987              -0.000214039               0.000435879               0.999999987              -0.000214090               0.000443731               0.999999987              -0.000219628               0.000463177               0.999999987              -0.000228261               0.000488673               0.999999987              -0.000238220               0.000517303               0.999999987              -0.000248585               0.000547251               0.999999987              -0.000258729               0.000577500               0.999999987              -0.000268236               0.000607518               0.999999987              -0.000276822               0.000636679               0.999999987              -0.000284152               0.000664514               0.999999987              -0.000290298               0.000690802               0.999999987              -0.000295455               0.000715533               0.999999987              -0.000299714               0.000738654               0.999999987              -0.000303126               0.000760239               0.999999987              -0.000305894               0.000780744               0.999999987              -0.000228971               0.000596777               0.999999987              -0.000189472               0.000520728               0.999999987              -0.000178092               0.000506435               0.999999987              -0.000179629               0.000517405               0.999999987              -0.000187350               0.000540726               0.999999987              -0.000197625               0.000570367               0.999999987              -0.000208547               0.000603152               0.999999987              -0.000219176               0.000637091               0.999999987              -0.000229003               0.000671300               0.999999987              -0.000237586               0.000705234               0.999999987              -0.000244675               0.000738046               0.999999987              -0.000250223               0.000769363               0.999999987              -0.000254417               0.000799045               0.999999987              -0.000257319               0.000827244               0.999999987              -0.000259043               0.000854024               0.999999987              -0.000259732               0.000879557               0.999999987              -0.000259755               0.000904301               0.999999987              -0.000208042               0.000663827               0.999999987              -0.000155560               0.000587579               0.999999987              -0.000144812               0.000574807               0.999999987              -0.000148954               0.000588568               0.999999987              -0.000159081               0.000615498               0.999999987              -0.000170910               0.000648966               0.999999987              -0.000182548               0.000685544               0.999999987              -0.000193160               0.000723251               0.999999987              -0.000202269               0.000761244               0.999999987              -0.000209481               0.000798681               0.999999987              -0.000214728               0.000834758               0.999999987              -0.000218130               0.000869175               0.999999987              -0.000219821               0.000901984               0.999999987              -0.000219973               0.000933407               0.999999987              -0.000218766               0.000963698               0.999999987              -0.000216803               0.000993073               0.999999987              -0.000214533               0.001021869               0.999999987              -0.000187002               0.000726683               0.999999987              -0.000128434               0.000659621               0.999999987              -0.000114786               0.000642244               0.999999987              -0.000117314               0.000650182               0.999999987              -0.000126154               0.000671689               0.999999987              -0.000137113               0.000700671               0.999999987              -0.000148195               0.000733538               0.999999987              -0.000158254               0.000768443               0.999999987              -0.000166774               0.000804349               0.999999987              -0.000173747               0.000840427               0.999999987              -0.000178939               0.000875970               0.999999987              -0.000182187               0.000910463               0.999999987              -0.000183641               0.000943774               0.999999987              -0.000183291               0.000975964               0.999999987              -0.000181364               0.001007231               0.999999987              -0.000178101               0.001037645               0.999999987              -0.000174229               0.001067495               0.999999987              -0.000163864               0.000783516               0.999999987              -0.000103900               0.000728704               0.999999987              -0.000087468               0.000710752               0.999999987              -0.000087708               0.000714529               0.999999987              -0.000094810               0.000731472               0.999999987              -0.000104520               0.000756314               0.999999987              -0.000114642               0.000785749               0.999999987              -0.000123978               0.000817887               0.999999987              -0.000131902               0.000851611               0.999999987              -0.000138317               0.000886010               0.999999987              -0.000143173               0.000920505               0.999999987              -0.000146101               0.000954593               0.999999987              -0.000147152               0.000987895               0.999999987              -0.000146289               0.001020430               0.999999987              -0.000143454               0.001052263               0.999999987              -0.000138832               0.001083528               0.999999987              -0.000132990               0.001114408               0.999999987              -0.000139137               0.000833160               0.999999987              -0.000081849               0.000792993               0.999999987              -0.000063736               0.000777473               0.999999987              -0.000061569               0.000779347               0.999999987              -0.000066542               0.000793055               0.999999987              -0.000074559               0.000814561               0.999999987              -0.000083307               0.000841085               0.999999987              -0.000091587               0.000870843               0.999999987              -0.000098775               0.000902644               0.999999987              -0.000104411               0.000935541               0.999999987              -0.000108546               0.000968953               0.999999987              -0.000111075               0.001002337               0.999999987              -0.000111570               0.001035381               0.999999987              -0.000109847               0.001068004               0.999999987              -0.000105965               0.001100210               0.999999987              -0.000099789               0.001132033               0.999999987              -0.000091440               0.001163691               0.999999987              -0.000112981               0.000874818               0.999999987              -0.000062250               0.000849985               0.999999987              -0.000044067               0.000839178               0.999999987              -0.000040062               0.000841281               0.999999987              -0.000042821               0.000853320               0.999999987              -0.000048722               0.000872653               0.999999987              -0.000055829               0.000897067               0.999999987              -0.000062736               0.000924981               0.999999987              -0.000068813               0.000955342               0.999999987              -0.000073682               0.000987205               0.999999987              -0.000077141               0.001019794               0.999999987              -0.000079072               0.001052705               0.999999987              -0.000078991               0.001085637               0.999999987              -0.000076523               0.001118377               0.999999987              -0.000071422               0.001151017               0.999999987              -0.000063498               0.001183536               0.999999987              -0.000052303               0.001216026               0.999999987              -0.000085664               0.000907796               0.999999987              -0.000044807               0.000897145               0.999999987              -0.000028546               0.000892218               0.999999987              -0.000023780               0.000896096               0.999999987              -0.000024652               0.000907941               0.999999987              -0.000028542               0.000926234               0.999999987              -0.000033742               0.000949455               0.999999987              -0.000039035               0.000976297               0.999999987              -0.000043812               0.001005723               0.999999987              -0.000047800               0.001037020               0.999999987              -0.000050613               0.001069427               0.999999987              -0.000051891               0.001102488               0.999999987              -0.000051347               0.001135860               0.999999987              -0.000048514               0.001169331               0.999999987              -0.000042832               0.001202794               0.999999987              -0.000033646               0.001236199               0.999999987              -0.000020166               0.001269650               0.999999987              -0.000057516               0.000931586               0.999999987              -0.000029041               0.000932283               0.999999987              -0.000016769               0.000932981               0.999999987              -0.000012494               0.000939308               0.999999987              -0.000012335               0.000951817               0.999999987              -0.000014477               0.000969920               0.999999987              -0.000017758               0.000992655               0.999999987              -0.000021410               0.001019084               0.999999987              -0.000024715               0.001048311               0.999999987              -0.000027544               0.001079614               0.999999987              -0.000029498               0.001112436               0.999999987              -0.000030270               0.001146283               0.999999987              -0.000029567               0.001180832               0.999999987              -0.000027047               0.001215806               0.999999987              -0.000021971               0.001250941               0.999999987              -0.000013388               0.001285992               0.999999987               0.000000028               0.001320856               0.999999987              -0.000028879               0.000945834               0.999999987              -0.000014313               0.000953875               0.999999987              -0.000007694               0.000958662               0.999999987              -0.000005137               0.000966992               0.999999987              -0.000004800               0.000980311               0.999999987              -0.000005655               0.000998535               0.999999987              -0.000007249               0.001021171               0.999999987              -0.000009107               0.001047510               0.999999987              -0.000010864               0.001076818               0.999999987              -0.000012284               0.001108496               0.999999987              -0.000013301               0.001141989               0.999999987              -0.000013648               0.001176863               0.999999987              -0.000013225               0.001212783               0.999999987              -0.000011690               0.001249427               0.999999987              -0.000008620               0.001286467               0.999999987              -0.000003290               0.001323464               0.999999987               0.000005311               0.001359994               0.999999987               0.000000000               0.000950560               0.999999987              -0.000000000               0.000961145               0.999999987              -0.000000000               0.000967408               0.999999987               0.000000000               0.000976467               0.999999987               0.000000000               0.000990176               0.999999987              -0.000000000               0.001008511               0.999999987              -0.000000000               0.001031059               0.999999987              -0.000000000               0.001057361               0.999999987               0.000000000               0.001086788               0.999999987              -0.000000000               0.001118629               0.999999987              -0.000000000               0.001152403               0.999999987               0.000000000               0.001187718               0.999999987              -0.000000000               0.001224317               0.999999987              -0.000000000               0.001261765               0.999999987              -0.000000000               0.001299682               0.999999987              -0.000000000               0.001337616               0.999999987              -0.000000000               0.001374902               0.999999987              -0.000306566               0.000000000               0.999999987              -0.000343140              -0.000000000               0.999999987              -0.000359913              -0.000000000               0.999999987              -0.000369554               0.000000000               0.999999987              -0.000377050               0.000000000               0.999999987              -0.000384615               0.000000000               0.999999987              -0.000393307               0.000000000               0.999999987              -0.000403353               0.000000000               0.999999987              -0.000414678               0.000000000               0.999999987              -0.000427126               0.000000000               0.999999987              -0.000440498               0.000000000               0.999999987              -0.000454627               0.000000000               0.999999987              -0.000469489              -0.000000000               0.999999987              -0.000484957               0.000000000               0.999999987              -0.000500720               0.000000000               0.999999987              -0.000516384               0.000000000               0.999999987              -0.000531580               0.000000000               0.999999987              -0.000304797              -0.000092619               0.999999987              -0.000339196              -0.000078408               0.999999987              -0.000354644              -0.000073075               0.999999987              -0.000363498              -0.000072370               0.999999987              -0.000370579              -0.000074285               0.999999987              -0.000377958              -0.000077966               0.999999987              -0.000386463              -0.000082786               0.999999987              -0.000396309              -0.000088094               0.999999987              -0.000407416              -0.000093562               0.999999987              -0.000419582              -0.000099047               0.999999987              -0.000432697              -0.000104244               0.999999987              -0.000446564              -0.000109048               0.999999987              -0.000461042              -0.000113565               0.999999987              -0.000475883              -0.000117545               0.999999987              -0.000490825              -0.000120503               0.999999987              -0.000505724              -0.000122032               0.999999987              -0.000520241              -0.000121461               0.999999987              -0.000299649              -0.000184255               0.999999987              -0.000327665              -0.000156136               0.999999987              -0.000339328              -0.000146093               0.999999987              -0.000346136              -0.000145268               0.999999987              -0.000352217              -0.000149584               0.999999987              -0.000359061              -0.000157184               0.999999987              -0.000367269              -0.000166824               0.999999987              -0.000376833              -0.000177422               0.999999987              -0.000387535              -0.000188288               0.999999987              -0.000399186              -0.000199065               0.999999987              -0.000411520              -0.000209495               0.999999987              -0.000424414              -0.000219434               0.999999987              -0.000437788              -0.000228564               0.999999987              -0.000451296              -0.000236525               0.999999987              -0.000464681              -0.000242808               0.999999987              -0.000477763              -0.000246958               0.999999987              -0.000490419              -0.000248149               0.999999987              -0.000291298              -0.000273964               0.999999987              -0.000309221              -0.000232617               0.999999987              -0.000315496              -0.000218984               0.999999987              -0.000319632              -0.000218994               0.999999987              -0.000324506              -0.000226406               0.999999987              -0.000330971              -0.000238292               0.999999987              -0.000339038              -0.000252874               0.999999987              -0.000348370              -0.000268694               0.999999987              -0.000358709              -0.000284762               0.999999987              -0.000369756              -0.000300751               0.999999987              -0.000381358              -0.000316403               0.999999987              -0.000393282              -0.000331387               0.999999987              -0.000405292              -0.000345059               0.999999987              -0.000417102              -0.000357155               0.999999987              -0.000428554              -0.000367228               0.999999987              -0.000439499              -0.000374922               0.999999987              -0.000449784              -0.000379715               0.999999987              -0.000279872              -0.000360876               0.999999987              -0.000284816              -0.000307474               0.999999987              -0.000285080              -0.000291702               0.999999987              -0.000286742              -0.000293622               0.999999987              -0.000290944              -0.000304758               0.999999987              -0.000297436              -0.000321227               0.999999987              -0.000305629              -0.000340732               0.999999987              -0.000315042              -0.000361568               0.999999987              -0.000325205              -0.000382697               0.999999987              -0.000335865              -0.000403812               0.999999987              -0.000346648              -0.000424462               0.999999987              -0.000357250              -0.000444106               0.999999987              -0.000367463              -0.000462234               0.999999987              -0.000377109              -0.000478589               0.999999987              -0.000386074              -0.000493032               0.999999987              -0.000394332              -0.000505252               0.999999987              -0.000401943              -0.000515013               0.999999987              -0.000265503              -0.000444207               0.999999987              -0.000255710              -0.000380493               0.999999987              -0.000250482              -0.000364080               0.999999987              -0.000250630              -0.000368780               0.999999987              -0.000254966              -0.000384018               0.999999987              -0.000262116              -0.000405166               0.999999987              -0.000271051              -0.000429335               0.999999987              -0.000280929              -0.000454913               0.999999987              -0.000291107              -0.000480814               0.999999987              -0.000301269              -0.000506652               0.999999987              -0.000311002              -0.000531800               0.999999987              -0.000320054              -0.000555733               0.999999987              -0.000328240              -0.000578112               0.999999987              -0.000335515              -0.000598821               0.999999987              -0.000341943              -0.000617851               0.999999987              -0.000347701              -0.000634930               0.999999987              -0.000352903              -0.000650460               0.999999987              -0.000248420              -0.000523136               0.999999987              -0.000223335              -0.000451637               0.999999987              -0.000214039              -0.000435879               0.999999987              -0.000214090              -0.000443731               0.999999987              -0.000219628              -0.000463177               0.999999987              -0.000228261              -0.000488673               0.999999987              -0.000238220              -0.000517303               0.999999987              -0.000248585              -0.000547251               0.999999987              -0.000258729              -0.000577500               0.999999987              -0.000268236              -0.000607518               0.999999987              -0.000276822              -0.000636679               0.999999987              -0.000284152              -0.000664514               0.999999987              -0.000290298              -0.000690802               0.999999987              -0.000295455              -0.000715533               0.999999987              -0.000299714              -0.000738654               0.999999987              -0.000303126              -0.000760239               0.999999987              -0.000305894              -0.000780744               0.999999987              -0.000228971              -0.000596777               0.999999987              -0.000189472              -0.000520728               0.999999987              -0.000178092              -0.000506435               0.999999987              -0.000179629              -0.000517405               0.999999987              -0.000187350              -0.000540726               0.999999987              -0.000197625              -0.000570367               0.999999987              -0.000208547              -0.000603152               0.999999987              -0.000219176              -0.000637091               0.999999987              -0.000229003              -0.000671300               0.999999987              -0.000237586              -0.000705234               0.999999987              -0.000244675              -0.000738046               0.999999987              -0.000250223              -0.000769363               0.999999987              -0.000254417              -0.000799045               0.999999987              -0.000257319              -0.000827244               0.999999987              -0.000259043              -0.000854024               0.999999987              -0.000259732              -0.000879557               0.999999987              -0.000259755              -0.000904301               0.999999987              -0.000208042              -0.000663827               0.999999987              -0.000155560              -0.000587579               0.999999987              -0.000144812              -0.000574807               0.999999987              -0.000148954              -0.000588568               0.999999987              -0.000159081              -0.000615498               0.999999987              -0.000170910              -0.000648966               0.999999987              -0.000182548              -0.000685544               0.999999987              -0.000193160              -0.000723251               0.999999987              -0.000202269              -0.000761244               0.999999987              -0.000209481              -0.000798681               0.999999987              -0.000214728              -0.000834758               0.999999987              -0.000218130              -0.000869175               0.999999987              -0.000219821              -0.000901984               0.999999987              -0.000219973              -0.000933407               0.999999987              -0.000218766              -0.000963698               0.999999987              -0.000216803              -0.000993073               0.999999987              -0.000214533              -0.001021869               0.999999987              -0.000187002              -0.000726683               0.999999987              -0.000128434              -0.000659621               0.999999987              -0.000114786              -0.000642244               0.999999987              -0.000117314              -0.000650182               0.999999987              -0.000126154              -0.000671689               0.999999987              -0.000137113              -0.000700671               0.999999987              -0.000148195              -0.000733538               0.999999987              -0.000158254              -0.000768443               0.999999987              -0.000166774              -0.000804349               0.999999987              -0.000173747              -0.000840427               0.999999987              -0.000178939              -0.000875970               0.999999987              -0.000182187              -0.000910463               0.999999987              -0.000183641              -0.000943774               0.999999987              -0.000183291              -0.000975964               0.999999987              -0.000181364              -0.001007231               0.999999987              -0.000178101              -0.001037645               0.999999987              -0.000174229              -0.001067495               0.999999987              -0.000163864              -0.000783516               0.999999987              -0.000103900              -0.000728704               0.999999987              -0.000087468              -0.000710752               0.999999987              -0.000087708              -0.000714529               0.999999987              -0.000094810              -0.000731472               0.999999987              -0.000104520              -0.000756314               0.999999987              -0.000114642              -0.000785749               0.999999987              -0.000123978              -0.000817887               0.999999987              -0.000131902              -0.000851611               0.999999987              -0.000138317              -0.000886010               0.999999987              -0.000143173              -0.000920505               0.999999987              -0.000146101              -0.000954593               0.999999987              -0.000147152              -0.000987895               0.999999987              -0.000146289              -0.001020430               0.999999987              -0.000143454              -0.001052263               0.999999987              -0.000138832              -0.001083528               0.999999987              -0.000132990              -0.001114408               0.999999987              -0.000139137              -0.000833160               0.999999987              -0.000081849              -0.000792993               0.999999987              -0.000063736              -0.000777473               0.999999987              -0.000061569              -0.000779347               0.999999987              -0.000066542              -0.000793055               0.999999987              -0.000074559              -0.000814561               0.999999987              -0.000083307              -0.000841085               0.999999987              -0.000091587              -0.000870843               0.999999987              -0.000098775              -0.000902644               0.999999987              -0.000104411              -0.000935541               0.999999987              -0.000108546              -0.000968953               0.999999987              -0.000111075              -0.001002337               0.999999987              -0.000111570              -0.001035381               0.999999987              -0.000109847              -0.001068004               0.999999987              -0.000105965              -0.001100210               0.999999987              -0.000099789              -0.001132033               0.999999987              -0.000091440              -0.001163691               0.999999987              -0.000112981              -0.000874818               0.999999987              -0.000062250              -0.000849985               0.999999987              -0.000044067              -0.000839178               0.999999987              -0.000040062              -0.000841281               0.999999987              -0.000042821              -0.000853320               0.999999987              -0.000048722              -0.000872653               0.999999987              -0.000055829              -0.000897067               0.999999987              -0.000062736              -0.000924981               0.999999987              -0.000068813              -0.000955342               0.999999987              -0.000073682              -0.000987205               0.999999987              -0.000077141              -0.001019794               0.999999987              -0.000079072              -0.001052705               0.999999987              -0.000078991              -0.001085637               0.999999987              -0.000076523              -0.001118377               0.999999987              -0.000071422              -0.001151017               0.999999987              -0.000063498              -0.001183536               0.999999987              -0.000052303              -0.001216026               0.999999987              -0.000085664              -0.000907796               0.999999987              -0.000044807              -0.000897145               0.999999987              -0.000028546              -0.000892218               0.999999987              -0.000023780              -0.000896096               0.999999987              -0.000024652              -0.000907941               0.999999987              -0.000028542              -0.000926234               0.999999987              -0.000033742              -0.000949455               0.999999987              -0.000039035              -0.000976297               0.999999987              -0.000043812              -0.001005723               0.999999987              -0.000047800              -0.001037020               0.999999987              -0.000050613              -0.001069427               0.999999987              -0.000051891              -0.001102488               0.999999987              -0.000051347              -0.001135860               0.999999987              -0.000048514              -0.001169331               0.999999987              -0.000042832              -0.001202794               0.999999987              -0.000033646              -0.001236199               0.999999987              -0.000020166              -0.001269650               0.999999987              -0.000057516              -0.000931586               0.999999987              -0.000029041              -0.000932283               0.999999987              -0.000016769              -0.000932981               0.999999987              -0.000012494              -0.000939308               0.999999987              -0.000012335              -0.000951817               0.999999987              -0.000014477              -0.000969920               0.999999987              -0.000017758              -0.000992655               0.999999987              -0.000021410              -0.001019084               0.999999987              -0.000024715              -0.001048311               0.999999987              -0.000027544              -0.001079614               0.999999987              -0.000029498              -0.001112436               0.999999987              -0.000030270              -0.001146283               0.999999987              -0.000029567              -0.001180832               0.999999987              -0.000027047              -0.001215806               0.999999987              -0.000021971              -0.001250941               0.999999987              -0.000013388              -0.001285992               0.999999987               0.000000028              -0.001320856               0.999999987              -0.000028879              -0.000945834               0.999999987              -0.000014313              -0.000953875               0.999999987              -0.000007694              -0.000958662               0.999999987              -0.000005137              -0.000966992               0.999999987              -0.000004800              -0.000980311               0.999999987              -0.000005655              -0.000998535               0.999999987              -0.000007249              -0.001021171               0.999999987              -0.000009107              -0.001047510               0.999999987              -0.000010864              -0.001076818               0.999999987              -0.000012284              -0.001108496               0.999999987              -0.000013301              -0.001141989               0.999999987              -0.000013648              -0.001176863               0.999999987              -0.000013225              -0.001212783               0.999999987              -0.000011690              -0.001249427               0.999999987              -0.000008620              -0.001286467               0.999999987              -0.000003290              -0.001323464               0.999999987               0.000005311              -0.001359994               0.999999987               0.000000000              -0.000950560               0.999999987              -0.000000000              -0.000961145               0.999999987               0.000000000              -0.000967408               0.999999987               0.000000000              -0.000976467               0.999999987               0.000000000              -0.000990176               0.999999987               0.000000000              -0.001008511               0.999999987               0.000000000              -0.001031059               0.999999987               0.000000000              -0.001057361               0.999999987              -0.000000000              -0.001086788               0.999999987               0.000000000              -0.001118629               0.999999987              -0.000000000              -0.001152403               0.999999987               0.000000000              -0.001187718               0.999999987              -0.000000000              -0.001224317               0.999999987              -0.000000000              -0.001261765               0.999999987               0.000000000              -0.001299682               0.999999987              -0.000000000              -0.001337616               0.999999987              -0.000000000              -0.001374902               0.999999987               0.000306566              -0.000000000               0.999999987               0.000343140               0.000000000               0.999999987               0.000359913              -0.000000000               0.999999987               0.000369554               0.000000000               0.999999987               0.000377050               0.000000000               0.999999987               0.000384615               0.000000000               0.999999987               0.000393307              -0.000000000               0.999999987               0.000403353              -0.000000000               0.999999987               0.000414678               0.000000000               0.999999987               0.000427126               0.000000000               0.999999987               0.000440498              -0.000000000               0.999999987               0.000454627              -0.000000000               0.999999987               0.000469489               0.000000000               0.999999987               0.000484957               0.000000000               0.999999987               0.000500720              -0.000000000               0.999999987               0.000516384               0.000000000               0.999999987               0.000531580               0.000000000               0.999999987               0.000304797              -0.000092619               0.999999987               0.000339196              -0.000078408               0.999999987               0.000354644              -0.000073075               0.999999987               0.000363498              -0.000072370               0.999999987               0.000370579              -0.000074285               0.999999987               0.000377958              -0.000077966               0.999999987               0.000386463              -0.000082786               0.999999987               0.000396309              -0.000088094               0.999999987               0.000407416              -0.000093562               0.999999987               0.000419582              -0.000099047               0.999999987               0.000432697              -0.000104244               0.999999987               0.000446564              -0.000109048               0.999999987               0.000461042              -0.000113565               0.999999987               0.000475883              -0.000117545               0.999999987               0.000490825              -0.000120503               0.999999987               0.000505724              -0.000122032               0.999999987               0.000520241              -0.000121461               0.999999987               0.000299649              -0.000184255               0.999999987               0.000327665              -0.000156136               0.999999987               0.000339328              -0.000146093               0.999999987               0.000346136              -0.000145268               0.999999987               0.000352217              -0.000149584               0.999999987               0.000359061              -0.000157184               0.999999987               0.000367269              -0.000166824               0.999999987               0.000376833              -0.000177422               0.999999987               0.000387535              -0.000188288               0.999999987               0.000399186              -0.000199065               0.999999987               0.000411520              -0.000209495               0.999999987               0.000424414              -0.000219434               0.999999987               0.000437788              -0.000228564               0.999999987               0.000451296              -0.000236525               0.999999987               0.000464681              -0.000242808               0.999999987               0.000477763              -0.000246958               0.999999987               0.000490419              -0.000248149               0.999999987               0.000291298              -0.000273964               0.999999987               0.000309221              -0.000232617               0.999999987               0.000315496              -0.000218984               0.999999987               0.000319632              -0.000218994               0.999999987               0.000324506              -0.000226406               0.999999987               0.000330971              -0.000238292               0.999999987               0.000339038              -0.000252874               0.999999987               0.000348370              -0.000268694               0.999999987               0.000358709              -0.000284762               0.999999987               0.000369756              -0.000300751               0.999999987               0.000381358              -0.000316403               0.999999987               0.000393282              -0.000331387               0.999999987               0.000405292              -0.000345059               0.999999987               0.000417102              -0.000357155               0.999999987               0.000428554              -0.000367228               0.999999987               0.000439499              -0.000374922               0.999999987               0.000449784              -0.000379715               0.999999987               0.000279872              -0.000360876               0.999999987               0.000284816              -0.000307474               0.999999987               0.000285080              -0.000291702               0.999999987               0.000286742              -0.000293622               0.999999987               0.000290944              -0.000304758               0.999999987               0.000297436              -0.000321227               0.999999987               0.000305629              -0.000340732               0.999999987               0.000315042              -0.000361568               0.999999987               0.000325205              -0.000382697               0.999999987               0.000335865              -0.000403812               0.999999987               0.000346648              -0.000424462               0.999999987               0.000357250              -0.000444106               0.999999987               0.000367463              -0.000462234               0.999999987               0.000377109              -0.000478589               0.999999987               0.000386074              -0.000493032               0.999999987               0.000394332              -0.000505252               0.999999987               0.000401943              -0.000515013               0.999999987               0.000265503              -0.000444207               0.999999987               0.000255710              -0.000380493               0.999999987               0.000250482              -0.000364080               0.999999987               0.000250630              -0.000368780               0.999999987               0.000254966              -0.000384018               0.999999987               0.000262116              -0.000405166               0.999999987               0.000271051              -0.000429335               0.999999987               0.000280929              -0.000454913               0.999999987               0.000291107              -0.000480814               0.999999987               0.000301269              -0.000506652               0.999999987               0.000311002              -0.000531800               0.999999987               0.000320054              -0.000555733               0.999999987               0.000328240              -0.000578112               0.999999987               0.000335515              -0.000598821               0.999999987               0.000341943              -0.000617851               0.999999987               0.000347701              -0.000634930               0.999999987               0.000352903              -0.000650460               0.999999987               0.000248420              -0.000523136               0.999999987               0.000223335              -0.000451637               0.999999987               0.000214039              -0.000435879               0.999999987               0.000214090              -0.000443731               0.999999987               0.000219628              -0.000463177               0.999999987               0.000228261              -0.000488673               0.999999987               0.000238220              -0.000517303               0.999999987               0.000248585              -0.000547251               0.999999987               0.000258729              -0.000577500               0.999999987               0.000268236              -0.000607518               0.999999987               0.000276822              -0.000636679               0.999999987               0.000284152              -0.000664514               0.999999987               0.000290298              -0.000690802               0.999999987               0.000295455              -0.000715533               0.999999987               0.000299714              -0.000738654               0.999999987               0.000303126              -0.000760239               0.999999987               0.000305894              -0.000780744               0.999999987               0.000228971              -0.000596777               0.999999987               0.000189472              -0.000520728               0.999999987               0.000178092              -0.000506435               0.999999987               0.000179629              -0.000517405               0.999999987               0.000187350              -0.000540726               0.999999987               0.000197625              -0.000570367               0.999999987               0.000208547              -0.000603152               0.999999987               0.000219176              -0.000637091               0.999999987               0.000229003              -0.000671300               0.999999987               0.000237586              -0.000705234               0.999999987               0.000244675              -0.000738046               0.999999987               0.000250223              -0.000769363               0.999999987               0.000254417              -0.000799045               0.999999987               0.000257319              -0.000827244               0.999999987               0.000259043              -0.000854024               0.999999987               0.000259732              -0.000879557               0.999999987               0.000259755              -0.000904301               0.999999987               0.000208042              -0.000663827               0.999999987               0.000155560              -0.000587579               0.999999987               0.000144812              -0.000574807               0.999999987               0.000148954              -0.000588568               0.999999987               0.000159081              -0.000615498               0.999999987               0.000170910              -0.000648966               0.999999987               0.000182548              -0.000685544               0.999999987               0.000193160              -0.000723251               0.999999987               0.000202269              -0.000761244               0.999999987               0.000209481              -0.000798681               0.999999987               0.000214728              -0.000834758               0.999999987               0.000218130              -0.000869175               0.999999987               0.000219821              -0.000901984               0.999999987               0.000219973              -0.000933407               0.999999987               0.000218766              -0.000963698               0.999999987               0.000216803              -0.000993073               0.999999987               0.000214533              -0.001021869               0.999999987               0.000187002              -0.000726683               0.999999987               0.000128434              -0.000659621               0.999999987               0.000114786              -0.000642244               0.999999987               0.000117314              -0.000650182               0.999999987               0.000126154              -0.000671689               0.999999987               0.000137113              -0.000700671               0.999999987               0.000148195              -0.000733538               0.999999987               0.000158254              -0.000768443               0.999999987               0.000166774              -0.000804349               0.999999987               0.000173747              -0.000840427               0.999999987               0.000178939              -0.000875970               0.999999987               0.000182187              -0.000910463               0.999999987               0.000183641              -0.000943774               0.999999987               0.000183291              -0.000975964               0.999999987               0.000181364              -0.001007231               0.999999987               0.000178101              -0.001037645               0.999999987               0.000174229              -0.001067495               0.999999987               0.000163864              -0.000783516               0.999999987               0.000103900              -0.000728704               0.999999987               0.000087468              -0.000710752               0.999999987               0.000087708              -0.000714529               0.999999987               0.000094810              -0.000731472               0.999999987               0.000104520              -0.000756314               0.999999987               0.000114642              -0.000785749               0.999999987               0.000123978              -0.000817887               0.999999987               0.000131902              -0.000851611               0.999999987               0.000138317              -0.000886010               0.999999987               0.000143173              -0.000920505               0.999999987               0.000146101              -0.000954593               0.999999987               0.000147152              -0.000987895               0.999999987               0.000146289              -0.001020430               0.999999987               0.000143454              -0.001052263               0.999999987               0.000138832              -0.001083528               0.999999987               0.000132990              -0.001114408               0.999999987               0.000139137              -0.000833160               0.999999987               0.000081849              -0.000792993               0.999999987               0.000063736              -0.000777473               0.999999987               0.000061569              -0.000779347               0.999999987               0.000066542              -0.000793055               0.999999987               0.000074559              -0.000814561               0.999999987               0.000083307              -0.000841085               0.999999987               0.000091587              -0.000870843               0.999999987               0.000098775              -0.000902644               0.999999987               0.000104411              -0.000935541               0.999999987               0.000108546              -0.000968953               0.999999987               0.000111075              -0.001002337               0.999999987               0.000111570              -0.001035381               0.999999987               0.000109847              -0.001068004               0.999999987               0.000105965              -0.001100210               0.999999987               0.000099789              -0.001132033               0.999999987               0.000091440              -0.001163691               0.999999987               0.000112981              -0.000874818               0.999999987               0.000062250              -0.000849985               0.999999987               0.000044067              -0.000839178               0.999999987               0.000040062              -0.000841281               0.999999987               0.000042821              -0.000853320               0.999999987               0.000048722              -0.000872653               0.999999987               0.000055829              -0.000897067               0.999999987               0.000062736              -0.000924981               0.999999987               0.000068813              -0.000955342               0.999999987               0.000073682              -0.000987205               0.999999987               0.000077141              -0.001019794               0.999999987               0.000079072              -0.001052705               0.999999987               0.000078991              -0.001085637               0.999999987               0.000076523              -0.001118377               0.999999987               0.000071422              -0.001151017               0.999999987               0.000063498              -0.001183536               0.999999987               0.000052303              -0.001216026               0.999999987               0.000085664              -0.000907796               0.999999987               0.000044807              -0.000897145               0.999999987               0.000028546              -0.000892218               0.999999987               0.000023780              -0.000896096               0.999999987               0.000024652              -0.000907941               0.999999987               0.000028542              -0.000926234               0.999999987               0.000033742              -0.000949455               0.999999987               0.000039035              -0.000976297               0.999999987               0.000043812              -0.001005723               0.999999987               0.000047800              -0.001037020               0.999999987               0.000050613              -0.001069427               0.999999987               0.000051891              -0.001102488               0.999999987               0.000051347              -0.001135860               0.999999987               0.000048514              -0.001169331               0.999999987               0.000042832              -0.001202794               0.999999987               0.000033646              -0.001236199               0.999999987               0.000020166              -0.001269650               0.999999987               0.000057516              -0.000931586               0.999999987               0.000029041              -0.000932283               0.999999987               0.000016769              -0.000932981               0.999999987               0.000012494              -0.000939308               0.999999987               0.000012335              -0.000951817               0.999999987               0.000014477              -0.000969920               0.999999987               0.000017758              -0.000992655               0.999999987               0.000021410              -0.001019084               0.999999987               0.000024715              -0.001048311               0.999999987               0.000027544              -0.001079614               0.999999987               0.000029498              -0.001112436               0.999999987               0.000030270              -0.001146283               0.999999987               0.000029567              -0.001180832               0.999999987               0.000027047              -0.001215806               0.999999987               0.000021971              -0.001250941               0.999999987               0.000013388              -0.001285992               0.999999987              -0.000000028              -0.001320856               0.999999987               0.000028879              -0.000945834               0.999999987               0.000014313              -0.000953875               0.999999987               0.000007694              -0.000958662               0.999999987               0.000005137              -0.000966992               0.999999987               0.000004800              -0.000980311               0.999999987               0.000005655              -0.000998535               0.999999987               0.000007249              -0.001021171               0.999999987               0.000009107              -0.001047510               0.999999987               0.000010864              -0.001076818               0.999999987               0.000012284              -0.001108496               0.999999987               0.000013301              -0.001141989               0.999999987               0.000013648              -0.001176863               0.999999987               0.000013225              -0.001212783               0.999999987               0.000011690              -0.001249427               0.999999987               0.000008620              -0.001286467               0.999999987               0.000003290              -0.001323464               0.999999987              -0.000005311              -0.001359994               0.999999987               0.000000000              -0.000950560               0.999999987              -0.000000000              -0.000961145               0.999999987               0.000000000              -0.000967408               0.999999987               0.000000000              -0.000976467               0.999999987               0.000000000              -0.000990176               0.999999987               0.000000000              -0.001008511               0.999999987               0.000000000              -0.001031059               0.999999987               0.000000000              -0.001057361               0.999999987              -0.000000000              -0.001086788               0.999999987               0.000000000              -0.001118629               0.999999987              -0.000000000              -0.001152403               0.999999987               0.000000000              -0.001187718               0.999999987              -0.000000000              -0.001224317               0.999999987              -0.000000000              -0.001261765               0.999999987               0.000000000              -0.001299682               0.999999987              -0.000000000              -0.001337616               0.999999987              -0.000000000              -0.001374902               0.999999987               0.000306566              -0.000000000               0.999999987               0.000343140               0.000000000               0.999999987               0.000359913              -0.000000000               0.999999987               0.000369554               0.000000000               0.999999987               0.000377050               0.000000000               0.999999987               0.000384615               0.000000000               0.999999987               0.000393307              -0.000000000               0.999999987               0.000403353              -0.000000000               0.999999987               0.000414678               0.000000000               0.999999987               0.000427126               0.000000000               0.999999987               0.000440498              -0.000000000               0.999999987               0.000454627              -0.000000000               0.999999987               0.000469489               0.000000000               0.999999987               0.000484957               0.000000000               0.999999987               0.000500720              -0.000000000               0.999999987               0.000516384               0.000000000               0.999999987               0.000531580               0.000000000               0.999999987               0.000304797               0.000092619               0.999999987               0.000339196               0.000078408               0.999999987               0.000354644               0.000073075               0.999999987               0.000363498               0.000072370               0.999999987               0.000370579               0.000074285               0.999999987               0.000377958               0.000077966               0.999999987               0.000386463               0.000082786               0.999999987               0.000396309               0.000088094               0.999999987               0.000407416               0.000093562               0.999999987               0.000419582               0.000099047               0.999999987               0.000432697               0.000104244               0.999999987               0.000446564               0.000109048               0.999999987               0.000461042               0.000113565               0.999999987               0.000475883               0.000117545               0.999999987               0.000490825               0.000120503               0.999999987               0.000505724               0.000122032               0.999999987               0.000520241               0.000121461               0.999999987               0.000299649               0.000184255               0.999999987               0.000327665               0.000156136               0.999999987               0.000339328               0.000146093               0.999999987               0.000346136               0.000145268               0.999999987               0.000352217               0.000149584               0.999999987               0.000359061               0.000157184               0.999999987               0.000367269               0.000166824               0.999999987               0.000376833               0.000177422               0.999999987               0.000387535               0.000188288               0.999999987               0.000399186               0.000199065               0.999999987               0.000411520               0.000209495               0.999999987               0.000424414               0.000219434               0.999999987               0.000437788               0.000228564               0.999999987               0.000451296               0.000236525               0.999999987               0.000464681               0.000242808               0.999999987               0.000477763               0.000246958               0.999999987               0.000490419               0.000248149               0.999999987               0.000291298               0.000273964               0.999999987               0.000309221               0.000232617               0.999999987               0.000315496               0.000218984               0.999999987               0.000319632               0.000218994               0.999999987               0.000324506               0.000226406               0.999999987               0.000330971               0.000238292               0.999999987               0.000339038               0.000252874               0.999999987               0.000348370               0.000268694               0.999999987               0.000358709               0.000284762               0.999999987               0.000369756               0.000300751               0.999999987               0.000381358               0.000316403               0.999999987               0.000393282               0.000331387               0.999999987               0.000405292               0.000345059               0.999999987               0.000417102               0.000357155               0.999999987               0.000428554               0.000367228               0.999999987               0.000439499               0.000374922               0.999999987               0.000449784               0.000379715               0.999999987               0.000279872               0.000360876               0.999999987               0.000284816               0.000307474               0.999999987               0.000285080               0.000291702               0.999999987               0.000286742               0.000293622               0.999999987               0.000290944               0.000304758               0.999999987               0.000297436               0.000321227               0.999999987               0.000305629               0.000340732               0.999999987               0.000315042               0.000361568               0.999999987               0.000325205               0.000382697               0.999999987               0.000335865               0.000403812               0.999999987               0.000346648               0.000424462               0.999999987               0.000357250               0.000444106               0.999999987               0.000367463               0.000462234               0.999999987               0.000377109               0.000478589               0.999999987               0.000386074               0.000493032               0.999999987               0.000394332               0.000505252               0.999999987               0.000401943               0.000515013               0.999999987               0.000265503               0.000444207               0.999999987               0.000255710               0.000380493               0.999999987               0.000250482               0.000364080               0.999999987               0.000250630               0.000368780               0.999999987               0.000254966               0.000384018               0.999999987               0.000262116               0.000405166               0.999999987               0.000271051               0.000429335               0.999999987               0.000280929               0.000454913               0.999999987               0.000291107               0.000480814               0.999999987               0.000301269               0.000506652               0.999999987               0.000311002               0.000531800               0.999999987               0.000320054               0.000555733               0.999999987               0.000328240               0.000578112               0.999999987               0.000335515               0.000598821               0.999999987               0.000341943               0.000617851               0.999999987               0.000347701               0.000634930               0.999999987               0.000352903               0.000650460               0.999999987               0.000248420               0.000523136               0.999999987               0.000223335               0.000451637               0.999999987               0.000214039               0.000435879               0.999999987               0.000214090               0.000443731               0.999999987               0.000219628               0.000463177               0.999999987               0.000228261               0.000488673               0.999999987               0.000238220               0.000517303               0.999999987               0.000248585               0.000547251               0.999999987               0.000258729               0.000577500               0.999999987               0.000268236               0.000607518               0.999999987               0.000276822               0.000636679               0.999999987               0.000284152               0.000664514               0.999999987               0.000290298               0.000690802               0.999999987               0.000295455               0.000715533               0.999999987               0.000299714               0.000738654               0.999999987               0.000303126               0.000760239               0.999999987               0.000305894               0.000780744               0.999999987               0.000228971               0.000596777               0.999999987               0.000189472               0.000520728               0.999999987               0.000178092               0.000506435               0.999999987               0.000179629               0.000517405               0.999999987               0.000187350               0.000540726               0.999999987               0.000197625               0.000570367               0.999999987               0.000208547               0.000603152               0.999999987               0.000219176               0.000637091               0.999999987               0.000229003               0.000671300               0.999999987               0.000237586               0.000705234               0.999999987               0.000244675               0.000738046               0.999999987               0.000250223               0.000769363               0.999999987               0.000254417               0.000799045               0.999999987               0.000257319               0.000827244               0.999999987               0.000259043               0.000854024               0.999999987               0.000259732               0.000879557               0.999999987               0.000259755               0.000904301               0.999999987               0.000208042               0.000663827               0.999999987               0.000155560               0.000587579               0.999999987               0.000144812               0.000574807               0.999999987               0.000148954               0.000588568               0.999999987               0.000159081               0.000615498               0.999999987               0.000170910               0.000648966               0.999999987               0.000182548               0.000685544               0.999999987               0.000193160               0.000723251               0.999999987               0.000202269               0.000761244               0.999999987               0.000209481               0.000798681               0.999999987               0.000214728               0.000834758               0.999999987               0.000218130               0.000869175               0.999999987               0.000219821               0.000901984               0.999999987               0.000219973               0.000933407               0.999999987               0.000218766               0.000963698               0.999999987               0.000216803               0.000993073               0.999999987               0.000214533               0.001021869               0.999999987               0.000187002               0.000726683               0.999999987               0.000128434               0.000659621               0.999999987               0.000114786               0.000642244               0.999999987               0.000117314               0.000650182               0.999999987               0.000126154               0.000671689               0.999999987               0.000137113               0.000700671               0.999999987               0.000148195               0.000733538               0.999999987               0.000158254               0.000768443               0.999999987               0.000166774               0.000804349               0.999999987               0.000173747               0.000840427               0.999999987               0.000178939               0.000875970               0.999999987               0.000182187               0.000910463               0.999999987               0.000183641               0.000943774               0.999999987               0.000183291               0.000975964               0.999999987               0.000181364               0.001007231               0.999999987               0.000178101               0.001037645               0.999999987               0.000174229               0.001067495               0.999999987               0.000163864               0.000783516               0.999999987               0.000103900               0.000728704               0.999999987               0.000087468               0.000710752               0.999999987               0.000087708               0.000714529               0.999999987               0.000094810               0.000731472               0.999999987               0.000104520               0.000756314               0.999999987               0.000114642               0.000785749               0.999999987               0.000123978               0.000817887               0.999999987               0.000131902               0.000851611               0.999999987               0.000138317               0.000886010               0.999999987               0.000143173               0.000920505               0.999999987               0.000146101               0.000954593               0.999999987               0.000147152               0.000987895               0.999999987               0.000146289               0.001020430               0.999999987               0.000143454               0.001052263               0.999999987               0.000138832               0.001083528               0.999999987               0.000132990               0.001114408               0.999999987               0.000139137               0.000833160               0.999999987               0.000081849               0.000792993               0.999999987               0.000063736               0.000777473               0.999999987               0.000061569               0.000779347               0.999999987               0.000066542               0.000793055               0.999999987               0.000074559               0.000814561               0.999999987               0.000083307               0.000841085               0.999999987               0.000091587               0.000870843               0.999999987               0.000098775               0.000902644               0.999999987               0.000104411               0.000935541               0.999999987               0.000108546               0.000968953               0.999999987               0.000111075               0.001002337               0.999999987               0.000111570               0.001035381               0.999999987               0.000109847               0.001068004               0.999999987               0.000105965               0.001100210               0.999999987               0.000099789               0.001132033               0.999999987               0.000091440               0.001163691               0.999999987               0.000112981               0.000874818               0.999999987               0.000062250               0.000849985               0.999999987               0.000044067               0.000839178               0.999999987               0.000040062               0.000841281               0.999999987               0.000042821               0.000853320               0.999999987               0.000048722               0.000872653               0.999999987               0.000055829               0.000897067               0.999999987               0.000062736               0.000924981               0.999999987               0.000068813               0.000955342               0.999999987               0.000073682               0.000987205               0.999999987               0.000077141               0.001019794               0.999999987               0.000079072               0.001052705               0.999999987               0.000078991               0.001085637               0.999999987               0.000076523               0.001118377               0.999999987               0.000071422               0.001151017               0.999999987               0.000063498               0.001183536               0.999999987               0.000052303               0.001216026               0.999999987               0.000085664               0.000907796               0.999999987               0.000044807               0.000897145               0.999999987               0.000028546               0.000892218               0.999999987               0.000023780               0.000896096               0.999999987               0.000024652               0.000907941               0.999999987               0.000028542               0.000926234               0.999999987               0.000033742               0.000949455               0.999999987               0.000039035               0.000976297               0.999999987               0.000043812               0.001005723               0.999999987               0.000047800               0.001037020               0.999999987               0.000050613               0.001069427               0.999999987               0.000051891               0.001102488               0.999999987               0.000051347               0.001135860               0.999999987               0.000048514               0.001169331               0.999999987               0.000042832               0.001202794               0.999999987               0.000033646               0.001236199               0.999999987               0.000020166               0.001269650               0.999999987               0.000057516               0.000931586               0.999999987               0.000029041               0.000932283               0.999999987               0.000016769               0.000932981               0.999999987               0.000012494               0.000939308               0.999999987               0.000012335               0.000951817               0.999999987               0.000014477               0.000969920               0.999999987               0.000017758               0.000992655               0.999999987               0.000021410               0.001019084               0.999999987               0.000024715               0.001048311               0.999999987               0.000027544               0.001079614               0.999999987               0.000029498               0.001112436               0.999999987               0.000030270               0.001146283               0.999999987               0.000029567               0.001180832               0.999999987               0.000027047               0.001215806               0.999999987               0.000021971               0.001250941               0.999999987               0.000013388               0.001285992               0.999999987              -0.000000028               0.001320856               0.999999987               0.000028879               0.000945834               0.999999987               0.000014313               0.000953875               0.999999987               0.000007694               0.000958662               0.999999987               0.000005137               0.000966992               0.999999987               0.000004800               0.000980311               0.999999987               0.000005655               0.000998535               0.999999987               0.000007249               0.001021171               0.999999987               0.000009107               0.001047510               0.999999987               0.000010864               0.001076818               0.999999987               0.000012284               0.001108496               0.999999987               0.000013301               0.001141989               0.999999987               0.000013648               0.001176863               0.999999987               0.000013225               0.001212783               0.999999987               0.000011690               0.001249427               0.999999987               0.000008620               0.001286467               0.999999987               0.000003290               0.001323464               0.999999987              -0.000005311               0.001359994               0.999999987               0.000000000               0.000950560               0.999999987              -0.000000000               0.000961145               0.999999987              -0.000000000               0.000967408               0.999999987               0.000000000               0.000976467               0.999999987               0.000000000               0.000990176               0.999999987              -0.000000000               0.001008511               0.999999987              -0.000000000               0.001031059               0.999999987              -0.000000000               0.001057361               0.999999987               0.000000000               0.001086788               0.999999987              -0.000000000               0.001118629               0.999999987              -0.000000000               0.001152403               0.999999987               0.000000000               0.001187718               0.999999987              -0.000000000               0.001224317               0.999999987              -0.000000000               0.001261765               0.999999987              -0.000000000               0.001299682               0.999999987              -0.000000000               0.001337616               0.999999987              -0.000000000               0.001374902               0.999999987 </DataArray>
<DataArray type="Float64"                                    Name="stress"                                                      NumberOfComponents="10" format="ascii">
              0.001525423               0.017110822              -0.000000000              -0.001566815               0.006225822               0.004659007               0.000000000               0.000000000               0.000000000               0.000000000               0.001584894               0.013701339              -0.000000000              -0.001118329               0.004939844               0.003821514               0.000000000               0.000000000               0.000000000               0.000000000               0.002145970               0.010944713               0.000000000              -0.000563349               0.003835984               0.003272635               0.000000000               0.000000000               0.000000000               0.000000000               0.002137348               0.009406064               0.000000000              -0.000374251               0.003260074               0.002885822               0.000000000               0.000000000               0.000000000               0.000000000               0.001929362               0.008467772               0.000000000              -0.000334960               0.002934216               0.002599256               0.000000000               0.000000000               0.000000000               0.000000000               0.001654228               0.007863374               0.000000000              -0.000362585               0.002741960               0.002379375               0.000000000               0.000000000               0.000000000               0.000000000               0.001375480               0.007453355              -0.000000000              -0.000415863               0.002623048               0.002207185               0.000000000               0.000000000               0.000000000               0.000000000               0.001124025               0.007150291              -0.000000000              -0.000472276               0.002540832               0.002068556               0.000000000               0.000000000               0.000000000               0.000000000               0.000906942               0.006907938              -0.000000000              -0.000523388               0.002477086               0.001953698               0.000000000               0.000000000               0.000000000               0.000000000               0.000721057               0.006700953              -0.000000000              -0.000567222               0.002422703               0.001855481               0.000000000               0.000000000               0.000000000               0.000000000               0.000559455               0.006506952               0.000000000              -0.000603572               0.002370153               0.001766581               0.000000000               0.000000000               0.000000000               0.000000000               0.000412473               0.006315964               0.000000000              -0.000634816               0.002316906               0.001682089               0.000000000               0.000000000               0.000000000               0.000000000               0.000279853               0.006128849               0.000000000              -0.000661160               0.002263316               0.001602156               0.000000000               0.000000000               0.000000000               0.000000000               0.000172369               0.005937833               0.000000000              -0.000677589               0.002205121               0.001527532               0.000000000               0.000000000               0.000000000               0.000000000               0.000092594               0.005725335               0.000000000              -0.000680942               0.002135407               0.001454464               0.000000000               0.000000000               0.000000000               0.000000000               0.000039144               0.005474893               0.000000000              -0.000669681               0.002048173               0.001378492               0.000000000               0.000000000               0.000000000               0.000000000              -0.000002078               0.005276770              -0.000000000              -0.000660374               0.001979031               0.001318657               0.000000000               0.000000000               0.000000000               0.000000000               0.001595298               0.016782270              -0.001215631              -0.001499544               0.006093882               0.004594338               0.000000000               0.000000000               0.000000000               0.000000000               0.001576945               0.013481163              -0.000679969              -0.001093788               0.004858272               0.003764484               0.000000000               0.000000000               0.000000000               0.000000000               0.002053971               0.010839704              -0.000140141              -0.000584722               0.003808106               0.003223383               0.000000000               0.000000000               0.000000000               0.000000000               0.002010544               0.009363738               0.000095513              -0.000416512               0.003260052               0.002843540               0.000000000               0.000000000               0.000000000               0.000000000               0.001793074               0.008460634               0.000201554              -0.000385176               0.002948575               0.002563399               0.000000000               0.000000000               0.000000000               0.000000000               0.001523790               0.007872556               0.000250057              -0.000412647               0.002761708               0.002349061               0.000000000               0.000000000               0.000000000               0.000000000               0.001257243               0.007466340               0.000265368              -0.000461825               0.002642697               0.002180872               0.000000000               0.000000000               0.000000000               0.000000000               0.001018517               0.007163143               0.000261781              -0.000513448               0.002558840               0.002045392               0.000000000               0.000000000               0.000000000               0.000000000               0.000813546               0.006918272               0.000251997              -0.000559703               0.002492635               0.001932932               0.000000000               0.000000000               0.000000000               0.000000000               0.000637000               0.006706742               0.000238047              -0.000599466               0.002435380               0.001835914               0.000000000               0.000000000               0.000000000               0.000000000               0.000483719               0.006514242               0.000221134              -0.000632884               0.002382354               0.001749470               0.000000000               0.000000000               0.000000000               0.000000000               0.000348814               0.006331732               0.000206231              -0.000660660               0.002330776               0.001670117               0.000000000               0.000000000               0.000000000               0.000000000               0.000233773               0.006151113               0.000190787              -0.000681223               0.002277425               0.001596202               0.000000000               0.000000000               0.000000000               0.000000000               0.000145376               0.005965955               0.000166687              -0.000691227               0.002219041               0.001527814               0.000000000               0.000000000               0.000000000               0.000000000               0.000077119               0.005765209               0.000130597              -0.000691730               0.002152294               0.001460564               0.000000000               0.000000000               0.000000000               0.000000000               0.000029340               0.005540848               0.000076621              -0.000681602               0.002074131               0.001392530               0.000000000               0.000000000               0.000000000               0.000000000              -0.000005377               0.005372094               0.000047173              -0.000673527               0.002015189               0.001341663               0.000000000               0.000000000               0.000000000               0.000000000               0.001782651               0.015843555              -0.002283935              -0.001311948               0.005718448               0.004406500               0.000000000               0.000000000               0.000000000               0.000000000               0.001548924               0.012856499              -0.001282359              -0.001026214               0.004627528               0.003601314               0.000000000               0.000000000               0.000000000               0.000000000               0.001791548               0.010542221              -0.000280440              -0.000645946               0.003729354               0.003083408               0.000000000               0.000000000               0.000000000               0.000000000               0.001655492               0.009237791               0.000146263              -0.000533913               0.003257204               0.002723291               0.000000000               0.000000000               0.000000000               0.000000000               0.001419669               0.008428452               0.000334050              -0.000521179               0.002983182               0.002462003               0.000000000               0.000000000               0.000000000               0.000000000               0.001167809               0.007884704               0.000416204              -0.000547658               0.002810761               0.002263103               0.000000000               0.000000000               0.000000000               0.000000000               0.000933119               0.007492565               0.000440816              -0.000586650               0.002693047               0.002106397               0.000000000               0.000000000               0.000000000               0.000000000               0.000731863               0.007190220               0.000433269              -0.000624327               0.002604825               0.001980498               0.000000000               0.000000000               0.000000000               0.000000000               0.000561842               0.006939483               0.000413359              -0.000656743               0.002532052               0.001875309               0.000000000               0.000000000               0.000000000               0.000000000               0.000420099               0.006724273               0.000389446              -0.000682995               0.002469067               0.001786072               0.000000000               0.000000000               0.000000000               0.000000000               0.000302537               0.006537207               0.000363438              -0.000703698               0.002413613               0.001709915               0.000000000               0.000000000               0.000000000               0.000000000               0.000199116               0.006363646               0.000334227              -0.000720785               0.002361456               0.001640670               0.000000000               0.000000000               0.000000000               0.000000000               0.000115452               0.006189718               0.000299302              -0.000730419               0.002306692               0.001576273               0.000000000               0.000000000               0.000000000               0.000000000               0.000059710               0.006016403               0.000253474              -0.000729657               0.002248667               0.001519009               0.000000000               0.000000000               0.000000000               0.000000000               0.000024554               0.005843769               0.000192600              -0.000721262               0.002188324               0.001467063               0.000000000               0.000000000               0.000000000               0.000000000               0.000007049               0.005673671               0.000109549              -0.000706564               0.002126726               0.001420162               0.000000000               0.000000000               0.000000000               0.000000000              -0.000008618               0.005559694               0.000065530              -0.000698192               0.002085944               0.001387752               0.000000000               0.000000000               0.000000000               0.000000000               0.002015594               0.014418121              -0.003081980              -0.001046417               0.005154797               0.004108381               0.000000000               0.000000000               0.000000000               0.000000000               0.001474812               0.011918635              -0.001744753              -0.000936773               0.004285096               0.003348323               0.000000000               0.000000000               0.000000000               0.000000000               0.001388724               0.010099775              -0.000420757              -0.000741698               0.003613791               0.002872092               0.000000000               0.000000000               0.000000000               0.000000000               0.001144351               0.009041408               0.000122798              -0.000701043               0.003247454               0.002546411               0.000000000               0.000000000               0.000000000               0.000000000               0.000896197               0.008355754               0.000353950              -0.000708393               0.003021355               0.002312961               0.000000000               0.000000000               0.000000000               0.000000000               0.000677580               0.007870703               0.000452045              -0.000729744               0.002866789               0.002137046               0.000000000               0.000000000               0.000000000               0.000000000               0.000497305               0.007500478               0.000482536              -0.000751068               0.002750490               0.001999422               0.000000000               0.000000000               0.000000000               0.000000000               0.000352579               0.007199904               0.000473634              -0.000767769               0.002655867               0.001888098               0.000000000               0.000000000               0.000000000               0.000000000               0.000235991               0.006947122               0.000450206              -0.000779892               0.002575648               0.001795756               0.000000000               0.000000000               0.000000000               0.000000000               0.000143446               0.006733318               0.000424000              -0.000787871               0.002507040               0.001719170               0.000000000               0.000000000               0.000000000               0.000000000               0.000070011               0.006545403               0.000394584              -0.000791919               0.002445752               0.001653833               0.000000000               0.000000000               0.000000000               0.000000000               0.000011868               0.006369282               0.000356898              -0.000791708               0.002386975               0.001595267               0.000000000               0.000000000               0.000000000               0.000000000              -0.000027459               0.006201039               0.000311573              -0.000785425               0.002328801               0.001543375               0.000000000               0.000000000               0.000000000               0.000000000              -0.000045835               0.006044371               0.000258345              -0.000772733               0.002272348               0.001499615               0.000000000               0.000000000               0.000000000               0.000000000              -0.000046749               0.005904615               0.000191743              -0.000755606               0.002220054               0.001464448               0.000000000               0.000000000               0.000000000               0.000000000              -0.000029209               0.005786674               0.000106327              -0.000734286               0.002173634               0.001439348               0.000000000               0.000000000               0.000000000               0.000000000              -0.000022856               0.005718128               0.000062065              -0.000723335               0.002147135               0.001423800               0.000000000               0.000000000               0.000000000               0.000000000               0.002193138               0.012671766              -0.003546822              -0.000761545               0.004477727               0.003716182               0.000000000               0.000000000               0.000000000               0.000000000               0.001326340               0.010787285              -0.002041916              -0.000851032               0.003879403               0.003028371               0.000000000               0.000000000               0.000000000               0.000000000               0.000892558               0.009568689              -0.000567810              -0.000861375               0.003476656               0.002615281               0.000000000               0.000000000               0.000000000               0.000000000               0.000561806               0.008784801               0.000011152              -0.000887421               0.003224044               0.002336624               0.000000000               0.000000000               0.000000000               0.000000000               0.000329166               0.008228129               0.000251668              -0.000905077               0.003044375               0.002139298               0.000000000               0.000000000               0.000000000               0.000000000               0.000169632               0.007803139               0.000354433              -0.000911778               0.002904946               0.001993168               0.000000000               0.000000000               0.000000000               0.000000000               0.000057997               0.007451327               0.000389070              -0.000909665               0.002786972               0.001877308               0.000000000               0.000000000               0.000000000               0.000000000              -0.000018433               0.007154434               0.000385574              -0.000901214               0.002685192               0.001783978               0.000000000               0.000000000               0.000000000               0.000000000              -0.000073042               0.006903042               0.000370300              -0.000890269               0.002597747               0.001707478               0.000000000               0.000000000               0.000000000               0.000000000              -0.000109248               0.006687590               0.000352612              -0.000876915               0.002521479               0.001644564               0.000000000               0.000000000               0.000000000               0.000000000              -0.000127931               0.006493689               0.000329241              -0.000859683               0.002451102               0.001591419               0.000000000               0.000000000               0.000000000               0.000000000              -0.000134588               0.006313639               0.000296980              -0.000839673               0.002384416               0.001544743               0.000000000               0.000000000               0.000000000               0.000000000              -0.000128729               0.006152389               0.000257125              -0.000817320               0.002323216               0.001505896               0.000000000               0.000000000               0.000000000               0.000000000              -0.000110080               0.006014233               0.000211869              -0.000793057               0.002269076               0.001476019               0.000000000               0.000000000               0.000000000               0.000000000              -0.000081417               0.005903386               0.000155185              -0.000768453               0.002223926               0.001455474               0.000000000               0.000000000               0.000000000               0.000000000              -0.000044470               0.005822406               0.000083271              -0.000744475               0.002188941               0.001444466               0.000000000               0.000000000               0.000000000               0.000000000              -0.000027136               0.005784750               0.000046027              -0.000733268               0.002172653               0.001439386               0.000000000               0.000000000               0.000000000               0.000000000               0.002223806               0.010774967              -0.003679312              -0.000512946               0.003762601               0.003249655               0.000000000               0.000000000               0.000000000               0.000000000               0.001086196               0.009583233              -0.002187133              -0.000790580               0.003457905               0.002667325               0.000000000               0.000000000               0.000000000               0.000000000               0.000357212               0.008996558              -0.000735987              -0.000990613               0.003329027               0.002338414               0.000000000               0.000000000               0.000000000               0.000000000              -0.000003498               0.008472401              -0.000184848              -0.001060359               0.003177559               0.002117199               0.000000000               0.000000000               0.000000000               0.000000000              -0.000182692               0.008032928               0.000045938              -0.001072623               0.003035157               0.001962534               0.000000000               0.000000000               0.000000000               0.000000000              -0.000266061               0.007656431               0.000149579              -0.001056824               0.002904393               0.001847569               0.000000000               0.000000000               0.000000000               0.000000000              -0.000301418               0.007324488               0.000194120              -0.001028590               0.002784335               0.001755745               0.000000000               0.000000000               0.000000000               0.000000000              -0.000306212               0.007035236               0.000209308              -0.000994231               0.002676466               0.001682234               0.000000000               0.000000000               0.000000000               0.000000000              -0.000295619               0.006784831               0.000214207              -0.000958959               0.002581241               0.001622282               0.000000000               0.000000000               0.000000000               0.000000000              -0.000275835               0.006562587               0.000214876              -0.000923759               0.002495427               0.001571668               0.000000000               0.000000000               0.000000000               0.000000000              -0.000242873               0.006361801               0.000205629              -0.000886300               0.002416013               0.001529712               0.000000000               0.000000000               0.000000000               0.000000000              -0.000203127               0.006181109               0.000187299              -0.000848809               0.002343286               0.001494476               0.000000000               0.000000000               0.000000000               0.000000000              -0.000160075               0.006024473               0.000161873              -0.000813085               0.002279166               0.001466081               0.000000000               0.000000000               0.000000000               0.000000000              -0.000115151               0.005894220               0.000130501              -0.000779957               0.002224706               0.001444749               0.000000000               0.000000000               0.000000000               0.000000000              -0.000073008               0.005788745               0.000088597              -0.000750969               0.002179885               0.001428916               0.000000000               0.000000000               0.000000000               0.000000000              -0.000034927               0.005712784               0.000041258              -0.000727194               0.002146640               0.001419446               0.000000000               0.000000000               0.000000000               0.000000000              -0.000019545               0.005678047               0.000020726              -0.000717083               0.002131691               0.001414608               0.000000000               0.000000000               0.000000000               0.000000000               0.002061698               0.008878126              -0.003524935              -0.000336632               0.003071555               0.002734923               0.000000000               0.000000000               0.000000000               0.000000000               0.000770330               0.008400170              -0.002216853              -0.000761147               0.003053744               0.002292597               0.000000000               0.000000000               0.000000000               0.000000000              -0.000154639               0.008404838              -0.000936074              -0.001108592               0.003171115               0.002062523               0.000000000               0.000000000               0.000000000               0.000000000              -0.000479877               0.008101259              -0.000446881              -0.001192608               0.003097929               0.001905320               0.000000000               0.000000000               0.000000000               0.000000000              -0.000574875               0.007758743              -0.000227286              -0.001185418               0.002981361               0.001795943               0.000000000               0.000000000               0.000000000               0.000000000              -0.000572704               0.007428674              -0.000110536              -0.001143345               0.002857315               0.001713970               0.000000000               0.000000000               0.000000000               0.000000000              -0.000532221               0.007123205              -0.000041156              -0.001089981               0.002737705               0.001647724               0.000000000               0.000000000               0.000000000               0.000000000              -0.000480316               0.006842554               0.000003371              -0.001035435               0.002625974               0.001590539               0.000000000               0.000000000               0.000000000               0.000000000              -0.000418602               0.006595049               0.000035746              -0.000981354               0.002525446               0.001544091               0.000000000               0.000000000               0.000000000               0.000000000              -0.000353266               0.006373313               0.000057878              -0.000929136               0.002434129               0.001504992               0.000000000               0.000000000               0.000000000               0.000000000              -0.000281002               0.006171397               0.000067007              -0.000876798               0.002349378               0.001472580               0.000000000               0.000000000               0.000000000               0.000000000              -0.000209122               0.005989307               0.000065667              -0.000827082               0.002272110               0.001445028               0.000000000               0.000000000               0.000000000               0.000000000              -0.000149566               0.005826900               0.000057263              -0.000784448               0.002203763               0.001419315               0.000000000               0.000000000               0.000000000               0.000000000              -0.000099815               0.005687367               0.000043149              -0.000748350               0.002145220               0.001396870               0.000000000               0.000000000               0.000000000               0.000000000              -0.000055558               0.005572158               0.000023388              -0.000717352               0.002096485               0.001379133               0.000000000               0.000000000               0.000000000               0.000000000              -0.000022144               0.005482904               0.000006451              -0.000693665               0.002058838               0.001365173               0.000000000               0.000000000               0.000000000               0.000000000              -0.000016700               0.005432253               0.000004945              -0.000685292               0.002039164               0.001353871               0.000000000               0.000000000               0.000000000               0.000000000               0.001719826               0.007093811              -0.003151026              -0.000241795               0.002445177               0.002203382               0.000000000               0.000000000               0.000000000               0.000000000               0.000409429               0.007295695              -0.002170346              -0.000758426               0.002684682               0.001926256               0.000000000               0.000000000               0.000000000               0.000000000              -0.000579460               0.007794714              -0.001169086              -0.001191634               0.002995423               0.001803789               0.000000000               0.000000000               0.000000000               0.000000000              -0.000816282               0.007671802              -0.000743098              -0.001265078               0.002978934               0.001713856               0.000000000               0.000000000               0.000000000               0.000000000              -0.000813975               0.007418174              -0.000514162              -0.001232510               0.002883537               0.001651027               0.000000000               0.000000000               0.000000000               0.000000000              -0.000732656               0.007137786              -0.000366984              -0.001166966               0.002768227               0.001601260               0.000000000               0.000000000               0.000000000               0.000000000              -0.000634805               0.006857482              -0.000264704              -0.001095234               0.002650883               0.001555648               0.000000000               0.000000000               0.000000000               0.000000000              -0.000541126               0.006592534              -0.000188619              -0.001026986               0.002539818               0.001512832               0.000000000               0.000000000               0.000000000               0.000000000              -0.000446045               0.006356228              -0.000126805              -0.000961793               0.002439319               0.001477526               0.000000000               0.000000000               0.000000000               0.000000000              -0.000352193               0.006139059              -0.000081636              -0.000899452               0.002346150               0.001446698               0.000000000               0.000000000               0.000000000               0.000000000              -0.000265086               0.005934639              -0.000053787              -0.000841235               0.002258605               0.001417370               0.000000000               0.000000000               0.000000000               0.000000000              -0.000189664               0.005746318              -0.000037482              -0.000789412               0.002178558               0.001389146               0.000000000               0.000000000               0.000000000               0.000000000              -0.000128656               0.005578264              -0.000026146              -0.000745527               0.002107912               0.001362385               0.000000000               0.000000000               0.000000000               0.000000000              -0.000077746               0.005434519              -0.000017170              -0.000708468               0.002047644               0.001339176               0.000000000               0.000000000               0.000000000               0.000000000              -0.000037982               0.005316599              -0.000012207              -0.000678816               0.001998454               0.001319638               0.000000000               0.000000000               0.000000000               0.000000000              -0.000014434               0.005221212              -0.000006944              -0.000658063               0.001959741               0.001301678               0.000000000               0.000000000               0.000000000               0.000000000              -0.000015323               0.005164080               0.000001929              -0.000651255               0.001938428               0.001287173               0.000000000               0.000000000               0.000000000               0.000000000               0.001274279               0.005553801              -0.002646186              -0.000216373               0.001923372               0.001706999               0.000000000               0.000000000               0.000000000               0.000000000               0.000074749               0.006297396              -0.002092296              -0.000759143               0.002352158               0.001593015               0.000000000               0.000000000               0.000000000               0.000000000              -0.000873213               0.007201027              -0.001440608              -0.001227581               0.002809512               0.001581931               0.000000000               0.000000000               0.000000000               0.000000000              -0.001009873               0.007267600              -0.001056453              -0.001287149               0.002851559               0.001564409               0.000000000               0.000000000               0.000000000               0.000000000              -0.000933164               0.007115730              -0.000802051              -0.001239400               0.002785019               0.001545620               0.000000000               0.000000000               0.000000000               0.000000000              -0.000795111               0.006890408              -0.000620091              -0.001159465               0.002683268               0.001523803               0.000000000               0.000000000               0.000000000               0.000000000              -0.000654506               0.006640701              -0.000483753              -0.001075525               0.002572053               0.001496528               0.000000000               0.000000000               0.000000000               0.000000000              -0.000528456               0.006402611              -0.000375617              -0.000998495               0.002467014               0.001468519               0.000000000               0.000000000               0.000000000               0.000000000              -0.000415154               0.006182947              -0.000286018              -0.000928549               0.002370478               0.001441929               0.000000000               0.000000000               0.000000000               0.000000000              -0.000312002               0.005966628              -0.000217335              -0.000862827               0.002276465               0.001413638               0.000000000               0.000000000               0.000000000               0.000000000              -0.000224028               0.005756106              -0.000167568              -0.000803522               0.002186523               0.001383002               0.000000000               0.000000000               0.000000000               0.000000000              -0.000154190               0.005561932              -0.000128394              -0.000753061               0.002104979               0.001351918               0.000000000               0.000000000               0.000000000               0.000000000              -0.000099910               0.005393123              -0.000093603              -0.000711605               0.002034891               0.001323286               0.000000000               0.000000000               0.000000000               0.000000000              -0.000059082               0.005252011              -0.000060504              -0.000678655               0.001976871               0.001298216               0.000000000               0.000000000               0.000000000               0.000000000              -0.000037516               0.005134787              -0.000033594              -0.000655915               0.001930217               0.001274302               0.000000000               0.000000000               0.000000000               0.000000000              -0.000038538               0.005038459              -0.000014585              -0.000644258               0.001894222               0.001249964               0.000000000               0.000000000               0.000000000               0.000000000              -0.000046002               0.004988630              -0.000004249              -0.000640828               0.001876469               0.001235642               0.000000000               0.000000000               0.000000000               0.000000000               0.000710674               0.004096985              -0.002091758              -0.000245622               0.001447521               0.001201899               0.000000000               0.000000000               0.000000000               0.000000000              -0.000180747               0.005145147              -0.001995302              -0.000710923               0.001952006               0.001241082               0.000000000               0.000000000               0.000000000               0.000000000              -0.000988912               0.006342459              -0.001735008              -0.001163647               0.002502014               0.001338367               0.000000000               0.000000000               0.000000000               0.000000000              -0.001081006               0.006660446              -0.001404041              -0.001237930               0.002632770               0.001394839               0.000000000               0.000000000               0.000000000               0.000000000              -0.000981502               0.006673962              -0.001129911              -0.001202306               0.002625400               0.001423094               0.000000000               0.000000000               0.000000000               0.000000000              -0.000829988               0.006558977              -0.000915572              -0.001131115               0.002563342               0.001432227               0.000000000               0.000000000               0.000000000               0.000000000              -0.000675297               0.006390986              -0.000743788              -0.001052107               0.002481010               0.001428903               0.000000000               0.000000000               0.000000000               0.000000000              -0.000534188               0.006219177              -0.000600346              -0.000977715               0.002398943               0.001421228               0.000000000               0.000000000               0.000000000               0.000000000              -0.000415941               0.006046029              -0.000481800              -0.000911729               0.002319233               0.001407503               0.000000000               0.000000000               0.000000000               0.000000000              -0.000316351               0.005862865              -0.000386101              -0.000851488               0.002238098               0.001386610               0.000000000               0.000000000               0.000000000               0.000000000              -0.000231639               0.005675168              -0.000306047              -0.000796259               0.002157123               0.001360865               0.000000000               0.000000000               0.000000000               0.000000000              -0.000166955               0.005492605              -0.000237318              -0.000749182               0.002080578               0.001331395               0.000000000               0.000000000               0.000000000               0.000000000              -0.000119173               0.005328457              -0.000175266              -0.000710745               0.002013050               0.001302305               0.000000000               0.000000000               0.000000000               0.000000000              -0.000086567               0.005190711              -0.000116271              -0.000681300               0.001957320               0.001276020               0.000000000               0.000000000               0.000000000               0.000000000              -0.000073865               0.005072932              -0.000062561              -0.000661814               0.001911565               0.001249751               0.000000000               0.000000000               0.000000000               0.000000000              -0.000083176               0.004976260              -0.000021613              -0.000653222               0.001876477               0.001223256               0.000000000               0.000000000               0.000000000               0.000000000              -0.000094875               0.004932442              -0.000004620              -0.000652132               0.001861508               0.001209376               0.000000000               0.000000000               0.000000000               0.000000000              -0.000065144               0.002765546              -0.001512177              -0.000370123               0.001045213               0.000675090               0.000000000               0.000000000               0.000000000               0.000000000              -0.000476373               0.003997729              -0.001835922              -0.000678356               0.001558681               0.000880325               0.000000000               0.000000000               0.000000000               0.000000000              -0.001023432               0.005367959              -0.001962061              -0.001054780               0.002140894               0.001086114               0.000000000               0.000000000               0.000000000               0.000000000              -0.001074936               0.005919723              -0.001733897              -0.001143064               0.002354242               0.001211178               0.000000000               0.000000000               0.000000000               0.000000000              -0.000971839               0.006122574              -0.001470765              -0.001129759               0.002417424               0.001287665               0.000000000               0.000000000               0.000000000               0.000000000              -0.000824307               0.006150852              -0.001237303              -0.001077969               0.002409587               0.001331617               0.000000000               0.000000000               0.000000000               0.000000000              -0.000673011               0.006095684              -0.001037685              -0.001014337               0.002369987               0.001355649               0.000000000               0.000000000               0.000000000               0.000000000              -0.000528211               0.006009746              -0.000866924              -0.000949295               0.002319660               0.001370365               0.000000000               0.000000000               0.000000000               0.000000000              -0.000402341               0.005900194              -0.000722574              -0.000888400               0.002262845               0.001374445               0.000000000               0.000000000               0.000000000               0.000000000              -0.000305389               0.005766586              -0.000600591              -0.000835342               0.002200624               0.001365281               0.000000000               0.000000000               0.000000000               0.000000000              -0.000226029               0.005619538              -0.000493061              -0.000787201               0.002135561               0.001348360               0.000000000               0.000000000               0.000000000               0.000000000              -0.000161550               0.005462964              -0.000395799              -0.000743450               0.002068786               0.001325336               0.000000000               0.000000000               0.000000000               0.000000000              -0.000116354               0.005312223              -0.000305142              -0.000707659               0.002006610               0.001298951               0.000000000               0.000000000               0.000000000               0.000000000              -0.000088455               0.005181192              -0.000216698              -0.000680818               0.001953986               0.001273168               0.000000000               0.000000000               0.000000000               0.000000000              -0.000079726               0.005068442              -0.000131143              -0.000663451               0.001910614               0.001247163               0.000000000               0.000000000               0.000000000               0.000000000              -0.000094003               0.004976844              -0.000056168              -0.000657355               0.001878050               0.001220695               0.000000000               0.000000000               0.000000000               0.000000000              -0.000116035               0.004931181              -0.000019656              -0.000659909               0.001863680               0.001203771               0.000000000               0.000000000               0.000000000               0.000000000              -0.001005723               0.001646584              -0.000941808              -0.000582968               0.000743178               0.000160210               0.000000000               0.000000000               0.000000000               0.000000000              -0.000857557               0.002912564              -0.001587517              -0.000685654               0.001199395               0.000513742               0.000000000               0.000000000               0.000000000               0.000000000              -0.001020226               0.004284021              -0.002033435              -0.000918087               0.001734021               0.000815934               0.000000000               0.000000000               0.000000000               0.000000000              -0.000977069               0.005003444              -0.001939790              -0.000991830               0.001998407               0.001006577               0.000000000               0.000000000               0.000000000               0.000000000              -0.000866411               0.005381763              -0.001723637              -0.000997623               0.002126444               0.001128821               0.000000000               0.000000000               0.000000000               0.000000000              -0.000733016               0.005565815              -0.001497558              -0.000970606               0.002178788               0.001208182               0.000000000               0.000000000               0.000000000               0.000000000              -0.000592178               0.005641759              -0.001290075              -0.000927285               0.002189662               0.001262377               0.000000000               0.000000000               0.000000000               0.000000000              -0.000456687               0.005658419              -0.001107000              -0.000878558               0.002178973               0.001300415               0.000000000               0.000000000               0.000000000               0.000000000              -0.000334418               0.005631001              -0.000947089              -0.000829280               0.002153408               0.001324128               0.000000000               0.000000000               0.000000000               0.000000000              -0.000233865               0.005566570              -0.000808858              -0.000783519               0.002116678               0.001333159               0.000000000               0.000000000               0.000000000               0.000000000              -0.000154984               0.005473005              -0.000687446              -0.000742243               0.002071731               0.001329488               0.000000000               0.000000000               0.000000000               0.000000000              -0.000089917               0.005361135              -0.000572099              -0.000703859               0.002021647               0.001317787               0.000000000               0.000000000               0.000000000               0.000000000              -0.000042223               0.005247261              -0.000456215              -0.000671740               0.001972983               0.001301243               0.000000000               0.000000000               0.000000000               0.000000000              -0.000015044               0.005142589              -0.000341267              -0.000648464               0.001930334               0.001281870               0.000000000               0.000000000               0.000000000               0.000000000              -0.000009946               0.005049600              -0.000226591              -0.000634928               0.001894826               0.001259898               0.000000000               0.000000000               0.000000000               0.000000000              -0.000032080               0.004971882              -0.000110797              -0.000633514               0.001868449               0.001234935               0.000000000               0.000000000               0.000000000               0.000000000              -0.000065394               0.004929046              -0.000048418              -0.000640652               0.001856549               0.001215898               0.000000000               0.000000000               0.000000000               0.000000000              -0.002035726               0.000791280              -0.000449693              -0.000862306               0.000551191              -0.000311115               0.000000000               0.000000000               0.000000000               0.000000000              -0.001295654               0.001940787              -0.001272971              -0.000728468               0.000889744               0.000161276               0.000000000               0.000000000               0.000000000               0.000000000              -0.000997619               0.003173873              -0.001924653              -0.000770841               0.001314893               0.000544052               0.000000000               0.000000000               0.000000000               0.000000000              -0.000807891               0.003979327              -0.001959035              -0.000800374               0.001593220               0.000792845               0.000000000               0.000000000               0.000000000               0.000000000              -0.000667711               0.004497864              -0.001811347              -0.000812624               0.001770147               0.000957523               0.000000000               0.000000000               0.000000000               0.000000000              -0.000543078               0.004828471              -0.001621672              -0.000807212               0.001878544               0.001071332               0.000000000               0.000000000               0.000000000               0.000000000              -0.000420423               0.005034796              -0.001431543              -0.000787007               0.001940584               0.001153577               0.000000000               0.000000000               0.000000000               0.000000000              -0.000302267               0.005161786              -0.001253903              -0.000758572               0.001973435               0.001214863               0.000000000               0.000000000               0.000000000               0.000000000              -0.000191969               0.005229494              -0.001095985              -0.000725674               0.001985038               0.001259365               0.000000000               0.000000000               0.000000000               0.000000000              -0.000090645               0.005244851              -0.000958426              -0.000689597               0.001978132               0.001288535               0.000000000               0.000000000               0.000000000               0.000000000              -0.000006104               0.005220392              -0.000835314              -0.000654837               0.001958392               0.001303555               0.000000000               0.000000000               0.000000000               0.000000000               0.000062111               0.005173737              -0.000715380              -0.000623424               0.001932370               0.001308945               0.000000000               0.000000000               0.000000000               0.000000000               0.000118666               0.005114721              -0.000590897              -0.000594839               0.001903170               0.001308331               0.000000000               0.000000000               0.000000000               0.000000000               0.000161976               0.005057781              -0.000460976              -0.000571480               0.001876404               0.001304923               0.000000000               0.000000000               0.000000000               0.000000000               0.000181482               0.005005230              -0.000322799              -0.000557597               0.001854259               0.001296662               0.000000000               0.000000000               0.000000000               0.000000000               0.000166478               0.004955003              -0.000169081              -0.000556945               0.001837299               0.001280355               0.000000000               0.000000000               0.000000000               0.000000000               0.000134194               0.004922380              -0.000082827              -0.000564973               0.001829101               0.001264128               0.000000000               0.000000000               0.000000000               0.000000000              -0.003038693               0.000202178              -0.000100926              -0.001164781               0.000455650              -0.000709131               0.000000000               0.000000000               0.000000000               0.000000000              -0.001744835               0.001139900              -0.000927319              -0.000796800               0.000645562              -0.000151238               0.000000000               0.000000000               0.000000000               0.000000000              -0.000970320               0.002144525              -0.001630192              -0.000631935               0.000925479               0.000293543               0.000000000               0.000000000               0.000000000               0.000000000              -0.000603508               0.002959325              -0.001750607              -0.000596231               0.001185175               0.000588944               0.000000000               0.000000000               0.000000000               0.000000000              -0.000405148               0.003568968              -0.001674075              -0.000598051               0.001388994               0.000790942               0.000000000               0.000000000               0.000000000               0.000000000              -0.000275782               0.004015979              -0.001537439              -0.000605415               0.001540451               0.000935036               0.000000000               0.000000000               0.000000000               0.000000000              -0.000172128               0.004338891              -0.001384696              -0.000606909               0.001648585               0.001041676               0.000000000               0.000000000               0.000000000               0.000000000              -0.000073792               0.004570410              -0.001235668              -0.000598973               0.001723112               0.001124139               0.000000000               0.000000000               0.000000000               0.000000000               0.000019264               0.004733002              -0.001101208              -0.000584400               0.001772451               0.001188051               0.000000000               0.000000000               0.000000000               0.000000000               0.000109115               0.004837821              -0.000981428              -0.000563809               0.001800527               0.001236718               0.000000000               0.000000000               0.000000000               0.000000000               0.000192175               0.004896483              -0.000870160              -0.000539994               0.001812142               0.001272148               0.000000000               0.000000000               0.000000000               0.000000000               0.000268256               0.004925890              -0.000762161              -0.000515139               0.001813660               0.001298521               0.000000000               0.000000000               0.000000000               0.000000000               0.000342750               0.004936872              -0.000651443              -0.000488577               0.001808466               0.001319890               0.000000000               0.000000000               0.000000000               0.000000000               0.000417144               0.004939630              -0.000529612              -0.000461024               0.001800201               0.001339178               0.000000000               0.000000000               0.000000000               0.000000000               0.000479724               0.004934084              -0.000386535              -0.000436863               0.001790299               0.001353436               0.000000000               0.000000000               0.000000000               0.000000000               0.000515205               0.004921814              -0.000210812              -0.000422024               0.001781263               0.001359239               0.000000000               0.000000000               0.000000000               0.000000000               0.000519215               0.004910391              -0.000111347              -0.000419092               0.001776478               0.001357386               0.000000000               0.000000000               0.000000000               0.000000000              -0.003881890              -0.000153221               0.000073272              -0.001436555               0.000427775              -0.001008780               0.000000000               0.000000000               0.000000000               0.000000000              -0.002145062               0.000553893              -0.000588119              -0.000873634               0.000475839              -0.000397795               0.000000000               0.000000000               0.000000000               0.000000000              -0.000953970               0.001313972              -0.001175936              -0.000521985               0.000611980               0.000089995               0.000000000               0.000000000               0.000000000               0.000000000              -0.000412436               0.002085270              -0.001316860              -0.000415322               0.000833523               0.000418201               0.000000000               0.000000000               0.000000000               0.000000000              -0.000142223               0.002736100              -0.001291834              -0.000395346               0.001043806               0.000648460               0.000000000               0.000000000               0.000000000               0.000000000               0.000002300               0.003260143              -0.001207950              -0.000406655               0.001222255               0.000815600               0.000000000               0.000000000               0.000000000               0.000000000               0.000096414               0.003674550              -0.001105993              -0.000423163               0.001365892               0.000942729               0.000000000               0.000000000               0.000000000               0.000000000               0.000175233               0.003996922              -0.001001057              -0.000433902               0.001476928               0.001043026               0.000000000               0.000000000               0.000000000               0.000000000               0.000248316               0.004243377              -0.000904187              -0.000437303               0.001560212               0.001122909               0.000000000               0.000000000               0.000000000               0.000000000               0.000319211               0.004429326              -0.000817428              -0.000433961               0.001621081               0.001187120               0.000000000               0.000000000               0.000000000               0.000000000               0.000395584               0.004568157              -0.000735505              -0.000422675               0.001663595               0.001240921               0.000000000               0.000000000               0.000000000               0.000000000               0.000481742               0.004674082              -0.000657036              -0.000403606               0.001692547               0.001288941               0.000000000               0.000000000               0.000000000               0.000000000               0.000581472               0.004758016              -0.000577923              -0.000376699               0.001711556               0.001334857               0.000000000               0.000000000               0.000000000               0.000000000               0.000695264               0.004822342              -0.000486465              -0.000342068               0.001721454               0.001379386               0.000000000               0.000000000               0.000000000               0.000000000               0.000821311               0.004865570              -0.000368187              -0.000300204               0.001721908               0.001421705               0.000000000               0.000000000               0.000000000               0.000000000               0.000955660               0.004890941              -0.000206954              -0.000252994               0.001714629               0.001461635               0.000000000               0.000000000               0.000000000               0.000000000               0.001048579               0.004907315              -0.000115286              -0.000220197               0.001709154               0.001488957               0.000000000               0.000000000               0.000000000               0.000000000              -0.004445069              -0.000324437               0.000086724              -0.001626345               0.000433966              -0.001192379               0.000000000               0.000000000               0.000000000               0.000000000              -0.002429837               0.000206392              -0.000279452              -0.000936987               0.000381124              -0.000555863               0.000000000               0.000000000               0.000000000               0.000000000              -0.000954386               0.000776950              -0.000612745              -0.000455013               0.000410651              -0.000044362               0.000000000               0.000000000               0.000000000               0.000000000              -0.000277248               0.001494924              -0.000705220              -0.000290833               0.000595247               0.000304414               0.000000000               0.000000000               0.000000000               0.000000000               0.000051703               0.002155528              -0.000703432              -0.000250052               0.000801852               0.000551800               0.000000000               0.000000000               0.000000000               0.000000000               0.000217377               0.002720644              -0.000665350              -0.000258564               0.000993060               0.000734496               0.000000000               0.000000000               0.000000000               0.000000000               0.000307760               0.003192007              -0.000614873              -0.000283591               0.001158522               0.000874931               0.000000000               0.000000000               0.000000000               0.000000000               0.000367380               0.003575014              -0.000560698              -0.000309109               0.001294696               0.000985587               0.000000000               0.000000000               0.000000000               0.000000000               0.000422255               0.003882303              -0.000509496              -0.000326942               0.001403069               0.001076127               0.000000000               0.000000000               0.000000000               0.000000000               0.000480653               0.004127289              -0.000464216              -0.000335666               0.001487638               0.001151972               0.000000000               0.000000000               0.000000000               0.000000000               0.000552373               0.004324060              -0.000422275              -0.000333367               0.001552461               0.001219094               0.000000000               0.000000000               0.000000000               0.000000000               0.000645586               0.004487685              -0.000382795              -0.000318865               0.001602169               0.001283303               0.000000000               0.000000000               0.000000000               0.000000000               0.000764507               0.004624852              -0.000343220              -0.000291416               0.001638741               0.001347325               0.000000000               0.000000000               0.000000000               0.000000000               0.000913154               0.004735706              -0.000295069              -0.000249530               0.001661729               0.001412199               0.000000000               0.000000000               0.000000000               0.000000000               0.001101143               0.004818111              -0.000228948              -0.000189335               0.001669133               0.001479798               0.000000000               0.000000000               0.000000000               0.000000000               0.001342113               0.004870761              -0.000132174              -0.000105553               0.001658755               0.001553203               0.000000000               0.000000000               0.000000000               0.000000000               0.001541013               0.004911556              -0.000077667              -0.000036065               0.001649191               0.001613126               0.000000000               0.000000000               0.000000000               0.000000000              -0.004643759              -0.000371430              -0.000000000              -0.001694980               0.000441180              -0.001253800               0.000000000               0.000000000               0.000000000               0.000000000              -0.002535107               0.000092313              -0.000000000              -0.000962203               0.000351503              -0.000610700               0.000000000               0.000000000               0.000000000               0.000000000              -0.000958081               0.000590081              -0.000000000              -0.000433040               0.000341038              -0.000092002               0.000000000               0.000000000               0.000000000               0.000000000              -0.000227172               0.001287222               0.000000000              -0.000246092               0.000511100               0.000265009               0.000000000               0.000000000               0.000000000               0.000000000               0.000125343               0.001949499              -0.000000000              -0.000196683               0.000715387               0.000518704               0.000000000               0.000000000               0.000000000               0.000000000               0.000300147               0.002523811              -0.000000000              -0.000202921               0.000908902               0.000705981               0.000000000               0.000000000               0.000000000               0.000000000               0.000388009               0.003012692              -0.000000000              -0.000231083               0.001081248               0.000850165               0.000000000               0.000000000               0.000000000               0.000000000               0.000440835               0.003420851               0.000000000              -0.000262293               0.001227703               0.000965411               0.000000000               0.000000000               0.000000000               0.000000000               0.000486755               0.003750248              -0.000000000              -0.000286247               0.001345486               0.001059239               0.000000000               0.000000000               0.000000000               0.000000000               0.000540927               0.004014993              -0.000000000              -0.000299026               0.001437993               0.001138967               0.000000000               0.000000000               0.000000000               0.000000000               0.000610770               0.004232866               0.000000000              -0.000300069               0.001510964               0.001210895               0.000000000               0.000000000               0.000000000               0.000000000               0.000707237               0.004420429              -0.000000000              -0.000287339               0.001569241               0.001281902               0.000000000               0.000000000               0.000000000               0.000000000               0.000832853               0.004578676              -0.000000000              -0.000260014               0.001612881               0.001352867               0.000000000               0.000000000               0.000000000               0.000000000               0.000995946               0.004705639              -0.000000000              -0.000214725               0.001640105               0.001425381               0.000000000               0.000000000               0.000000000               0.000000000               0.001210897               0.004802936              -0.000000000              -0.000146280               0.001649723               0.001503443               0.000000000               0.000000000               0.000000000               0.000000000               0.001498426               0.004864429              -0.000000000              -0.000046144               0.001636842               0.001590698               0.000000000               0.000000000               0.000000000               0.000000000               0.001743694               0.004912829               0.000000000               0.000039781               0.001624333               0.001664114               0.000000000               0.000000000               0.000000000               0.000000000               0.000000000               0.000000000               0.000000000               0.000000000               0.000000000               0.000000000               0.000000000               0.000000000               0.000000000               0.000000000               0.000000000               0.000000000               0.000000000               0.000000000               0.000000000               0.000000000               0.000000000               0.000000000               0.000000000               0.000000000               0.000000000               0.000000000               0.000000000               0.000000000               0.000000000               0.000000000               0.000000000               0.000000000               0.000000000               0.000000000               0.000000000               0.000000000               0.000000000               0.000000000               0.000000000               0.000000000               0.000000000               0.000000000               0.000000000               0.000000000               0.000000000               0.000000000               0.000000000               0.000000000               0.000000000               0.000000000               0.000000000               0.000000000               0.000000000               0.000000000               0.000000000               0.000000000               0.000000000               0.000000000               0.000000000               0.000000000               0.000000000               0.000000000               0.000000000               0.000000000               0.000000000               0.000000000               0.000000000               0.000000000               0.000000000               0.000000000               0.000000000               0.000000000               0.000000000               0.000000000               0.000000000               0.000000000               0.000000000               0.000000000               0.000000000               0.000000000               0.000000000               0.000000000               0.000000000               0.000000000               0.000000000               0.000000000               0.000000000               0.000000000               0.000000000               0.000000000               0.000000000               0.000000000               0.000000000               0.000000000               0.000000000               0.000000000               0.000000000               0.000000000               0.000000000               0.000000000               0.000000000               0.000000000               0.000000000               0.000000000               0.000000000               0.000000000               0.000000000               0.000000000               0.000000000               0.000000000               0.000000000               0.000000000               0.000000000               0.000000000               0.000000000               0.000000000               0.000000000               0.000000000               0.000000000               0.000000000               0.000000000               0.000000000               0.000000000               0.000000000               0.000000000               0.000000000               0.000000000               0.000000000               0.000000000               0.000000000               0.000000000               0.000000000               0.000000000               0.000000000               0.000000000               0.000000000               0.000000000               0.000000000               0.000000000               0.000000000               0.000000000               0.000000000               0.000000000               0.000000000               0.000000000               0.000000000               0.000000000               0.000000000               0.000000000               0.000000000               0.000000000               0.000000000               0.000000000               0.000000000               0.000000000               0.000000000               0.000000000               0.000000000               0.000000000               0.000000000               0.000000000               0.000000000               0.000000000               0.000000000               0.000000000               0.000000000               0.000000000               0.000000000               0.000000000               0.000000000               0.000000000               0.000000000               0.000000000               0.000000000               0.001595298               0.016782270               0.001215631              -0.001499544               0.006093882               0.004594338               0.000000000               0.000000000               0.000000000               0.000000000               0.001576945               0.013481163               0.000679969              -0.001093788               0.004858272               0.003764484               0.000000000               0.000000000               0.000000000               0.000000000               0.002053971               0.010839704               0.000140141              -0.000584722               0.003808106               0.003223383               0.000000000               0.000000000               0.000000000               0.000000000               0.002010544               0.009363738              -0.000095513              -0.000416512               0.003260052               0.002843540               0.000000000               0.000000000               0.000000000               0.000000000               0.001793074               0.008460634              -0.000201554              -0.000385176               0.002948575               0.002563399               0.000000000               0.000000000               0.000000000               0.000000000               0.001523790               0.007872556              -0.000250057              -0.000412647               0.002761708               0.002349061               0.000000000               0.000000000               0.000000000               0.000000000               0.001257243               0.007466340              -0.000265368              -0.000461825               0.002642697               0.002180872               0.000000000               0.000000000               0.000000000               0.000000000               0.001018517               0.007163143              -0.000261781              -0.000513448               0.002558840               0.002045392               0.000000000               0.000000000               0.000000000               0.000000000               0.000813546               0.006918272              -0.000251997              -0.000559703               0.002492635               0.001932932               0.000000000               0.000000000               0.000000000               0.000000000               0.000637000               0.006706742              -0.000238047              -0.000599466               0.002435380               0.001835914               0.000000000               0.000000000               0.000000000               0.000000000               0.000483719               0.006514242              -0.000221134              -0.000632884               0.002382354               0.001749470               0.000000000               0.000000000               0.000000000               0.000000000               0.000348814               0.006331732              -0.000206231              -0.000660660               0.002330776               0.001670117               0.000000000               0.000000000               0.000000000               0.000000000               0.000233773               0.006151113              -0.000190787              -0.000681223               0.002277425               0.001596202               0.000000000               0.000000000               0.000000000               0.000000000               0.000145376               0.005965955              -0.000166687              -0.000691227               0.002219041               0.001527814               0.000000000               0.000000000               0.000000000               0.000000000               0.000077119               0.005765209              -0.000130597              -0.000691730               0.002152294               0.001460564               0.000000000               0.000000000               0.000000000               0.000000000               0.000029340               0.005540848              -0.000076621              -0.000681602               0.002074131               0.001392530               0.000000000               0.000000000               0.000000000               0.000000000              -0.000005377               0.005372094              -0.000047173              -0.000673527               0.002015189               0.001341663               0.000000000               0.000000000               0.000000000               0.000000000               0.001782651               0.015843555               0.002283935              -0.001311948               0.005718448               0.004406500               0.000000000               0.000000000               0.000000000               0.000000000               0.001548924               0.012856499               0.001282359              -0.001026214               0.004627528               0.003601314               0.000000000               0.000000000               0.000000000               0.000000000               0.001791548               0.010542221               0.000280440              -0.000645946               0.003729354               0.003083408               0.000000000               0.000000000               0.000000000               0.000000000               0.001655492               0.009237791              -0.000146263              -0.000533913               0.003257204               0.002723291               0.000000000               0.000000000               0.000000000               0.000000000               0.001419669               0.008428452              -0.000334050              -0.000521179               0.002983182               0.002462003               0.000000000               0.000000000               0.000000000               0.000000000               0.001167809               0.007884704              -0.000416204              -0.000547658               0.002810761               0.002263103               0.000000000               0.000000000               0.000000000               0.000000000               0.000933119               0.007492565              -0.000440816              -0.000586650               0.002693047               0.002106397               0.000000000               0.000000000               0.000000000               0.000000000               0.000731863               0.007190220              -0.000433269              -0.000624327               0.002604825               0.001980498               0.000000000               0.000000000               0.000000000               0.000000000               0.000561842               0.006939483              -0.000413359              -0.000656743               0.002532052               0.001875309               0.000000000               0.000000000               0.000000000               0.000000000               0.000420099               0.006724273              -0.000389446              -0.000682995               0.002469067               0.001786072               0.000000000               0.000000000               0.000000000               0.000000000               0.000302537               0.006537207              -0.000363438              -0.000703698               0.002413613               0.001709915               0.000000000               0.000000000               0.000000000               0.000000000               0.000199116               0.006363646              -0.000334227              -0.000720785               0.002361456               0.001640670               0.000000000               0.000000000               0.000000000               0.000000000               0.000115452               0.006189718              -0.000299302              -0.000730419               0.002306692               0.001576273               0.000000000               0.000000000               0.000000000               0.000000000               0.000059710               0.006016403              -0.000253474              -0.000729657               0.002248667               0.001519009               0.000000000               0.000000000               0.000000000               0.000000000               0.000024554               0.005843769              -0.000192600              -0.000721262               0.002188324               0.001467063               0.000000000               0.000000000               0.000000000               0.000000000               0.000007049               0.005673671              -0.000109549              -0.000706564               0.002126726               0.001420162               0.000000000               0.000000000               0.000000000               0.000000000              -0.000008618               0.005559694              -0.000065530              -0.000698192               0.002085944               0.001387752               0.000000000               0.000000000               0.000000000               0.000000000               0.002015594               0.014418121               0.003081980              -0.001046417               0.005154797               0.004108381               0.000000000               0.000000000               0.000000000               0.000000000               0.001474812               0.011918635               0.001744753              -0.000936773               0.004285096               0.003348323               0.000000000               0.000000000               0.000000000               0.000000000               0.001388724               0.010099775               0.000420757              -0.000741698               0.003613791               0.002872092               0.000000000               0.000000000               0.000000000               0.000000000               0.001144351               0.009041408              -0.000122798              -0.000701043               0.003247454               0.002546411               0.000000000               0.000000000               0.000000000               0.000000000               0.000896197               0.008355754              -0.000353950              -0.000708393               0.003021355               0.002312961               0.000000000               0.000000000               0.000000000               0.000000000               0.000677580               0.007870703              -0.000452045              -0.000729744               0.002866789               0.002137046               0.000000000               0.000000000               0.000000000               0.000000000               0.000497305               0.007500478              -0.000482536              -0.000751068               0.002750490               0.001999422               0.000000000               0.000000000               0.000000000               0.000000000               0.000352579               0.007199904              -0.000473634              -0.000767769               0.002655867               0.001888098               0.000000000               0.000000000               0.000000000               0.000000000               0.000235991               0.006947122              -0.000450206              -0.000779892               0.002575648               0.001795756               0.000000000               0.000000000               0.000000000               0.000000000               0.000143446               0.006733318              -0.000424000              -0.000787871               0.002507040               0.001719170               0.000000000               0.000000000               0.000000000               0.000000000               0.000070011               0.006545403              -0.000394584              -0.000791919               0.002445752               0.001653833               0.000000000               0.000000000               0.000000000               0.000000000               0.000011868               0.006369282              -0.000356898              -0.000791708               0.002386975               0.001595267               0.000000000               0.000000000               0.000000000               0.000000000              -0.000027459               0.006201039              -0.000311573              -0.000785425               0.002328801               0.001543375               0.000000000               0.000000000               0.000000000               0.000000000              -0.000045835               0.006044371              -0.000258345              -0.000772733               0.002272348               0.001499615               0.000000000               0.000000000               0.000000000               0.000000000              -0.000046749               0.005904615              -0.000191743              -0.000755606               0.002220054               0.001464448               0.000000000               0.000000000               0.000000000               0.000000000              -0.000029209               0.005786674              -0.000106327              -0.000734286               0.002173634               0.001439348               0.000000000               0.000000000               0.000000000               0.000000000              -0.000022856               0.005718128              -0.000062065              -0.000723335               0.002147135               0.001423800               0.000000000               0.000000000               0.000000000               0.000000000               0.002193138               0.012671766               0.003546822              -0.000761545               0.004477727               0.003716182               0.000000000               0.000000000               0.000000000               0.000000000               0.001326340               0.010787285               0.002041916              -0.000851032               0.003879403               0.003028371               0.000000000               0.000000000               0.000000000               0.000000000               0.000892558               0.009568689               0.000567810              -0.000861375               0.003476656               0.002615281               0.000000000               0.000000000               0.000000000               0.000000000               0.000561806               0.008784801              -0.000011152              -0.000887421               0.003224044               0.002336624               0.000000000               0.000000000               0.000000000               0.000000000               0.000329166               0.008228129              -0.000251668              -0.000905077               0.003044375               0.002139298               0.000000000               0.000000000               0.000000000               0.000000000               0.000169632               0.007803139              -0.000354433              -0.000911778               0.002904946               0.001993168               0.000000000               0.000000000               0.000000000               0.000000000               0.000057997               0.007451327              -0.000389070              -0.000909665               0.002786972               0.001877308               0.000000000               0.000000000               0.000000000               0.000000000              -0.000018433               0.007154434              -0.000385574              -0.000901214               0.002685192               0.001783978               0.000000000               0.000000000               0.000000000               0.000000000              -0.000073042               0.006903042              -0.000370300              -0.000890269               0.002597747               0.001707478               0.000000000               0.000000000               0.000000000               0.000000000              -0.000109248               0.006687590              -0.000352612              -0.000876915               0.002521479               0.001644564               0.000000000               0.000000000               0.000000000               0.000000000              -0.000127931               0.006493689              -0.000329241              -0.000859683               0.002451102               0.001591419               0.000000000               0.000000000               0.000000000               0.000000000              -0.000134588               0.006313639              -0.000296980              -0.000839673               0.002384416               0.001544743               0.000000000               0.000000000               0.000000000               0.000000000              -0.000128729               0.006152389              -0.000257125              -0.000817320               0.002323216               0.001505896               0.000000000               0.000000000               0.000000000               0.000000000              -0.000110080               0.006014233              -0.000211869              -0.000793057               0.002269076               0.001476019               0.000000000               0.000000000               0.000000000               0.000000000              -0.000081417               0.005903386              -0.000155185              -0.000768453               0.002223926               0.001455474               0.000000000               0.000000000               0.000000000               0.000000000              -0.000044470               0.005822406              -0.000083271              -0.000744475               0.002188941               0.001444466               0.000000000               0.000000000               0.000000000               0.000000000              -0.000027136               0.005784750              -0.000046027              -0.000733268               0.002172653               0.001439386               0.000000000               0.000000000               0.000000000               0.000000000               0.002223806               0.010774967               0.003679312              -0.000512946               0.003762601               0.003249655               0.000000000               0.000000000               0.000000000               0.000000000               0.001086196               0.009583233               0.002187133              -0.000790580               0.003457905               0.002667325               0.000000000               0.000000000               0.000000000               0.000000000               0.000357212               0.008996558               0.000735987              -0.000990613               0.003329027               0.002338414               0.000000000               0.000000000               0.000000000               0.000000000              -0.000003498               0.008472401               0.000184848              -0.001060359               0.003177559               0.002117199               0.000000000               0.000000000               0.000000000               0.000000000              -0.000182692               0.008032928              -0.000045938              -0.001072623               0.003035157               0.001962534               0.000000000               0.000000000               0.000000000               0.000000000              -0.000266061               0.007656431              -0.000149579              -0.001056824               0.002904393               0.001847569               0.000000000               0.000000000               0.000000000               0.000000000              -0.000301418               0.007324488              -0.000194120              -0.001028590               0.002784335               0.001755745               0.000000000               0.000000000               0.000000000               0.000000000              -0.000306212               0.007035236              -0.000209308              -0.000994231               0.002676466               0.001682234               0.000000000               0.000000000               0.000000000               0.000000000              -0.000295619               0.006784831              -0.000214207              -0.000958959               0.002581241               0.001622282               0.000000000               0.000000000               0.000000000               0.000000000              -0.000275835               0.006562587              -0.000214876              -0.000923759               0.002495427               0.001571668               0.000000000               0.000000000               0.000000000               0.000000000              -0.000242873               0.006361801              -0.000205629              -0.000886300               0.002416013               0.001529712               0.000000000               0.000000000               0.000000000               0.000000000              -0.000203127               0.006181109              -0.000187299              -0.000848809               0.002343286               0.001494476               0.000000000               0.000000000               0.000000000               0.000000000              -0.000160075               0.006024473              -0.000161873              -0.000813085               0.002279166               0.001466081               0.000000000               0.000000000               0.000000000               0.000000000              -0.000115151               0.005894220              -0.000130501              -0.000779957               0.002224706               0.001444749               0.000000000               0.000000000               0.000000000               0.000000000              -0.000073008               0.005788745              -0.000088597              -0.000750969               0.002179885               0.001428916               0.000000000               0.000000000               0.000000000               0.000000000              -0.000034927               0.005712784              -0.000041258              -0.000727194               0.002146640               0.001419446               0.000000000               0.000000000               0.000000000               0.000000000              -0.000019545               0.005678047              -0.000020726              -0.000717083               0.002131691               0.001414608               0.000000000               0.000000000               0.000000000               0.000000000               0.002061698               0.008878126               0.003524935              -0.000336632               0.003071555               0.002734923               0.000000000               0.000000000               0.000000000               0.000000000               0.000770330               0.008400170               0.002216853              -0.000761147               0.003053744               0.002292597               0.000000000               0.000000000               0.000000000               0.000000000              -0.000154639               0.008404838               0.000936074              -0.001108592               0.003171115               0.002062523               0.000000000               0.000000000               0.000000000               0.000000000              -0.000479877               0.008101259               0.000446881              -0.001192608               0.003097929               0.001905320               0.000000000               0.000000000               0.000000000               0.000000000              -0.000574875               0.007758743               0.000227286              -0.001185418               0.002981361               0.001795943               0.000000000               0.000000000               0.000000000               0.000000000              -0.000572704               0.007428674               0.000110536              -0.001143345               0.002857315               0.001713970               0.000000000               0.000000000               0.000000000               0.000000000              -0.000532221               0.007123205               0.000041156              -0.001089981               0.002737705               0.001647724               0.000000000               0.000000000               0.000000000               0.000000000              -0.000480316               0.006842554              -0.000003371              -0.001035435               0.002625974               0.001590539               0.000000000               0.000000000               0.000000000               0.000000000              -0.000418602               0.006595049              -0.000035746              -0.000981354               0.002525446               0.001544091               0.000000000               0.000000000               0.000000000               0.000000000              -0.000353266               0.006373313              -0.000057878              -0.000929136               0.002434129               0.001504992               0.000000000               0.000000000               0.000000000               0.000000000              -0.000281002               0.006171397              -0.000067007              -0.000876798               0.002349378               0.001472580               0.000000000               0.000000000               0.000000000               0.000000000              -0.000209122               0.005989307              -0.000065667              -0.000827082               0.002272110               0.001445028               0.000000000               0.000000000               0.000000000               0.000000000              -0.000149566               0.005826900              -0.000057263              -0.000784448               0.002203763               0.001419315               0.000000000               0.000000000               0.000000000               0.000000000              -0.000099815               0.005687367              -0.000043149              -0.000748350               0.002145220               0.001396870               0.000000000               0.000000000               0.000000000               0.000000000              -0.000055558               0.005572158              -0.000023388              -0.000717352               0.002096485               0.001379133               0.000000000               0.000000000               0.000000000               0.000000000              -0.000022144               0.005482904              -0.000006451              -0.000693665               0.002058838               0.001365173               0.000000000               0.000000000               0.000000000               0.000000000              -0.000016700               0.005432253              -0.000004945              -0.000685292               0.002039164               0.001353871               0.000000000               0.000000000               0.000000000               0.000000000               0.001719826               0.007093811               0.003151026              -0.000241795               0.002445177               0.002203382               0.000000000               0.000000000               0.000000000               0.000000000               0.000409429               0.007295695               0.002170346              -0.000758426               0.002684682               0.001926256               0.000000000               0.000000000               0.000000000               0.000000000              -0.000579460               0.007794714               0.001169086              -0.001191634               0.002995423               0.001803789               0.000000000               0.000000000               0.000000000               0.000000000              -0.000816282               0.007671802               0.000743098              -0.001265078               0.002978934               0.001713856               0.000000000               0.000000000               0.000000000               0.000000000              -0.000813975               0.007418174               0.000514162              -0.001232510               0.002883537               0.001651027               0.000000000               0.000000000               0.000000000               0.000000000              -0.000732656               0.007137786               0.000366984              -0.001166966               0.002768227               0.001601260               0.000000000               0.000000000               0.000000000               0.000000000              -0.000634805               0.006857482               0.000264704              -0.001095234               0.002650883               0.001555648               0.000000000               0.000000000               0.000000000               0.000000000              -0.000541126               0.006592534               0.000188619              -0.001026986               0.002539818               0.001512832               0.000000000               0.000000000               0.000000000               0.000000000              -0.000446045               0.006356228               0.000126805              -0.000961793               0.002439319               0.001477526               0.000000000               0.000000000               0.000000000               0.000000000              -0.000352193               0.006139059               0.000081636              -0.000899452               0.002346150               0.001446698               0.000000000               0.000000000               0.000000000               0.000000000              -0.000265086               0.005934639               0.000053787              -0.000841235               0.002258605               0.001417370               0.000000000               0.000000000               0.000000000               0.000000000              -0.000189664               0.005746318               0.000037482              -0.000789412               0.002178558               0.001389146               0.000000000               0.000000000               0.000000000               0.000000000              -0.000128656               0.005578264               0.000026146              -0.000745527               0.002107912               0.001362385               0.000000000               0.000000000               0.000000000               0.000000000              -0.000077746               0.005434519               0.000017170              -0.000708468               0.002047644               0.001339176               0.000000000               0.000000000               0.000000000               0.000000000              -0.000037982               0.005316599               0.000012207              -0.000678816               0.001998454               0.001319638               0.000000000               0.000000000               0.000000000               0.000000000              -0.000014434               0.005221212               0.000006944              -0.000658063               0.001959741               0.001301678               0.000000000               0.000000000               0.000000000               0.000000000              -0.000015323               0.005164080              -0.000001929              -0.000651255               0.001938428               0.001287173               0.000000000               0.000000000               0.000000000               0.000000000               0.001274279               0.005553801               0.002646186              -0.000216373               0.001923372               0.001706999               0.000000000               0.000000000               0.000000000               0.000000000               0.000074749               0.006297396               0.002092296              -0.000759143               0.002352158               0.001593015               0.000000000               0.000000000               0.000000000               0.000000000              -0.000873213               0.007201027               0.001440608              -0.001227581               0.002809512               0.001581931               0.000000000               0.000000000               0.000000000               0.000000000              -0.001009873               0.007267600               0.001056453              -0.001287149               0.002851559               0.001564409               0.000000000               0.000000000               0.000000000               0.000000000              -0.000933164               0.007115730               0.000802051              -0.001239400               0.002785019               0.001545620               0.000000000               0.000000000               0.000000000               0.000000000              -0.000795111               0.006890408               0.000620091              -0.001159465               0.002683268               0.001523803               0.000000000               0.000000000               0.000000000               0.000000000              -0.000654506               0.006640701               0.000483753              -0.001075525               0.002572053               0.001496528               0.000000000               0.000000000               0.000000000               0.000000000              -0.000528456               0.006402611               0.000375617              -0.000998495               0.002467014               0.001468519               0.000000000               0.000000000               0.000000000               0.000000000              -0.000415154               0.006182947               0.000286018              -0.000928549               0.002370478               0.001441929               0.000000000               0.000000000               0.000000000               0.000000000              -0.000312002               0.005966628               0.000217335              -0.000862827               0.002276465               0.001413638               0.000000000               0.000000000               0.000000000               0.000000000              -0.000224028               0.005756106               0.000167568              -0.000803522               0.002186523               0.001383002               0.000000000               0.000000000               0.000000000               0.000000000              -0.000154190               0.005561932               0.000128394              -0.000753061               0.002104979               0.001351918               0.000000000               0.000000000               0.000000000               0.000000000              -0.000099910               0.005393123               0.000093603              -0.000711605               0.002034891               0.001323286               0.000000000               0.000000000               0.000000000               0.000000000              -0.000059082               0.005252011               0.000060504              -0.000678655               0.001976871               0.001298216               0.000000000               0.000000000               0.000000000               0.000000000              -0.000037516               0.005134787               0.000033594              -0.000655915               0.001930217               0.001274302               0.000000000               0.000000000               0.000000000               0.000000000              -0.000038538               0.005038459               0.000014585              -0.000644258               0.001894222               0.001249964               0.000000000               0.000000000               0.000000000               0.000000000              -0.000046002               0.004988630               0.000004249              -0.000640828               0.001876469               0.001235642               0.000000000               0.000000000               0.000000000               0.000000000               0.000710674               0.004096985               0.002091758              -0.000245622               0.001447521               0.001201899               0.000000000               0.000000000               0.000000000               0.000000000              -0.000180747               0.005145147               0.001995302              -0.000710923               0.001952006               0.001241082               0.000000000               0.000000000               0.000000000               0.000000000              -0.000988912               0.006342459               0.001735008              -0.001163647               0.002502014               0.001338367               0.000000000               0.000000000               0.000000000               0.000000000              -0.001081006               0.006660446               0.001404041              -0.001237930               0.002632770               0.001394839               0.000000000               0.000000000               0.000000000               0.000000000              -0.000981502               0.006673962               0.001129911              -0.001202306               0.002625400               0.001423094               0.000000000               0.000000000               0.000000000               0.000000000              -0.000829988               0.006558977               0.000915572              -0.001131115               0.002563342               0.001432227               0.000000000               0.000000000               0.000000000               0.000000000              -0.000675297               0.006390986               0.000743788              -0.001052107               0.002481010               0.001428903               0.000000000               0.000000000               0.000000000               0.000000000              -0.000534188               0.006219177               0.000600346              -0.000977715               0.002398943               0.001421228               0.000000000               0.000000000               0.000000000               0.000000000              -0.000415941               0.006046029               0.000481800              -0.000911729               0.002319233               0.001407503               0.000000000               0.000000000               0.000000000               0.000000000              -0.000316351               0.005862865               0.000386101              -0.000851488               0.002238098               0.001386610               0.000000000               0.000000000               0.000000000               0.000000000              -0.000231639               0.005675168               0.000306047              -0.000796259               0.002157123               0.001360865               0.000000000               0.000000000               0.000000000               0.000000000              -0.000166955               0.005492605               0.000237318              -0.000749182               0.002080578               0.001331395               0.000000000               0.000000000               0.000000000               0.000000000              -0.000119173               0.005328457               0.000175266              -0.000710745               0.002013050               0.001302305               0.000000000               0.000000000               0.000000000               0.000000000              -0.000086567               0.005190711               0.000116271              -0.000681300               0.001957320               0.001276020               0.000000000               0.000000000               0.000000000               0.000000000              -0.000073865               0.005072932               0.000062561              -0.000661814               0.001911565               0.001249751               0.000000000               0.000000000               0.000000000               0.000000000              -0.000083176               0.004976260               0.000021613              -0.000653222               0.001876477               0.001223256               0.000000000               0.000000000               0.000000000               0.000000000              -0.000094875               0.004932442               0.000004620              -0.000652132               0.001861508               0.001209376               0.000000000               0.000000000               0.000000000               0.000000000              -0.000065144               0.002765546               0.001512177              -0.000370123               0.001045213               0.000675090               0.000000000               0.000000000               0.000000000               0.000000000              -0.000476373               0.003997729               0.001835922              -0.000678356               0.001558681               0.000880325               0.000000000               0.000000000               0.000000000               0.000000000              -0.001023432               0.005367959               0.001962061              -0.001054780               0.002140894               0.001086114               0.000000000               0.000000000               0.000000000               0.000000000              -0.001074936               0.005919723               0.001733897              -0.001143064               0.002354242               0.001211178               0.000000000               0.000000000               0.000000000               0.000000000              -0.000971839               0.006122574               0.001470765              -0.001129759               0.002417424               0.001287665               0.000000000               0.000000000               0.000000000               0.000000000              -0.000824307               0.006150852               0.001237303              -0.001077969               0.002409587               0.001331617               0.000000000               0.000000000               0.000000000               0.000000000              -0.000673011               0.006095684               0.001037685              -0.001014337               0.002369987               0.001355649               0.000000000               0.000000000               0.000000000               0.000000000              -0.000528211               0.006009746               0.000866924              -0.000949295               0.002319660               0.001370365               0.000000000               0.000000000               0.000000000               0.000000000              -0.000402341               0.005900194               0.000722574              -0.000888400               0.002262845               0.001374445               0.000000000               0.000000000               0.000000000               0.000000000              -0.000305389               0.005766586               0.000600591              -0.000835342               0.002200624               0.001365281               0.000000000               0.000000000               0.000000000               0.000000000              -0.000226029               0.005619538               0.000493061              -0.000787201               0.002135561               0.001348360               0.000000000               0.000000000               0.000000000               0.000000000              -0.000161550               0.005462964               0.000395799              -0.000743450               0.002068786               0.001325336               0.000000000               0.000000000               0.000000000               0.000000000              -0.000116354               0.005312223               0.000305142              -0.000707659               0.002006610               0.001298951               0.000000000               0.000000000               0.000000000               0.000000000              -0.000088455               0.005181192               0.000216698              -0.000680818               0.001953986               0.001273168               0.000000000               0.000000000               0.000000000               0.000000000              -0.000079726               0.005068442               0.000131143              -0.000663451               0.001910614               0.001247163               0.000000000               0.000000000               0.000000000               0.000000000              -0.000094003               0.004976844               0.000056168              -0.000657355               0.001878050               0.001220695               0.000000000               0.000000000               0.000000000               0.000000000              -0.000116035               0.004931181               0.000019656              -0.000659909               0.001863680               0.001203771               0.000000000               0.000000000               0.000000000               0.000000000              -0.001005723               0.001646584               0.000941808              -0.000582968               0.000743178               0.000160210               0.000000000               0.000000000               0.000000000               0.000000000              -0.000857557               0.002912564               0.001587517              -0.000685654               0.001199395               0.000513742               0.000000000               0.000000000               0.000000000               0.000000000              -0.001020226               0.004284021               0.002033435              -0.000918087               0.001734021               0.000815934               0.000000000               0.000000000               0.000000000               0.000000000              -0.000977069               0.005003444               0.001939790              -0.000991830               0.001998407               0.001006577               0.000000000               0.000000000               0.000000000               0.000000000              -0.000866411               0.005381763               0.001723637              -0.000997623               0.002126444               0.001128821               0.000000000               0.000000000               0.000000000               0.000000000              -0.000733016               0.005565815               0.001497558              -0.000970606               0.002178788               0.001208182               0.000000000               0.000000000               0.000000000               0.000000000              -0.000592178               0.005641759               0.001290075              -0.000927285               0.002189662               0.001262377               0.000000000               0.000000000               0.000000000               0.000000000              -0.000456687               0.005658419               0.001107000              -0.000878558               0.002178973               0.001300415               0.000000000               0.000000000               0.000000000               0.000000000              -0.000334418               0.005631001               0.000947089              -0.000829280               0.002153408               0.001324128               0.000000000               0.000000000               0.000000000               0.000000000              -0.000233865               0.005566570               0.000808858              -0.000783519               0.002116678               0.001333159               0.000000000               0.000000000               0.000000000               0.000000000              -0.000154984               0.005473005               0.000687446              -0.000742243               0.002071731               0.001329488               0.000000000               0.000000000               0.000000000               0.000000000              -0.000089917               0.005361135               0.000572099              -0.000703859               0.002021647               0.001317787               0.000000000               0.000000000               0.000000000               0.000000000              -0.000042223               0.005247261               0.000456215              -0.000671740               0.001972983               0.001301243               0.000000000               0.000000000               0.000000000               0.000000000              -0.000015044               0.005142589               0.000341267              -0.000648464               0.001930334               0.001281870               0.000000000               0.000000000               0.000000000               0.000000000              -0.000009946               0.005049600               0.000226591              -0.000634928               0.001894826               0.001259898               0.000000000               0.000000000               0.000000000               0.000000000              -0.000032080               0.004971882               0.000110797              -0.000633514               0.001868449               0.001234935               0.000000000               0.000000000               0.000000000               0.000000000              -0.000065394               0.004929046               0.000048418              -0.000640652               0.001856549               0.001215898               0.000000000               0.000000000               0.000000000               0.000000000              -0.002035726               0.000791280               0.000449693              -0.000862306               0.000551191              -0.000311115               0.000000000               0.000000000               0.000000000               0.000000000              -0.001295654               0.001940787               0.001272971              -0.000728468               0.000889744               0.000161276               0.000000000               0.000000000               0.000000000               0.000000000              -0.000997619               0.003173873               0.001924653              -0.000770841               0.001314893               0.000544052               0.000000000               0.000000000               0.000000000               0.000000000              -0.000807891               0.003979327               0.001959035              -0.000800374               0.001593220               0.000792845               0.000000000               0.000000000               0.000000000               0.000000000              -0.000667711               0.004497864               0.001811347              -0.000812624               0.001770147               0.000957523               0.000000000               0.000000000               0.000000000               0.000000000              -0.000543078               0.004828471               0.001621672              -0.000807212               0.001878544               0.001071332               0.000000000               0.000000000               0.000000000               0.000000000              -0.000420423               0.005034796               0.001431543              -0.000787007               0.001940584               0.001153577               0.000000000               0.000000000               0.000000000               0.000000000              -0.000302267               0.005161786               0.001253903              -0.000758572               0.001973435               0.001214863               0.000000000               0.000000000               0.000000000               0.000000000              -0.000191969               0.005229494               0.001095985              -0.000725674               0.001985038               0.001259365               0.000000000               0.000000000               0.000000000               0.000000000              -0.000090645               0.005244851               0.000958426              -0.000689597               0.001978132               0.001288535               0.000000000               0.000000000               0.000000000               0.000000000              -0.000006104               0.005220392               0.000835314              -0.000654837               0.001958392               0.001303555               0.000000000               0.000000000               0.000000000               0.000000000               0.000062111               0.005173737               0.000715380              -0.000623424               0.001932370               0.001308945               0.000000000               0.000000000               0.000000000               0.000000000               0.000118666               0.005114721               0.000590897              -0.000594839               0.001903170               0.001308331               0.000000000               0.000000000               0.000000000               0.000000000               0.000161976               0.005057781               0.000460976              -0.000571480               0.001876404               0.001304923               0.000000000               0.000000000               0.000000000               0.000000000               0.000181482               0.005005230               0.000322799              -0.000557597               0.001854259               0.001296662               0.000000000               0.000000000               0.000000000               0.000000000               0.000166478               0.004955003               0.000169081              -0.000556945               0.001837299               0.001280355               0.000000000               0.000000000               0.000000000               0.000000000               0.000134194               0.004922380               0.000082827              -0.000564973               0.001829101               0.001264128               0.000000000               0.000000000               0.000000000               0.000000000              -0.003038693               0.000202178               0.000100926              -0.001164781               0.000455650              -0.000709131               0.000000000               0.000000000               0.000000000               0.000000000              -0.001744835               0.001139900               0.000927319              -0.000796800               0.000645562              -0.000151238               0.000000000               0.000000000               0.000000000               0.000000000              -0.000970320               0.002144525               0.001630192              -0.000631935               0.000925479               0.000293543               0.000000000               0.000000000               0.000000000               0.000000000              -0.000603508               0.002959325               0.001750607              -0.000596231               0.001185175               0.000588944               0.000000000               0.000000000               0.000000000               0.000000000              -0.000405148               0.003568968               0.001674075              -0.000598051               0.001388994               0.000790942               0.000000000               0.000000000               0.000000000               0.000000000              -0.000275782               0.004015979               0.001537439              -0.000605415               0.001540451               0.000935036               0.000000000               0.000000000               0.000000000               0.000000000              -0.000172128               0.004338891               0.001384696              -0.000606909               0.001648585               0.001041676               0.000000000               0.000000000               0.000000000               0.000000000              -0.000073792               0.004570410               0.001235668              -0.000598973               0.001723112               0.001124139               0.000000000               0.000000000               0.000000000               0.000000000               0.000019264               0.004733002               0.001101208              -0.000584400               0.001772451               0.001188051               0.000000000               0.000000000               0.000000000               0.000000000               0.000109115               0.004837821               0.000981428              -0.000563809               0.001800527               0.001236718               0.000000000               0.000000000               0.000000000               0.000000000               0.000192175               0.004896483               0.000870160              -0.000539994               0.001812142               0.001272148               0.000000000               0.000000000               0.000000000               0.000000000               0.000268256               0.004925890               0.000762161              -0.000515139               0.001813660               0.001298521               0.000000000               0.000000000               0.000000000               0.000000000               0.000342750               0.004936872               0.000651443              -0.000488577               0.001808466               0.001319890               0.000000000               0.000000000               0.000000000               0.000000000               0.000417144               0.004939630               0.000529612              -0.000461024               0.001800201               0.001339178               0.000000000               0.000000000               0.000000000               0.000000000               0.000479724               0.004934084               0.000386535              -0.000436863               0.001790299               0.001353436               0.000000000               0.000000000               0.000000000               0.000000000               0.000515205               0.004921814               0.000210812              -0.000422024               0.001781263               0.001359239               0.000000000               0.000000000               0.000000000               0.000000000               0.000519215               0.004910391               0.000111347              -0.000419092               0.001776478               0.001357386               0.000000000               0.000000000               0.000000000               0.000000000              -0.003881890              -0.000153221              -0.000073272              -0.001436555               0.000427775              -0.001008780               0.000000000               0.000000000               0.000000000               0.000000000              -0.002145062               0.000553893               0.000588119              -0.000873634               0.000475839              -0.000397795               0.000000000               0.000000000               0.000000000               0.000000000              -0.000953970               0.001313972               0.001175936              -0.000521985               0.000611980               0.000089995               0.000000000               0.000000000               0.000000000               0.000000000              -0.000412436               0.002085270               0.001316860              -0.000415322               0.000833523               0.000418201               0.000000000               0.000000000               0.000000000               0.000000000              -0.000142223               0.002736100               0.001291834              -0.000395346               0.001043806               0.000648460               0.000000000               0.000000000               0.000000000               0.000000000               0.000002300               0.003260143               0.001207950              -0.000406655               0.001222255               0.000815600               0.000000000               0.000000000               0.000000000               0.000000000               0.000096414               0.003674550               0.001105993              -0.000423163               0.001365892               0.000942729               0.000000000               0.000000000               0.000000000               0.000000000               0.000175233               0.003996922               0.001001057              -0.000433902               0.001476928               0.001043026               0.000000000               0.000000000               0.000000000               0.000000000               0.000248316               0.004243377               0.000904187              -0.000437303               0.001560212               0.001122909               0.000000000               0.000000000               0.000000000               0.000000000               0.000319211               0.004429326               0.000817428              -0.000433961               0.001621081               0.001187120               0.000000000               0.000000000               0.000000000               0.000000000               0.000395584               0.004568157               0.000735505              -0.000422675               0.001663595               0.001240921               0.000000000               0.000000000               0.000000000               0.000000000               0.000481742               0.004674082               0.000657036              -0.000403606               0.001692547               0.001288941               0.000000000               0.000000000               0.000000000               0.000000000               0.000581472               0.004758016               0.000577923              -0.000376699               0.001711556               0.001334857               0.000000000               0.000000000               0.000000000               0.000000000               0.000695264               0.004822342               0.000486465              -0.000342068               0.001721454               0.001379386               0.000000000               0.000000000               0.000000000               0.000000000               0.000821311               0.004865570               0.000368187              -0.000300204               0.001721908               0.001421705               0.000000000               0.000000000               0.000000000               0.000000000               0.000955660               0.004890941               0.000206954              -0.000252994               0.001714629               0.001461635               0.000000000               0.000000000               0.000000000               0.000000000               0.001048579               0.004907315               0.000115286              -0.000220197               0.001709154               0.001488957               0.000000000               0.000000000               0.000000000               0.000000000              -0.004445069              -0.000324437              -0.000086724              -0.001626345               0.000433966              -0.001192379               0.000000000               0.000000000               0.000000000               0.000000000              -0.002429837               0.000206392               0.000279452              -0.000936987               0.000381124              -0.000555863               0.000000000               0.000000000               0.000000000               0.000000000              -0.000954386               0.000776950               0.000612745              -0.000455013               0.000410651              -0.000044362               0.000000000               0.000000000               0.000000000               0.000000000              -0.000277248               0.001494924               0.000705220              -0.000290833               0.000595247               0.000304414               0.000000000               0.000000000               0.000000000               0.000000000               0.000051703               0.002155528               0.000703432              -0.000250052               0.000801852               0.000551800               0.000000000               0.000000000               0.000000000               0.000000000               0.000217377               0.002720644               0.000665350              -0.000258564               0.000993060               0.000734496               0.000000000               0.000000000               0.000000000               0.000000000               0.000307760               0.003192007               0.000614873              -0.000283591               0.001158522               0.000874931               0.000000000               0.000000000               0.000000000               0.000000000               0.000367380               0.003575014               0.000560698              -0.000309109               0.001294696               0.000985587               0.000000000               0.000000000               0.000000000               0.000000000               0.000422255               0.003882303               0.000509496              -0.000326942               0.001403069               0.001076127               0.000000000               0.000000000               0.000000000               0.000000000               0.000480653               0.004127289               0.000464216              -0.000335666               0.001487638               0.001151972               0.000000000               0.000000000               0.000000000               0.000000000               0.000552373               0.004324060               0.000422275              -0.000333367               0.001552461               0.001219094               0.000000000               0.000000000               0.000000000               0.000000000               0.000645586               0.004487685               0.000382795              -0.000318865               0.001602169               0.001283303               0.000000000               0.000000000               0.000000000               0.000000000               0.000764507               0.004624852               0.000343220              -0.000291416               0.001638741               0.001347325               0.000000000               0.000000000               0.000000000               0.000000000               0.000913154               0.004735706               0.000295069              -0.000249530               0.001661729               0.001412199               0.000000000               0.000000000               0.000000000               0.000000000               0.001101143               0.004818111               0.000228948              -0.000189335               0.001669133               0.001479798               0.000000000               0.000000000               0.000000000               0.000000000               0.001342113               0.004870761               0.000132174              -0.000105553               0.001658755               0.001553203               0.000000000               0.000000000               0.000000000               0.000000000               0.001541013               0.004911556               0.000077667              -0.000036065               0.001649191               0.001613126               0.000000000               0.000000000               0.000000000               0.000000000              -0.004643759              -0.000371430               0.000000000              -0.001694980               0.000441180              -0.001253800               0.000000000               0.000000000               0.000000000               0.000000000              -0.002535107               0.000092313              -0.000000000              -0.000962203               0.000351503              -0.000610700               0.000000000               0.000000000               0.000000000               0.000000000              -0.000958081               0.000590081              -0.000000000              -0.000433040               0.000341038              -0.000092002               0.000000000               0.000000000               0.000000000               0.000000000              -0.000227172               0.001287222               0.000000000              -0.000246092               0.000511100               0.000265009               0.000000000               0.000000000               0.000000000               0.000000000               0.000125343               0.001949499               0.000000000              -0.000196683               0.000715387               0.000518704               0.000000000               0.000000000               0.000000000               0.000000000               0.000300147               0.002523811               0.000000000              -0.000202921               0.000908902               0.000705981               0.000000000               0.000000000               0.000000000               0.000000000               0.000388009               0.003012692              -0.000000000              -0.000231083               0.001081248               0.000850165               0.000000000               0.000000000               0.000000000               0.000000000               0.000440835               0.003420851               0.000000000              -0.000262293               0.001227703               0.000965411               0.000000000               0.000000000               0.000000000               0.000000000               0.000486755               0.003750248               0.000000000              -0.000286247               0.001345486               0.001059239               0.000000000               0.000000000               0.000000000               0.000000000               0.000540927               0.004014993              -0.000000000              -0.000299026               0.001437993               0.001138967               0.000000000               0.000000000               0.000000000               0.000000000               0.000610770               0.004232866               0.000000000              -0.000300069               0.001510964               0.001210895               0.000000000               0.000000000               0.000000000               0.000000000               0.000707237               0.004420429               0.000000000              -0.000287339               0.001569241               0.001281902               0.000000000               0.000000000               0.000000000               0.000000000               0.000832853               0.004578676              -0.000000000              -0.000260014               0.001612881               0.001352867               0.000000000               0.000000000               0.000000000               0.000000000               0.000995946               0.004705639              -0.000000000              -0.000214725               0.001640105               0.001425381               0.000000000               0.000000000               0.000000000               0.000000000               0.001210897               0.004802936              -0.000000000              -0.000146280               0.001649723               0.001503443               0.000000000               0.000000000               0.000000000               0.000000000               0.001498426               0.004864429               0.000000000              -0.000046144               0.001636842               0.001590698               0.000000000               0.000000000               0.000000000               0.000000000               0.001743694               0.004912829              -0.000000000               0.000039781               0.001624333               0.001664114               0.000000000               0.000000000               0.000000000               0.000000000               0.001525423               0.017110822              -0.000000000              -0.001566815               0.006225822               0.004659007               0.000000000               0.000000000               0.000000000               0.000000000               0.001584894               0.013701339              -0.000000000              -0.001118329               0.004939844               0.003821514               0.000000000               0.000000000               0.000000000               0.000000000               0.002145970               0.010944713               0.000000000              -0.000563349               0.003835984               0.003272635               0.000000000               0.000000000               0.000000000               0.000000000               0.002137348               0.009406064               0.000000000              -0.000374251               0.003260074               0.002885822               0.000000000               0.000000000               0.000000000               0.000000000               0.001929362               0.008467772              -0.000000000              -0.000334960               0.002934216               0.002599256               0.000000000               0.000000000               0.000000000               0.000000000               0.001654228               0.007863374               0.000000000              -0.000362585               0.002741960               0.002379375               0.000000000               0.000000000               0.000000000               0.000000000               0.001375480               0.007453355               0.000000000              -0.000415863               0.002623048               0.002207185               0.000000000               0.000000000               0.000000000               0.000000000               0.001124025               0.007150291              -0.000000000              -0.000472276               0.002540832               0.002068556               0.000000000               0.000000000               0.000000000               0.000000000               0.000906942               0.006907938              -0.000000000              -0.000523388               0.002477086               0.001953698               0.000000000               0.000000000               0.000000000               0.000000000               0.000721057               0.006700953               0.000000000              -0.000567222               0.002422703               0.001855481               0.000000000               0.000000000               0.000000000               0.000000000               0.000559455               0.006506952               0.000000000              -0.000603572               0.002370153               0.001766581               0.000000000               0.000000000               0.000000000               0.000000000               0.000412473               0.006315964               0.000000000              -0.000634816               0.002316906               0.001682089               0.000000000               0.000000000               0.000000000               0.000000000               0.000279853               0.006128849              -0.000000000              -0.000661160               0.002263316               0.001602156               0.000000000               0.000000000               0.000000000               0.000000000               0.000172369               0.005937833               0.000000000              -0.000677589               0.002205121               0.001527532               0.000000000               0.000000000               0.000000000               0.000000000               0.000092594               0.005725335               0.000000000              -0.000680942               0.002135407               0.001454464               0.000000000               0.000000000               0.000000000               0.000000000               0.000039144               0.005474893              -0.000000000              -0.000669681               0.002048173               0.001378492               0.000000000               0.000000000               0.000000000               0.000000000              -0.000002078               0.005276770               0.000000000              -0.000660374               0.001979031               0.001318657               0.000000000               0.000000000               0.000000000               0.000000000               0.001595298               0.016782270              -0.001215631              -0.001499544               0.006093882               0.004594338               0.000000000               0.000000000               0.000000000               0.000000000               0.001576945               0.013481163              -0.000679969              -0.001093788               0.004858272               0.003764484               0.000000000               0.000000000               0.000000000               0.000000000               0.002053971               0.010839704              -0.000140141              -0.000584722               0.003808106               0.003223383               0.000000000               0.000000000               0.000000000               0.000000000               0.002010544               0.009363738               0.000095513              -0.000416512               0.003260052               0.002843540               0.000000000               0.000000000               0.000000000               0.000000000               0.001793074               0.008460634               0.000201554              -0.000385176               0.002948575               0.002563399               0.000000000               0.000000000               0.000000000               0.000000000               0.001523790               0.007872556               0.000250057              -0.000412647               0.002761708               0.002349061               0.000000000               0.000000000               0.000000000               0.000000000               0.001257243               0.007466340               0.000265368              -0.000461825               0.002642697               0.002180872               0.000000000               0.000000000               0.000000000               0.000000000               0.001018517               0.007163143               0.000261781              -0.000513448               0.002558840               0.002045392               0.000000000               0.000000000               0.000000000               0.000000000               0.000813546               0.006918272               0.000251997              -0.000559703               0.002492635               0.001932932               0.000000000               0.000000000               0.000000000               0.000000000               0.000637000               0.006706742               0.000238047              -0.000599466               0.002435380               0.001835914               0.000000000               0.000000000               0.000000000               0.000000000               0.000483719               0.006514242               0.000221134              -0.000632884               0.002382354               0.001749470               0.000000000               0.000000000               0.000000000               0.000000000               0.000348814               0.006331732               0.000206231              -0.000660660               0.002330776               0.001670117               0.000000000               0.000000000               0.000000000               0.000000000               0.000233773               0.006151113               0.000190787              -0.000681223               0.002277425               0.001596202               0.000000000               0.000000000               0.000000000               0.000000000               0.000145376               0.005965955               0.000166687              -0.000691227               0.002219041               0.001527814               0.000000000               0.000000000               0.000000000               0.000000000               0.000077119               0.005765209               0.000130597              -0.000691730               0.002152294               0.001460564               0.000000000               0.000000000               0.000000000               0.000000000               0.000029340               0.005540848               0.000076621              -0.000681602               0.002074131               0.001392530               0.000000000               0.000000000               0.000000000               0.000000000              -0.000005377               0.005372094               0.000047173              -0.000673527               0.002015189               0.001341663               0.000000000               0.000000000               0.000000000               0.000000000               0.001782651               0.015843555              -0.002283935              -0.001311948               0.005718448               0.004406500               0.000000000               0.000000000               0.000000000               0.000000000               0.001548924               0.012856499              -0.001282359              -0.001026214               0.004627528               0.003601314               0.000000000               0.000000000               0.000000000               0.000000000               0.001791548               0.010542221              -0.000280440              -0.000645946               0.003729354               0.003083408               0.000000000               0.000000000               0.000000000               0.000000000               0.001655492               0.009237791               0.000146263              -0.000533913               0.003257204               0.002723291               0.000000000               0.000000000               0.000000000               0.000000000               0.001419669               0.008428452               0.000334050              -0.000521179               0.002983182               0.002462003               0.000000000               0.000000000               0.000000000               0.000000000               0.001167809               0.007884704               0.000416204              -0.000547658               0.002810761               0.002263103               0.000000000               0.000000000               0.000000000               0.000000000               0.000933119               0.007492565               0.000440816              -0.000586650               0.002693047               0.002106397               0.000000000               0.000000000               0.000000000               0.000000000               0.000731863               0.007190220               0.000433269              -0.000624327               0.002604825               0.001980498               0.000000000               0.000000000               0.000000000               0.000000000               0.000561842               0.006939483               0.000413359              -0.000656743               0.002532052               0.001875309               0.000000000               0.000000000               0.000000000               0.000000000               0.000420099               0.006724273               0.000389446              -0.000682995               0.002469067               0.001786072               0.000000000               0.000000000               0.000000000               0.000000000               0.000302537               0.006537207               0.000363438              -0.000703698               0.002413613               0.001709915               0.000000000               0.000000000               0.000000000               0.000000000               0.000199116               0.006363646               0.000334227              -0.000720785               0.002361456               0.001640670               0.000000000               0.000000000               0.000000000               0.000000000               0.000115452               0.006189718               0.000299302              -0.000730419               0.002306692               0.001576273               0.000000000               0.000000000               0.000000000               0.000000000               0.000059710               0.006016403               0.000253474              -0.000729657               0.002248667               0.001519009               0.000000000               0.000000000               0.000000000               0.000000000               0.000024554               0.005843769               0.000192600              -0.000721262               0.002188324               0.001467063               0.000000000               0.000000000               0.000000000               0.000000000               0.000007049               0.005673671               0.000109549              -0.000706564               0.002126726               0.001420162               0.000000000               0.000000000               0.000000000               0.000000000              -0.000008618               0.005559694               0.000065530              -0.000698192               0.002085944               0.001387752               0.000000000               0.000000000               0.000000000               0.000000000               0.002015594               0.014418121              -0.003081980              -0.001046417               0.005154797               0.004108381               0.000000000               0.000000000               0.000000000               0.000000000               0.001474812               0.011918635              -0.001744753              -0.000936773               0.004285096               0.003348323               0.000000000               0.000000000               0.000000000               0.000000000               0.001388724               0.010099775              -0.000420757              -0.000741698               0.003613791               0.002872092               0.000000000               0.000000000               0.000000000               0.000000000               0.001144351               0.009041408               0.000122798              -0.000701043               0.003247454               0.002546411               0.000000000               0.000000000               0.000000000               0.000000000               0.000896197               0.008355754               0.000353950              -0.000708393               0.003021355               0.002312961               0.000000000               0.000000000               0.000000000               0.000000000               0.000677580               0.007870703               0.000452045              -0.000729744               0.002866789               0.002137046               0.000000000               0.000000000               0.000000000               0.000000000               0.000497305               0.007500478               0.000482536              -0.000751068               0.002750490               0.001999422               0.000000000               0.000000000               0.000000000               0.000000000               0.000352579               0.007199904               0.000473634              -0.000767769               0.002655867               0.001888098               0.000000000               0.000000000               0.000000000               0.000000000               0.000235991               0.006947122               0.000450206              -0.000779892               0.002575648               0.001795756               0.000000000               0.000000000               0.000000000               0.000000000               0.000143446               0.006733318               0.000424000              -0.000787871               0.002507040               0.001719170               0.000000000               0.000000000               0.000000000               0.000000000               0.000070011               0.006545403               0.000394584              -0.000791919               0.002445752               0.001653833               0.000000000               0.000000000               0.000000000               0.000000000               0.000011868               0.006369282               0.000356898              -0.000791708               0.002386975               0.001595267               0.000000000               0.000000000               0.000000000               0.000000000              -0.000027459               0.006201039               0.000311573              -0.000785425               0.002328801               0.001543375               0.000000000               0.000000000               0.000000000               0.000000000              -0.000045835               0.006044371               0.000258345              -0.000772733               0.002272348               0.001499615               0.000000000               0.000000000               0.000000000               0.000000000              -0.000046749               0.005904615               0.000191743              -0.000755606               0.002220054               0.001464448               0.000000000               0.000000000               0.000000000               0.000000000              -0.000029209               0.005786674               0.000106327              -0.000734286               0.002173634               0.001439348               0.000000000               0.000000000               0.000000000               0.000000000              -0.000022856               0.005718128               0.000062065              -0.000723335               0.002147135               0.001423800               0.000000000               0.000000000               0.000000000               0.000000000               0.002193138               0.012671766              -0.003546822              -0.000761545               0.004477727               0.003716182               0.000000000               0.000000000               0.000000000               0.000000000               0.001326340               0.010787285              -0.002041916              -0.000851032               0.003879403               0.003028371               0.000000000               0.000000000               0.000000000               0.000000000               0.000892558               0.009568689              -0.000567810              -0.000861375               0.003476656               0.002615281               0.000000000               0.000000000               0.000000000               0.000000000               0.000561806               0.008784801               0.000011152              -0.000887421               0.003224044               0.002336624               0.000000000               0.000000000               0.000000000               0.000000000               0.000329166               0.008228129               0.000251668              -0.000905077               0.003044375               0.002139298               0.000000000               0.000000000               0.000000000               0.000000000               0.000169632               0.007803139               0.000354433              -0.000911778               0.002904946               0.001993168               0.000000000               0.000000000               0.000000000               0.000000000               0.000057997               0.007451327               0.000389070              -0.000909665               0.002786972               0.001877308               0.000000000               0.000000000               0.000000000               0.000000000              -0.000018433               0.007154434               0.000385574              -0.000901214               0.002685192               0.001783978               0.000000000               0.000000000               0.000000000               0.000000000              -0.000073042               0.006903042               0.000370300              -0.000890269               0.002597747               0.001707478               0.000000000               0.000000000               0.000000000               0.000000000              -0.000109248               0.006687590               0.000352612              -0.000876915               0.002521479               0.001644564               0.000000000               0.000000000               0.000000000               0.000000000              -0.000127931               0.006493689               0.000329241              -0.000859683               0.002451102               0.001591419               0.000000000               0.000000000               0.000000000               0.000000000              -0.000134588               0.006313639               0.000296980              -0.000839673               0.002384416               0.001544743               0.000000000               0.000000000               0.000000000               0.000000000              -0.000128729               0.006152389               0.000257125              -0.000817320               0.002323216               0.001505896               0.000000000               0.000000000               0.000000000               0.000000000              -0.000110080               0.006014233               0.000211869              -0.000793057               0.002269076               0.001476019               0.000000000               0.000000000               0.000000000               0.000000000              -0.000081417               0.005903386               0.000155185              -0.000768453               0.002223926               0.001455474               0.000000000               0.000000000               0.000000000               0.000000000              -0.000044470               0.005822406               0.000083271              -0.000744475               0.002188941               0.001444466               0.000000000               0.000000000               0.000000000               0.000000000              -0.000027136               0.005784750               0.000046027              -0.000733268               0.002172653               0.001439386               0.000000000               0.000000000               0.000000000               0.000000000               0.002223806               0.010774967              -0.003679312              -0.000512946               0.003762601               0.003249655               0.000000000               0.000000000               0.000000000               0.000000000               0.001086196               0.009583233              -0.002187133              -0.000790580               0.003457905               0.002667325               0.000000000               0.000000000               0.000000000               0.000000000               0.000357212               0.008996558              -0.000735987              -0.000990613               0.003329027               0.002338414               0.000000000               0.000000000               0.000000000               0.000000000              -0.000003498               0.008472401              -0.000184848              -0.001060359               0.003177559               0.002117199               0.000000000               0.000000000               0.000000000               0.000000000              -0.000182692               0.008032928               0.000045938              -0.001072623               0.003035157               0.001962534               0.000000000               0.000000000               0.000000000               0.000000000              -0.000266061               0.007656431               0.000149579              -0.001056824               0.002904393               0.001847569               0.000000000               0.000000000               0.000000000               0.000000000              -0.000301418               0.007324488               0.000194120              -0.001028590               0.002784335               0.001755745               0.000000000               0.000000000               0.000000000               0.000000000              -0.000306212               0.007035236               0.000209308              -0.000994231               0.002676466               0.001682234               0.000000000               0.000000000               0.000000000               0.000000000              -0.000295619               0.006784831               0.000214207              -0.000958959               0.002581241               0.001622282               0.000000000               0.000000000               0.000000000               0.000000000              -0.000275835               0.006562587               0.000214876              -0.000923759               0.002495427               0.001571668               0.000000000               0.000000000               0.000000000               0.000000000              -0.000242873               0.006361801               0.000205629              -0.000886300               0.002416013               0.001529712               0.000000000               0.000000000               0.000000000               0.000000000              -0.000203127               0.006181109               0.000187299              -0.000848809               0.002343286               0.001494476               0.000000000               0.000000000               0.000000000               0.000000000              -0.000160075               0.006024473               0.000161873              -0.000813085               0.002279166               0.001466081               0.000000000               0.000000000               0.000000000               0.000000000              -0.000115151               0.005894220               0.000130501              -0.000779957               0.002224706               0.001444749               0.000000000               0.000000000               0.000000000               0.000000000              -0.000073008               0.005788745               0.000088597              -0.000750969               0.002179885               0.001428916               0.000000000               0.000000000               0.000000000               0.000000000              -0.000034927               0.005712784               0.000041258              -0.000727194               0.002146640               0.001419446               0.000000000               0.000000000               0.000000000               0.000000000              -0.000019545               0.005678047               0.000020726              -0.000717083               0.002131691               0.001414608               0.000000000               0.000000000               0.000000000               0.000000000               0.002061698               0.008878126              -0.003524935              -0.000336632               0.003071555               0.002734923               0.000000000               0.000000000               0.000000000               0.000000000               0.000770330               0.008400170              -0.002216853              -0.000761147               0.003053744               0.002292597               0.000000000               0.000000000               0.000000000               0.000000000              -0.000154639               0.008404838              -0.000936074              -0.001108592               0.003171115               0.002062523               0.000000000               0.000000000               0.000000000               0.000000000              -0.000479877               0.008101259              -0.000446881              -0.001192608               0.003097929               0.001905320               0.000000000               0.000000000               0.000000000               0.000000000              -0.000574875               0.007758743              -0.000227286              -0.001185418               0.002981361               0.001795943               0.000000000               0.000000000               0.000000000               0.000000000              -0.000572704               0.007428674              -0.000110536              -0.001143345               0.002857315               0.001713970               0.000000000               0.000000000               0.000000000               0.000000000              -0.000532221               0.007123205              -0.000041156              -0.001089981               0.002737705               0.001647724               0.000000000               0.000000000               0.000000000               0.000000000              -0.000480316               0.006842554               0.000003371              -0.001035435               0.002625974               0.001590539               0.000000000               0.000000000               0.000000000               0.000000000              -0.000418602               0.006595049               0.000035746              -0.000981354               0.002525446               0.001544091               0.000000000               0.000000000               0.000000000               0.000000000              -0.000353266               0.006373313               0.000057878              -0.000929136               0.002434129               0.001504992               0.000000000               0.000000000               0.000000000               0.000000000              -0.000281002               0.006171397               0.000067007              -0.000876798               0.002349378               0.001472580               0.000000000               0.000000000               0.000000000               0.000000000              -0.000209122               0.005989307               0.000065667              -0.000827082               0.002272110               0.001445028               0.000000000               0.000000000               0.000000000               0.000000000              -0.000149566               0.005826900               0.000057263              -0.000784448               0.002203763               0.001419315               0.000000000               0.000000000               0.000000000               0.000000000              -0.000099815               0.005687367               0.000043149              -0.000748350               0.002145220               0.001396870               0.000000000               0.000000000               0.000000000               0.000000000              -0.000055558               0.005572158               0.000023388              -0.000717352               0.002096485               0.001379133               0.000000000               0.000000000               0.000000000               0.000000000              -0.000022144               0.005482904               0.000006451              -0.000693665               0.002058838               0.001365173               0.000000000               0.000000000               0.000000000               0.000000000              -0.000016700               0.005432253               0.000004945              -0.000685292               0.002039164               0.001353871               0.000000000               0.000000000               0.000000000               0.000000000               0.001719826               0.007093811              -0.003151026              -0.000241795               0.002445177               0.002203382               0.000000000               0.000000000               0.000000000               0.000000000               0.000409429               0.007295695              -0.002170346              -0.000758426               0.002684682               0.001926256               0.000000000               0.000000000               0.000000000               0.000000000              -0.000579460               0.007794714              -0.001169086              -0.001191634               0.002995423               0.001803789               0.000000000               0.000000000               0.000000000               0.000000000              -0.000816282               0.007671802              -0.000743098              -0.001265078               0.002978934               0.001713856               0.000000000               0.000000000               0.000000000               0.000000000              -0.000813975               0.007418174              -0.000514162              -0.001232510               0.002883537               0.001651027               0.000000000               0.000000000               0.000000000               0.000000000              -0.000732656               0.007137786              -0.000366984              -0.001166966               0.002768227               0.001601260               0.000000000               0.000000000               0.000000000               0.000000000              -0.000634805               0.006857482              -0.000264704              -0.001095234               0.002650883               0.001555648               0.000000000               0.000000000               0.000000000               0.000000000              -0.000541126               0.006592534              -0.000188619              -0.001026986               0.002539818               0.001512832               0.000000000               0.000000000               0.000000000               0.000000000              -0.000446045               0.006356228              -0.000126805              -0.000961793               0.002439319               0.001477526               0.000000000               0.000000000               0.000000000               0.000000000              -0.000352193               0.006139059              -0.000081636              -0.000899452               0.002346150               0.001446698               0.000000000               0.000000000               0.000000000               0.000000000              -0.000265086               0.005934639              -0.000053787              -0.000841235               0.002258605               0.001417370               0.000000000               0.000000000               0.000000000               0.000000000              -0.000189664               0.005746318              -0.000037482              -0.000789412               0.002178558               0.001389146               0.000000000               0.000000000               0.000000000               0.000000000              -0.000128656               0.005578264              -0.000026146              -0.000745527               0.002107912               0.001362385               0.000000000               0.000000000               0.000000000               0.000000000              -0.000077746               0.005434519              -0.000017170              -0.000708468               0.002047644               0.001339176               0.000000000               0.000000000               0.000000000               0.000000000              -0.000037982               0.005316599              -0.000012207              -0.000678816               0.001998454               0.001319638               0.000000000               0.000000000               0.000000000               0.000000000              -0.000014434               0.005221212              -0.000006944              -0.000658063               0.001959741               0.001301678               0.000000000               0.000000000               0.000000000               0.000000000              -0.000015323               0.005164080               0.000001929              -0.000651255               0.001938428               0.001287173               0.000000000               0.000000000               0.000000000               0.000000000               0.001274279               0.005553801              -0.002646186              -0.000216373               0.001923372               0.001706999               0.000000000               0.000000000               0.000000000               0.000000000               0.000074749               0.006297396              -0.002092296              -0.000759143               0.002352158               0.001593015               0.000000000               0.000000000               0.000000000               0.000000000              -0.000873213               0.007201027              -0.001440608              -0.001227581               0.002809512               0.001581931               0.000000000               0.000000000               0.000000000               0.000000000              -0.001009873               0.007267600              -0.001056453              -0.001287149               0.002851559               0.001564409               0.000000000               0.000000000               0.000000000               0.000000000              -0.000933164               0.007115730              -0.000802051              -0.001239400               0.002785019               0.001545620               0.000000000               0.000000000               0.000000000               0.000000000              -0.000795111               0.006890408              -0.000620091              -0.001159465               0.002683268               0.001523803               0.000000000               0.000000000               0.000000000               0.000000000              -0.000654506               0.006640701              -0.000483753              -0.001075525               0.002572053               0.001496528               0.000000000               0.000000000               0.000000000               0.000000000              -0.000528456               0.006402611              -0.000375617              -0.000998495               0.002467014               0.001468519               0.000000000               0.000000000               0.000000000               0.000000000              -0.000415154               0.006182947              -0.000286018              -0.000928549               0.002370478               0.001441929               0.000000000               0.000000000               0.000000000               0.000000000              -0.000312002               0.005966628              -0.000217335              -0.000862827               0.002276465               0.001413638               0.000000000               0.000000000               0.000000000               0.000000000              -0.000224028               0.005756106              -0.000167568              -0.000803522               0.002186523               0.001383002               0.000000000               0.000000000               0.000000000               0.000000000              -0.000154190               0.005561932              -0.000128394              -0.000753061               0.002104979               0.001351918               0.000000000               0.000000000               0.000000000               0.000000000              -0.000099910               0.005393123              -0.000093603              -0.000711605               0.002034891               0.001323286               0.000000000               0.000000000               0.000000000               0.000000000              -0.000059082               0.005252011              -0.000060504              -0.000678655               0.001976871               0.001298216               0.000000000               0.000000000               0.000000000               0.000000000              -0.000037516               0.005134787              -0.000033594              -0.000655915               0.001930217               0.001274302               0.000000000               0.000000000               0.000000000               0.000000000              -0.000038538               0.005038459              -0.000014585              -0.000644258               0.001894222               0.001249964               0.000000000               0.000000000               0.000000000               0.000000000              -0.000046002               0.004988630              -0.000004249              -0.000640828               0.001876469               0.001235642               0.000000000               0.000000000               0.000000000               0.000000000               0.000710674               0.004096985              -0.002091758              -0.000245622               0.001447521               0.001201899               0.000000000               0.000000000               0.000000000               0.000000000              -0.000180747               0.005145147              -0.001995302              -0.000710923               0.001952006               0.001241082               0.000000000               0.000000000               0.000000000               0.000000000              -0.000988912               0.006342459              -0.001735008              -0.001163647               0.002502014               0.001338367               0.000000000               0.000000000               0.000000000               0.000000000              -0.001081006               0.006660446              -0.001404041              -0.001237930               0.002632770               0.001394839               0.000000000               0.000000000               0.000000000               0.000000000              -0.000981502               0.006673962              -0.001129911              -0.001202306               0.002625400               0.001423094               0.000000000               0.000000000               0.000000000               0.000000000              -0.000829988               0.006558977              -0.000915572              -0.001131115               0.002563342               0.001432227               0.000000000               0.000000000               0.000000000               0.000000000              -0.000675297               0.006390986              -0.000743788              -0.001052107               0.002481010               0.001428903               0.000000000               0.000000000               0.000000000               0.000000000              -0.000534188               0.006219177              -0.000600346              -0.000977715               0.002398943               0.001421228               0.000000000               0.000000000               0.000000000               0.000000000              -0.000415941               0.006046029              -0.000481800              -0.000911729               0.002319233               0.001407503               0.000000000               0.000000000               0.000000000               0.000000000              -0.000316351               0.005862865              -0.000386101              -0.000851488               0.002238098               0.001386610               0.000000000               0.000000000               0.000000000               0.000000000              -0.000231639               0.005675168              -0.000306047              -0.000796259               0.002157123               0.001360865               0.000000000               0.000000000               0.000000000               0.000000000              -0.000166955               0.005492605              -0.000237318              -0.000749182               0.002080578               0.001331395               0.000000000               0.000000000               0.000000000               0.000000000              -0.000119173               0.005328457              -0.000175266              -0.000710745               0.002013050               0.001302305               0.000000000               0.000000000               0.000000000               0.000000000              -0.000086567               0.005190711              -0.000116271              -0.000681300               0.001957320               0.001276020               0.000000000               0.000000000               0.000000000               0.000000000              -0.000073865               0.005072932              -0.000062561              -0.000661814               0.001911565               0.001249751               0.000000000               0.000000000               0.000000000               0.000000000              -0.000083176               0.004976260              -0.000021613              -0.000653222               0.001876477               0.001223256               0.000000000               0.000000000               0.000000000               0.000000000              -0.000094875               0.004932442              -0.000004620              -0.000652132               0.001861508               0.001209376               0.000000000               0.000000000               0.000000000               0.000000000              -0.000065144               0.002765546              -0.001512177              -0.000370123               0.001045213               0.000675090               0.000000000               0.000000000               0.000000000               0.000000000              -0.000476373               0.003997729              -0.001835922              -0.000678356               0.001558681               0.000880325               0.000000000               0.000000000               0.000000000               0.000000000              -0.001023432               0.005367959              -0.001962061              -0.001054780               0.002140894               0.001086114               0.000000000               0.000000000               0.000000000               0.000000000              -0.001074936               0.005919723              -0.001733897              -0.001143064               0.002354242               0.001211178               0.000000000               0.000000000               0.000000000               0.000000000              -0.000971839               0.006122574              -0.001470765              -0.001129759               0.002417424               0.001287665               0.000000000               0.000000000               0.000000000               0.000000000              -0.000824307               0.006150852              -0.001237303              -0.001077969               0.002409587               0.001331617               0.000000000               0.000000000               0.000000000               0.000000000              -0.000673011               0.006095684              -0.001037685              -0.001014337               0.002369987               0.001355649               0.000000000               0.000000000               0.000000000               0.000000000              -0.000528211               0.006009746              -0.000866924              -0.000949295               0.002319660               0.001370365               0.000000000               0.000000000               0.000000000               0.000000000              -0.000402341               0.005900194              -0.000722574              -0.000888400               0.002262845               0.001374445               0.000000000               0.000000000               0.000000000               0.000000000              -0.000305389               0.005766586              -0.000600591              -0.000835342               0.002200624               0.001365281               0.000000000               0.000000000               0.000000000               0.000000000              -0.000226029               0.005619538              -0.000493061              -0.000787201               0.002135561               0.001348360               0.000000000               0.000000000               0.000000000               0.000000000              -0.000161550               0.005462964              -0.000395799              -0.000743450               0.002068786               0.001325336               0.000000000               0.000000000               0.000000000               0.000000000              -0.000116354               0.005312223              -0.000305142              -0.000707659               0.002006610               0.001298951               0.000000000               0.000000000               0.000000000               0.000000000              -0.000088455               0.005181192              -0.000216698              -0.000680818               0.001953986               0.001273168               0.000000000               0.000000000               0.000000000               0.000000000              -0.000079726               0.005068442              -0.000131143              -0.000663451               0.001910614               0.001247163               0.000000000               0.000000000               0.000000000               0.000000000              -0.000094003               0.004976844              -0.000056168              -0.000657355               0.001878050               0.001220695               0.000000000               0.000000000               0.000000000               0.000000000              -0.000116035               0.004931181              -0.000019656              -0.000659909               0.001863680               0.001203771               0.000000000               0.000000000               0.000000000               0.000000000              -0.001005723               0.001646584              -0.000941808              -0.000582968               0.000743178               0.000160210               0.000000000               0.000000000               0.000000000               0.000000000              -0.000857557               0.002912564              -0.001587517              -0.000685654               0.001199395               0.000513742               0.000000000               0.000000000               0.000000000               0.000000000              -0.001020226               0.004284021              -0.002033435              -0.000918087               0.001734021               0.000815934               0.000000000               0.000000000               0.000000000               0.000000000              -0.000977069               0.005003444              -0.001939790              -0.000991830               0.001998407               0.001006577               0.000000000               0.000000000               0.000000000               0.000000000              -0.000866411               0.005381763              -0.001723637              -0.000997623               0.002126444               0.001128821               0.000000000               0.000000000               0.000000000               0.000000000              -0.000733016               0.005565815              -0.001497558              -0.000970606               0.002178788               0.001208182               0.000000000               0.000000000               0.000000000               0.000000000              -0.000592178               0.005641759              -0.001290075              -0.000927285               0.002189662               0.001262377               0.000000000               0.000000000               0.000000000               0.000000000              -0.000456687               0.005658419              -0.001107000              -0.000878558               0.002178973               0.001300415               0.000000000               0.000000000               0.000000000               0.000000000              -0.000334418               0.005631001              -0.000947089              -0.000829280               0.002153408               0.001324128               0.000000000               0.000000000               0.000000000               0.000000000              -0.000233865               0.005566570              -0.000808858              -0.000783519               0.002116678               0.001333159               0.000000000               0.000000000               0.000000000               0.000000000              -0.000154984               0.005473005              -0.000687446              -0.000742243               0.002071731               0.001329488               0.000000000               0.000000000               0.000000000               0.000000000              -0.000089917               0.005361135              -0.000572099              -0.000703859               0.002021647               0.001317787               0.000000000               0.000000000               0.000000000               0.000000000              -0.000042223               0.005247261              -0.000456215              -0.000671740               0.001972983               0.001301243               0.000000000               0.000000000               0.000000000               0.000000000              -0.000015044               0.005142589              -0.000341267              -0.000648464               0.001930334               0.001281870               0.000000000               0.000000000               0.000000000               0.000000000              -0.000009946               0.005049600              -0.000226591              -0.000634928               0.001894826               0.001259898               0.000000000               0.000000000               0.000000000               0.000000000              -0.000032080               0.004971882              -0.000110797              -0.000633514               0.001868449               0.001234935               0.000000000               0.000000000               0.000000000               0.000000000              -0.000065394               0.004929046              -0.000048418              -0.000640652               0.001856549               0.001215898               0.000000000               0.000000000               0.000000000               0.000000000              -0.002035726               0.000791280              -0.000449693              -0.000862306               0.000551191              -0.000311115               0.000000000               0.000000000               0.000000000               0.000000000              -0.001295654               0.001940787              -0.001272971              -0.000728468               0.000889744               0.000161276               0.000000000               0.000000000               0.000000000               0.000000000              -0.000997619               0.003173873              -0.001924653              -0.000770841               0.001314893               0.000544052               0.000000000               0.000000000               0.000000000               0.000000000              -0.000807891               0.003979327              -0.001959035              -0.000800374               0.001593220               0.000792845               0.000000000               0.000000000               0.000000000               0.000000000              -0.000667711               0.004497864              -0.001811347              -0.000812624               0.001770147               0.000957523               0.000000000               0.000000000               0.000000000               0.000000000              -0.000543078               0.004828471              -0.001621672              -0.000807212               0.001878544               0.001071332               0.000000000               0.000000000               0.000000000               0.000000000              -0.000420423               0.005034796              -0.001431543              -0.000787007               0.001940584               0.001153577               0.000000000               0.000000000               0.000000000               0.000000000              -0.000302267               0.005161786              -0.001253903              -0.000758572               0.001973435               0.001214863               0.000000000               0.000000000               0.000000000               0.000000000              -0.000191969               0.005229494              -0.001095985              -0.000725674               0.001985038               0.001259365               0.000000000               0.000000000               0.000000000               0.000000000              -0.000090645               0.005244851              -0.000958426              -0.000689597               0.001978132               0.001288535               0.000000000               0.000000000               0.000000000               0.000000000              -0.000006104               0.005220392              -0.000835314              -0.000654837               0.001958392               0.001303555               0.000000000               0.000000000               0.000000000               0.000000000               0.000062111               0.005173737              -0.000715380              -0.000623424               0.001932370               0.001308945               0.000000000               0.000000000               0.000000000               0.000000000               0.000118666               0.005114721              -0.000590897              -0.000594839               0.001903170               0.001308331               0.000000000               0.000000000               0.000000000               0.000000000               0.000161976               0.005057781              -0.000460976              -0.000571480               0.001876404               0.001304923               0.000000000               0.000000000               0.000000000               0.000000000               0.000181482               0.005005230              -0.000322799              -0.000557597               0.001854259               0.001296662               0.000000000               0.000000000               0.000000000               0.000000000               0.000166478               0.004955003              -0.000169081              -0.000556945               0.001837299               0.001280355               0.000000000               0.000000000               0.000000000               0.000000000               0.000134194               0.004922380              -0.000082827              -0.000564973               0.001829101               0.001264128               0.000000000               0.000000000               0.000000000               0.000000000              -0.003038693               0.000202178              -0.000100926              -0.001164781               0.000455650              -0.000709131               0.000000000               0.000000000               0.000000000               0.000000000              -0.001744835               0.001139900              -0.000927319              -0.000796800               0.000645562              -0.000151238               0.000000000               0.000000000               0.000000000               0.000000000              -0.000970320               0.002144525              -0.001630192              -0.000631935               0.000925479               0.000293543               0.000000000               0.000000000               0.000000000               0.000000000              -0.000603508               0.002959325              -0.001750607              -0.000596231               0.001185175               0.000588944               0.000000000               0.000000000               0.000000000               0.000000000              -0.000405148               0.003568968              -0.001674075              -0.000598051               0.001388994               0.000790942               0.000000000               0.000000000               0.000000000               0.000000000              -0.000275782               0.004015979              -0.001537439              -0.000605415               0.001540451               0.000935036               0.000000000               0.000000000               0.000000000               0.000000000              -0.000172128               0.004338891              -0.001384696              -0.000606909               0.001648585               0.001041676               0.000000000               0.000000000               0.000000000               0.000000000              -0.000073792               0.004570410              -0.001235668              -0.000598973               0.001723112               0.001124139               0.000000000               0.000000000               0.000000000               0.000000000               0.000019264               0.004733002              -0.001101208              -0.000584400               0.001772451               0.001188051               0.000000000               0.000000000               0.000000000               0.000000000               0.000109115               0.004837821              -0.000981428              -0.000563809               0.001800527               0.001236718               0.000000000               0.000000000               0.000000000               0.000000000               0.000192175               0.004896483              -0.000870160              -0.000539994               0.001812142               0.001272148               0.000000000               0.000000000               0.000000000               0.000000000               0.000268256               0.004925890              -0.000762161              -0.000515139               0.001813660               0.001298521               0.000000000               0.000000000               0.000000000               0.000000000               0.000342750               0.004936872              -0.000651443              -0.000488577               0.001808466               0.001319890               0.000000000               0.000000000               0.000000000               0.000000000               0.000417144               0.004939630              -0.000529612              -0.000461024               0.001800201               0.001339178               0.000000000               0.000000000               0.000000000               0.000000000               0.000479724               0.004934084              -0.000386535              -0.000436863               0.001790299               0.001353436               0.000000000               0.000000000               0.000000000               0.000000000               0.000515205               0.004921814              -0.000210812              -0.000422024               0.001781263               0.001359239               0.000000000               0.000000000               0.000000000               0.000000000               0.000519215               0.004910391              -0.000111347              -0.000419092               0.001776478               0.001357386               0.000000000               0.000000000               0.000000000               0.000000000              -0.003881890              -0.000153221               0.000073272              -0.001436555               0.000427775              -0.001008780               0.000000000               0.000000000               0.000000000               0.000000000              -0.002145062               0.000553893              -0.000588119              -0.000873634               0.000475839              -0.000397795               0.000000000               0.000000000               0.000000000               0.000000000              -0.000953970               0.001313972              -0.001175936              -0.000521985               0.000611980               0.000089995               0.000000000               0.000000000               0.000000000               0.000000000              -0.000412436               0.002085270              -0.001316860              -0.000415322               0.000833523               0.000418201               0.000000000               0.000000000               0.000000000               0.000000000              -0.000142223               0.002736100              -0.001291834              -0.000395346               0.001043806               0.000648460               0.000000000               0.000000000               0.000000000               0.000000000               0.000002300               0.003260143              -0.001207950              -0.000406655               0.001222255               0.000815600               0.000000000               0.000000000               0.000000000               0.000000000               0.000096414               0.003674550              -0.001105993              -0.000423163               0.001365892               0.000942729               0.000000000               0.000000000               0.000000000               0.000000000               0.000175233               0.003996922              -0.001001057              -0.000433902               0.001476928               0.001043026               0.000000000               0.000000000               0.000000000               0.000000000               0.000248316               0.004243377              -0.000904187              -0.000437303               0.001560212               0.001122909               0.000000000               0.000000000               0.000000000               0.000000000               0.000319211               0.004429326              -0.000817428              -0.000433961               0.001621081               0.001187120               0.000000000               0.000000000               0.000000000               0.000000000               0.000395584               0.004568157              -0.000735505              -0.000422675               0.001663595               0.001240921               0.000000000               0.000000000               0.000000000               0.000000000               0.000481742               0.004674082              -0.000657036              -0.000403606               0.001692547               0.001288941               0.000000000               0.000000000               0.000000000               0.000000000               0.000581472               0.004758016              -0.000577923              -0.000376699               0.001711556               0.001334857               0.000000000               0.000000000               0.000000000               0.000000000               0.000695264               0.004822342              -0.000486465              -0.000342068               0.001721454               0.001379386               0.000000000               0.000000000               0.000000000               0.000000000               0.000821311               0.004865570              -0.000368187              -0.000300204               0.001721908               0.001421705               0.000000000               0.000000000               0.000000000               0.000000000               0.000955660               0.004890941              -0.000206954              -0.000252994               0.001714629               0.001461635               0.000000000               0.000000000               0.000000000               0.000000000               0.001048579               0.004907315              -0.000115286              -0.000220197               0.001709154               0.001488957               0.000000000               0.000000000               0.000000000               0.000000000              -0.004445069              -0.000324437               0.000086724              -0.001626345               0.000433966              -0.001192379               0.000000000               0.000000000               0.000000000               0.000000000              -0.002429837               0.000206392              -0.000279452              -0.000936987               0.000381124              -0.000555863               0.000000000               0.000000000               0.000000000               0.000000000              -0.000954386               0.000776950              -0.000612745              -0.000455013               0.000410651              -0.000044362               0.000000000               0.000000000               0.000000000               0.000000000              -0.000277248               0.001494924              -0.000705220              -0.000290833               0.000595247               0.000304414               0.000000000               0.000000000               0.000000000               0.000000000               0.000051703               0.002155528              -0.000703432              -0.000250052               0.000801852               0.000551800               0.000000000               0.000000000               0.000000000               0.000000000               0.000217377               0.002720644              -0.000665350              -0.000258564               0.000993060               0.000734496               0.000000000               0.000000000               0.000000000               0.000000000               0.000307760               0.003192007              -0.000614873              -0.000283591               0.001158522               0.000874931               0.000000000               0.000000000               0.000000000               0.000000000               0.000367380               0.003575014              -0.000560698              -0.000309109               0.001294696               0.000985587               0.000000000               0.000000000               0.000000000               0.000000000               0.000422255               0.003882303              -0.000509496              -0.000326942               0.001403069               0.001076127               0.000000000               0.000000000               0.000000000               0.000000000               0.000480653               0.004127289              -0.000464216              -0.000335666               0.001487638               0.001151972               0.000000000               0.000000000               0.000000000               0.000000000               0.000552373               0.004324060              -0.000422275              -0.000333367               0.001552461               0.001219094               0.000000000               0.000000000               0.000000000               0.000000000               0.000645586               0.004487685              -0.000382795              -0.000318865               0.001602169               0.001283303               0.000000000               0.000000000               0.000000000               0.000000000               0.000764507               0.004624852              -0.000343220              -0.000291416               0.001638741               0.001347325               0.000000000               0.000000000               0.000000000               0.000000000               0.000913154               0.004735706              -0.000295069              -0.000249530               0.001661729               0.001412199               0.000000000               0.000000000               0.000000000               0.000000000               0.001101143               0.004818111              -0.000228948              -0.000189335               0.001669133               0.001479798               0.000000000               0.000000000               0.000000000               0.000000000               0.001342113               0.004870761              -0.000132174              -0.000105553               0.001658755               0.001553203               0.000000000               0.000000000               0.000000000               0.000000000               0.001541013               0.004911556              -0.000077667              -0.000036065               0.001649191               0.001613126               0.000000000               0.000000000               0.000000000               0.000000000               0.000000000               0.000000000               0.000000000               0.000000000               0.000000000               0.000000000               0.000000000               0.000000000               0.000000000               0.000000000               0.000000000               0.000000000               0.000000000               0.000000000               0.000000000               0.000000000               0.000000000               0.000000000               0.000000000               0.000000000               0.000000000               0.000000000               0.000000000               0.000000000               0.000000000               0.000000000               0.000000000               0.000000000               0.000000000               0.000000000               0.000000000               0.000000000               0.000000000               0.000000000               0.000000000               0.000000000               0.000000000               0.000000000               0.000000000               0.000000000               0.000000000               0.000000000               0.000000000               0.000000000               0.000000000               0.000000000               0.000000000               0.000000000               0.000000000               0.000000000               0.000000000               0.000000000               0.000000000               0.000000000               0.000000000               0.000000000               0.000000000               0.000000000               0.000000000               0.000000000               0.000000000               0.000000000               0.000000000               0.000000000               0.000000000               0.000000000               0.000000000               0.000000000               0.000000000               0.000000000               0.000000000               0.000000000               0.000000000               0.000000000               0.000000000               0.000000000               0.000000000               0.000000000               0.000000000               0.000000000               0.000000000               0.000000000               0.000000000               0.000000000               0.000000000               0.000000000               0.000000000               0.000000000               0.000000000               0.000000000               0.000000000               0.000000000               0.000000000               0.000000000               0.000000000               0.000000000               0.000000000               0.000000000               0.000000000               0.000000000               0.000000000               0.000000000               0.000000000               0.000000000               0.000000000               0.000000000               0.000000000               0.000000000               0.000000000               0.000000000               0.000000000               0.000000000               0.000000000               0.000000000               0.000000000               0.000000000               0.000000000               0.000000000               0.000000000               0.000000000               0.000000000               0.000000000               0.000000000               0.000000000               0.000000000               0.000000000               0.000000000               0.000000000               0.000000000               0.000000000               0.000000000               0.000000000               0.000000000               0.000000000               0.000000000               0.000000000               0.000000000               0.000000000               0.000000000               0.000000000               0.000000000               0.000000000               0.000000000               0.000000000               0.000000000               0.000000000               0.000000000               0.000000000               0.000000000               0.000000000               0.000000000               0.000000000               0.000000000               0.000000000               0.000000000               0.000000000               0.000000000               0.000000000               0.000000000               0.000000000               0.000000000               0.000000000               0.000000000               0.000000000               0.000000000               0.000000000               0.000000000               0.000000000               0.000000000               0.000000000               0.000000000               0.000000000               0.000000000               0.000000000               0.000000000               0.000000000               0.000000000               0.000000000               0.000000000               0.000000000               0.000000000               0.000000000               0.000000000               0.000000000               0.000000000               0.000000000               0.000000000               0.000000000               0.000000000               0.000000000               0.000000000               0.000000000               0.000000000               0.000000000               0.000000000               0.000000000               0.000000000               0.000000000               0.000000000               0.000000000               0.000000000               0.000000000               0.000000000               0.000000000               0.000000000               0.000000000               0.000000000               0.000000000               0.000000000               0.000000000               0.000000000               0.000000000               0.000000000               0.000000000               0.000000000               0.000000000               0.000000000               0.000000000               0.000000000               0.000000000               0.000000000               0.000000000               0.000000000               0.000000000               0.000000000               0.000000000               0.000000000               0.000000000               0.000000000               0.000000000               0.000000000               0.000000000               0.000000000               0.000000000               0.000000000               0.000000000               0.000000000               0.000000000               0.000000000               0.000000000               0.000000000               0.000000000               0.000000000               0.000000000               0.000000000               0.000000000               0.000000000               0.000000000               0.000000000               0.000000000               0.000000000               0.000000000               0.000000000               0.000000000               0.000000000               0.000000000               0.000000000               0.000000000               0.000000000               0.000000000               0.000000000               0.000000000               0.000000000               0.000000000               0.000000000               0.000000000               0.000000000               0.000000000               0.000000000               0.000000000               0.000000000               0.000000000               0.000000000               0.000000000               0.000000000               0.000000000               0.000000000               0.000000000               0.000000000               0.000000000               0.000000000               0.000000000               0.000000000               0.000000000               0.000000000               0.000000000               0.000000000               0.000000000               0.000000000               0.000000000               0.000000000               0.000000000               0.000000000               0.000000000               0.000000000               0.000000000               0.000000000               0.000000000               0.000000000               0.000000000               0.000000000               0.000000000               0.000000000               0.000000000               0.000000000               0.000000000               0.000000000               0.000000000               0.000000000               0.000000000               0.000000000               0.000000000               0.000000000               0.000000000               0.000000000               0.000000000               0.000000000               0.000000000               0.000000000               0.000000000               0.000000000               0.000000000               0.000000000               0.000000000               0.000000000               0.000000000               0.000000000               0.000000000               0.000000000               0.000000000               0.000000000               0.000000000               0.000000000               0.000000000               0.000000000               0.000000000               0.000000000               0.000000000               0.000000000               0.000000000               0.001595298               0.016782270               0.001215631              -0.001499544               0.006093882               0.004594338               0.000000000               0.000000000               0.000000000               0.000000000               0.001576945               0.013481163               0.000679969              -0.001093788               0.004858272               0.003764484               0.000000000               0.000000000               0.000000000               0.000000000               0.002053971               0.010839704               0.000140141              -0.000584722               0.003808106               0.003223383               0.000000000               0.000000000               0.000000000               0.000000000               0.002010544               0.009363738              -0.000095513              -0.000416512               0.003260052               0.002843540               0.000000000               0.000000000               0.000000000               0.000000000               0.001793074               0.008460634              -0.000201554              -0.000385176               0.002948575               0.002563399               0.000000000               0.000000000               0.000000000               0.000000000               0.001523790               0.007872556              -0.000250057              -0.000412647               0.002761708               0.002349061               0.000000000               0.000000000               0.000000000               0.000000000               0.001257243               0.007466340              -0.000265368              -0.000461825               0.002642697               0.002180872               0.000000000               0.000000000               0.000000000               0.000000000               0.001018517               0.007163143              -0.000261781              -0.000513448               0.002558840               0.002045392               0.000000000               0.000000000               0.000000000               0.000000000               0.000813546               0.006918272              -0.000251997              -0.000559703               0.002492635               0.001932932               0.000000000               0.000000000               0.000000000               0.000000000               0.000637000               0.006706742              -0.000238047              -0.000599466               0.002435380               0.001835914               0.000000000               0.000000000               0.000000000               0.000000000               0.000483719               0.006514242              -0.000221134              -0.000632884               0.002382354               0.001749470               0.000000000               0.000000000               0.000000000               0.000000000               0.000348814               0.006331732              -0.000206231              -0.000660660               0.002330776               0.001670117               0.000000000               0.000000000               0.000000000               0.000000000               0.000233773               0.006151113              -0.000190787              -0.000681223               0.002277425               0.001596202               0.000000000               0.000000000               0.000000000               0.000000000               0.000145376               0.005965955              -0.000166687              -0.000691227               0.002219041               0.001527814               0.000000000               0.000000000               0.000000000               0.000000000               0.000077119               0.005765209              -0.000130597              -0.000691730               0.002152294               0.001460564               0.000000000               0.000000000               0.000000000               0.000000000               0.000029340               0.005540848              -0.000076621              -0.000681602               0.002074131               0.001392530               0.000000000               0.000000000               0.000000000               0.000000000              -0.000005377               0.005372094              -0.000047173              -0.000673527               0.002015189               0.001341663               0.000000000               0.000000000               0.000000000               0.000000000               0.001782651               0.015843555               0.002283935              -0.001311948               0.005718448               0.004406500               0.000000000               0.000000000               0.000000000               0.000000000               0.001548924               0.012856499               0.001282359              -0.001026214               0.004627528               0.003601314               0.000000000               0.000000000               0.000000000               0.000000000               0.001791548               0.010542221               0.000280440              -0.000645946               0.003729354               0.003083408               0.000000000               0.000000000               0.000000000               0.000000000               0.001655492               0.009237791              -0.000146263              -0.000533913               0.003257204               0.002723291               0.000000000               0.000000000               0.000000000               0.000000000               0.001419669               0.008428452              -0.000334050              -0.000521179               0.002983182               0.002462003               0.000000000               0.000000000               0.000000000               0.000000000               0.001167809               0.007884704              -0.000416204              -0.000547658               0.002810761               0.002263103               0.000000000               0.000000000               0.000000000               0.000000000               0.000933119               0.007492565              -0.000440816              -0.000586650               0.002693047               0.002106397               0.000000000               0.000000000               0.000000000               0.000000000               0.000731863               0.007190220              -0.000433269              -0.000624327               0.002604825               0.001980498               0.000000000               0.000000000               0.000000000               0.000000000               0.000561842               0.006939483              -0.000413359              -0.000656743               0.002532052               0.001875309               0.000000000               0.000000000               0.000000000               0.000000000               0.000420099               0.006724273              -0.000389446              -0.000682995               0.002469067               0.001786072               0.000000000               0.000000000               0.000000000               0.000000000               0.000302537               0.006537207              -0.000363438              -0.000703698               0.002413613               0.001709915               0.000000000               0.000000000               0.000000000               0.000000000               0.000199116               0.006363646              -0.000334227              -0.000720785               0.002361456               0.001640670               0.000000000               0.000000000               0.000000000               0.000000000               0.000115452               0.006189718              -0.000299302              -0.000730419               0.002306692               0.001576273               0.000000000               0.000000000               0.000000000               0.000000000               0.000059710               0.006016403              -0.000253474              -0.000729657               0.002248667               0.001519009               0.000000000               0.000000000               0.000000000               0.000000000               0.000024554               0.005843769              -0.000192600              -0.000721262               0.002188324               0.001467063               0.000000000               0.000000000               0.000000000               0.000000000               0.000007049               0.005673671              -0.000109549              -0.000706564               0.002126726               0.001420162               0.000000000               0.000000000               0.000000000               0.000000000              -0.000008618               0.005559694              -0.000065530              -0.000698192               0.002085944               0.001387752               0.000000000               0.000000000               0.000000000               0.000000000               0.002015594               0.014418121               0.003081980              -0.001046417               0.005154797               0.004108381               0.000000000               0.000000000               0.000000000               0.000000000               0.001474812               0.011918635               0.001744753              -0.000936773               0.004285096               0.003348323               0.000000000               0.000000000               0.000000000               0.000000000               0.001388724               0.010099775               0.000420757              -0.000741698               0.003613791               0.002872092               0.000000000               0.000000000               0.000000000               0.000000000               0.001144351               0.009041408              -0.000122798              -0.000701043               0.003247454               0.002546411               0.000000000               0.000000000               0.000000000               0.000000000               0.000896197               0.008355754              -0.000353950              -0.000708393               0.003021355               0.002312961               0.000000000               0.000000000               0.000000000               0.000000000               0.000677580               0.007870703              -0.000452045              -0.000729744               0.002866789               0.002137046               0.000000000               0.000000000               0.000000000               0.000000000               0.000497305               0.007500478              -0.000482536              -0.000751068               0.002750490               0.001999422               0.000000000               0.000000000               0.000000000               0.000000000               0.000352579               0.007199904              -0.000473634              -0.000767769               0.002655867               0.001888098               0.000000000               0.000000000               0.000000000               0.000000000               0.000235991               0.006947122              -0.000450206              -0.000779892               0.002575648               0.001795756               0.000000000               0.000000000               0.000000000               0.000000000               0.000143446               0.006733318              -0.000424000              -0.000787871               0.002507040               0.001719170               0.000000000               0.000000000               0.000000000               0.000000000               0.000070011               0.006545403              -0.000394584              -0.000791919               0.002445752               0.001653833               0.000000000               0.000000000               0.000000000               0.000000000               0.000011868               0.006369282              -0.000356898              -0.000791708               0.002386975               0.001595267               0.000000000               0.000000000               0.000000000               0.000000000              -0.000027459               0.006201039              -0.000311573              -0.000785425               0.002328801               0.001543375               0.000000000               0.000000000               0.000000000               0.000000000              -0.000045835               0.006044371              -0.000258345              -0.000772733               0.002272348               0.001499615               0.000000000               0.000000000               0.000000000               0.000000000              -0.000046749               0.005904615              -0.000191743              -0.000755606               0.002220054               0.001464448               0.000000000               0.000000000               0.000000000               0.000000000              -0.000029209               0.005786674              -0.000106327              -0.000734286               0.002173634               0.001439348               0.000000000               0.000000000               0.000000000               0.000000000              -0.000022856               0.005718128              -0.000062065              -0.000723335               0.002147135               0.001423800               0.000000000               0.000000000               0.000000000               0.000000000               0.002193138               0.012671766               0.003546822              -0.000761545               0.004477727               0.003716182               0.000000000               0.000000000               0.000000000               0.000000000               0.001326340               0.010787285               0.002041916              -0.000851032               0.003879403               0.003028371               0.000000000               0.000000000               0.000000000               0.000000000               0.000892558               0.009568689               0.000567810              -0.000861375               0.003476656               0.002615281               0.000000000               0.000000000               0.000000000               0.000000000               0.000561806               0.008784801              -0.000011152              -0.000887421               0.003224044               0.002336624               0.000000000               0.000000000               0.000000000               0.000000000               0.000329166               0.008228129              -0.000251668              -0.000905077               0.003044375               0.002139298               0.000000000               0.000000000               0.000000000               0.000000000               0.000169632               0.007803139              -0.000354433              -0.000911778               0.002904946               0.001993168               0.000000000               0.000000000               0.000000000               0.000000000               0.000057997               0.007451327              -0.000389070              -0.000909665               0.002786972               0.001877308               0.000000000               0.000000000               0.000000000               0.000000000              -0.000018433               0.007154434              -0.000385574              -0.000901214               0.002685192               0.001783978               0.000000000               0.000000000               0.000000000               0.000000000              -0.000073042               0.006903042              -0.000370300              -0.000890269               0.002597747               0.001707478               0.000000000               0.000000000               0.000000000               0.000000000              -0.000109248               0.006687590              -0.000352612              -0.000876915               0.002521479               0.001644564               0.000000000               0.000000000               0.000000000               0.000000000              -0.000127931               0.006493689              -0.000329241              -0.000859683               0.002451102               0.001591419               0.000000000               0.000000000               0.000000000               0.000000000              -0.000134588               0.006313639              -0.000296980              -0.000839673               0.002384416               0.001544743               0.000000000               0.000000000               0.000000000               0.000000000              -0.000128729               0.006152389              -0.000257125              -0.000817320               0.002323216               0.001505896               0.000000000               0.000000000               0.000000000               0.000000000              -0.000110080               0.006014233              -0.000211869              -0.000793057               0.002269076               0.001476019               0.000000000               0.000000000               0.000000000               0.000000000              -0.000081417               0.005903386              -0.000155185              -0.000768453               0.002223926               0.001455474               0.000000000               0.000000000               0.000000000               0.000000000              -0.000044470               0.005822406              -0.000083271              -0.000744475               0.002188941               0.001444466               0.000000000               0.000000000               0.000000000               0.000000000              -0.000027136               0.005784750              -0.000046027              -0.000733268               0.002172653               0.001439386               0.000000000               0.000000000               0.000000000               0.000000000               0.002223806               0.010774967               0.003679312              -0.000512946               0.003762601               0.003249655               0.000000000               0.000000000               0.000000000               0.000000000               0.001086196               0.009583233               0.002187133              -0.000790580               0.003457905               0.002667325               0.000000000               0.000000000               0.000000000               0.000000000               0.000357212               0.008996558               0.000735987              -0.000990613               0.003329027               0.002338414               0.000000000               0.000000000               0.000000000               0.000000000              -0.000003498               0.008472401               0.000184848              -0.001060359               0.003177559               0.002117199               0.000000000               0.000000000               0.000000000               0.000000000              -0.000182692               0.008032928              -0.000045938              -0.001072623               0.003035157               0.001962534               0.000000000               0.000000000               0.000000000               0.000000000              -0.000266061               0.007656431              -0.000149579              -0.001056824               0.002904393               0.001847569               0.000000000               0.000000000               0.000000000               0.000000000              -0.000301418               0.007324488              -0.000194120              -0.001028590               0.002784335               0.001755745               0.000000000               0.000000000               0.000000000               0.000000000              -0.000306212               0.007035236              -0.000209308              -0.000994231               0.002676466               0.001682234               0.000000000               0.000000000               0.000000000               0.000000000              -0.000295619               0.006784831              -0.000214207              -0.000958959               0.002581241               0.001622282               0.000000000               0.000000000               0.000000000               0.000000000              -0.000275835               0.006562587              -0.000214876              -0.000923759               0.002495427               0.001571668               0.000000000               0.000000000               0.000000000               0.000000000              -0.000242873               0.006361801              -0.000205629              -0.000886300               0.002416013               0.001529712               0.000000000               0.000000000               0.000000000               0.000000000              -0.000203127               0.006181109              -0.000187299              -0.000848809               0.002343286               0.001494476               0.000000000               0.000000000               0.000000000               0.000000000              -0.000160075               0.006024473              -0.000161873              -0.000813085               0.002279166               0.001466081               0.000000000               0.000000000               0.000000000               0.000000000              -0.000115151               0.005894220              -0.000130501              -0.000779957               0.002224706               0.001444749               0.000000000               0.000000000               0.000000000               0.000000000              -0.000073008               0.005788745              -0.000088597              -0.000750969               0.002179885               0.001428916               0.000000000               0.000000000               0.000000000               0.000000000              -0.000034927               0.005712784              -0.000041258              -0.000727194               0.002146640               0.001419446               0.000000000               0.000000000               0.000000000               0.000000000              -0.000019545               0.005678047              -0.000020726              -0.000717083               0.002131691               0.001414608               0.000000000               0.000000000               0.000000000               0.000000000               0.002061698               0.008878126               0.003524935              -0.000336632               0.003071555               0.002734923               0.000000000               0.000000000               0.000000000               0.000000000               0.000770330               0.008400170               0.002216853              -0.000761147               0.003053744               0.002292597               0.000000000               0.000000000               0.000000000               0.000000000              -0.000154639               0.008404838               0.000936074              -0.001108592               0.003171115               0.002062523               0.000000000               0.000000000               0.000000000               0.000000000              -0.000479877               0.008101259               0.000446881              -0.001192608               0.003097929               0.001905320               0.000000000               0.000000000               0.000000000               0.000000000              -0.000574875               0.007758743               0.000227286              -0.001185418               0.002981361               0.001795943               0.000000000               0.000000000               0.000000000               0.000000000              -0.000572704               0.007428674               0.000110536              -0.001143345               0.002857315               0.001713970               0.000000000               0.000000000               0.000000000               0.000000000              -0.000532221               0.007123205               0.000041156              -0.001089981               0.002737705               0.001647724               0.000000000               0.000000000               0.000000000               0.000000000              -0.000480316               0.006842554              -0.000003371              -0.001035435               0.002625974               0.001590539               0.000000000               0.000000000               0.000000000               0.000000000              -0.000418602               0.006595049              -0.000035746              -0.000981354               0.002525446               0.001544091               0.000000000               0.000000000               0.000000000               0.000000000              -0.000353266               0.006373313              -0.000057878              -0.000929136               0.002434129               0.001504992               0.000000000               0.000000000               0.000000000               0.000000000              -0.000281002               0.006171397              -0.000067007              -0.000876798               0.002349378               0.001472580               0.000000000               0.000000000               0.000000000               0.000000000              -0.000209122               0.005989307              -0.000065667              -0.000827082               0.002272110               0.001445028               0.000000000               0.000000000               0.000000000               0.000000000              -0.000149566               0.005826900              -0.000057263              -0.000784448               0.002203763               0.001419315               0.000000000               0.000000000               0.000000000               0.000000000              -0.000099815               0.005687367              -0.000043149              -0.000748350               0.002145220               0.001396870               0.000000000               0.000000000               0.000000000               0.000000000              -0.000055558               0.005572158              -0.000023388              -0.000717352               0.002096485               0.001379133               0.000000000               0.000000000               0.000000000               0.000000000              -0.000022144               0.005482904              -0.000006451              -0.000693665               0.002058838               0.001365173               0.000000000               0.000000000               0.000000000               0.000000000              -0.000016700               0.005432253              -0.000004945              -0.000685292               0.002039164               0.001353871               0.000000000               0.000000000               0.000000000               0.000000000               0.001719826               0.007093811               0.003151026              -0.000241795               0.002445177               0.002203382               0.000000000               0.000000000               0.000000000               0.000000000               0.000409429               0.007295695               0.002170346              -0.000758426               0.002684682               0.001926256               0.000000000               0.000000000               0.000000000               0.000000000              -0.000579460               0.007794714               0.001169086              -0.001191634               0.002995423               0.001803789               0.000000000               0.000000000               0.000000000               0.000000000              -0.000816282               0.007671802               0.000743098              -0.001265078               0.002978934               0.001713856               0.000000000               0.000000000               0.000000000               0.000000000              -0.000813975               0.007418174               0.000514162              -0.001232510               0.002883537               0.001651027               0.000000000               0.000000000               0.000000000               0.000000000              -0.000732656               0.007137786               0.000366984              -0.001166966               0.002768227               0.001601260               0.000000000               0.000000000               0.000000000               0.000000000              -0.000634805               0.006857482               0.000264704              -0.001095234               0.002650883               0.001555648               0.000000000               0.000000000               0.000000000               0.000000000              -0.000541126               0.006592534               0.000188619              -0.001026986               0.002539818               0.001512832               0.000000000               0.000000000               0.000000000               0.000000000              -0.000446045               0.006356228               0.000126805              -0.000961793               0.002439319               0.001477526               0.000000000               0.000000000               0.000000000               0.000000000              -0.000352193               0.006139059               0.000081636              -0.000899452               0.002346150               0.001446698               0.000000000               0.000000000               0.000000000               0.000000000              -0.000265086               0.005934639               0.000053787              -0.000841235               0.002258605               0.001417370               0.000000000               0.000000000               0.000000000               0.000000000              -0.000189664               0.005746318               0.000037482              -0.000789412               0.002178558               0.001389146               0.000000000               0.000000000               0.000000000               0.000000000              -0.000128656               0.005578264               0.000026146              -0.000745527               0.002107912               0.001362385               0.000000000               0.000000000               0.000000000               0.000000000              -0.000077746               0.005434519               0.000017170              -0.000708468               0.002047644               0.001339176               0.000000000               0.000000000               0.000000000               0.000000000              -0.000037982               0.005316599               0.000012207              -0.000678816               0.001998454               0.001319638               0.000000000               0.000000000               0.000000000               0.000000000              -0.000014434               0.005221212               0.000006944              -0.000658063               0.001959741               0.001301678               0.000000000               0.000000000               0.000000000               0.000000000              -0.000015323               0.005164080              -0.000001929              -0.000651255               0.001938428               0.001287173               0.000000000               0.000000000               0.000000000               0.000000000               0.001274279               0.005553801               0.002646186              -0.000216373               0.001923372               0.001706999               0.000000000               0.000000000               0.000000000               0.000000000               0.000074749               0.006297396               0.002092296              -0.000759143               0.002352158               0.001593015               0.000000000               0.000000000               0.000000000               0.000000000              -0.000873213               0.007201027               0.001440608              -0.001227581               0.002809512               0.001581931               0.000000000               0.000000000               0.000000000               0.000000000              -0.001009873               0.007267600               0.001056453              -0.001287149               0.002851559               0.001564409               0.000000000               0.000000000               0.000000000               0.000000000              -0.000933164               0.007115730               0.000802051              -0.001239400               0.002785019               0.001545620               0.000000000               0.000000000               0.000000000               0.000000000              -0.000795111               0.006890408               0.000620091              -0.001159465               0.002683268               0.001523803               0.000000000               0.000000000               0.000000000               0.000000000              -0.000654506               0.006640701               0.000483753              -0.001075525               0.002572053               0.001496528               0.000000000               0.000000000               0.000000000               0.000000000              -0.000528456               0.006402611               0.000375617              -0.000998495               0.002467014               0.001468519               0.000000000               0.000000000               0.000000000               0.000000000              -0.000415154               0.006182947               0.000286018              -0.000928549               0.002370478               0.001441929               0.000000000               0.000000000               0.000000000               0.000000000              -0.000312002               0.005966628               0.000217335              -0.000862827               0.002276465               0.001413638               0.000000000               0.000000000               0.000000000               0.000000000              -0.000224028               0.005756106               0.000167568              -0.000803522               0.002186523               0.001383002               0.000000000               0.000000000               0.000000000               0.000000000              -0.000154190               0.005561932               0.000128394              -0.000753061               0.002104979               0.001351918               0.000000000               0.000000000               0.000000000               0.000000000              -0.000099910               0.005393123               0.000093603              -0.000711605               0.002034891               0.001323286               0.000000000               0.000000000               0.000000000               0.000000000              -0.000059082               0.005252011               0.000060504              -0.000678655               0.001976871               0.001298216               0.000000000               0.000000000               0.000000000               0.000000000              -0.000037516               0.005134787               0.000033594              -0.000655915               0.001930217               0.001274302               0.000000000               0.000000000               0.000000000               0.000000000              -0.000038538               0.005038459               0.000014585              -0.000644258               0.001894222               0.001249964               0.000000000               0.000000000               0.000000000               0.000000000              -0.000046002               0.004988630               0.000004249              -0.000640828               0.001876469               0.001235642               0.000000000               0.000000000               0.000000000               0.000000000               0.000710674               0.004096985               0.002091758              -0.000245622               0.001447521               0.001201899               0.000000000               0.000000000               0.000000000               0.000000000              -0.000180747               0.005145147               0.001995302              -0.000710923               0.001952006               0.001241082               0.000000000               0.000000000               0.000000000               0.000000000              -0.000988912               0.006342459               0.001735008              -0.001163647               0.002502014               0.001338367               0.000000000               0.000000000               0.000000000               0.000000000              -0.001081006               0.006660446               0.001404041              -0.001237930               0.002632770               0.001394839               0.000000000               0.000000000               0.000000000               0.000000000              -0.000981502               0.006673962               0.001129911              -0.001202306               0.002625400               0.001423094               0.000000000               0.000000000               0.000000000               0.000000000              -0.000829988               0.006558977               0.000915572              -0.001131115               0.002563342               0.001432227               0.000000000               0.000000000               0.000000000               0.000000000              -0.000675297               0.006390986               0.000743788              -0.001052107               0.002481010               0.001428903               0.000000000               0.000000000               0.000000000               0.000000000              -0.000534188               0.006219177               0.000600346              -0.000977715               0.002398943               0.001421228               0.000000000               0.000000000               0.000000000               0.000000000              -0.000415941               0.006046029               0.000481800              -0.000911729               0.002319233               0.001407503               0.000000000               0.000000000               0.000000000               0.000000000              -0.000316351               0.005862865               0.000386101              -0.000851488               0.002238098               0.001386610               0.000000000               0.000000000               0.000000000               0.000000000              -0.000231639               0.005675168               0.000306047              -0.000796259               0.002157123               0.001360865               0.000000000               0.000000000               0.000000000               0.000000000              -0.000166955               0.005492605               0.000237318              -0.000749182               0.002080578               0.001331395               0.000000000               0.000000000               0.000000000               0.000000000              -0.000119173               0.005328457               0.000175266              -0.000710745               0.002013050               0.001302305               0.000000000               0.000000000               0.000000000               0.000000000              -0.000086567               0.005190711               0.000116271              -0.000681300               0.001957320               0.001276020               0.000000000               0.000000000               0.000000000               0.000000000              -0.000073865               0.005072932               0.000062561              -0.000661814               0.001911565               0.001249751               0.000000000               0.000000000               0.000000000               0.000000000              -0.000083176               0.004976260               0.000021613              -0.000653222               0.001876477               0.001223256               0.000000000               0.000000000               0.000000000               0.000000000              -0.000094875               0.004932442               0.000004620              -0.000652132               0.001861508               0.001209376               0.000000000               0.000000000               0.000000000               0.000000000              -0.000065144               0.002765546               0.001512177              -0.000370123               0.001045213               0.000675090               0.000000000               0.000000000               0.000000000               0.000000000              -0.000476373               0.003997729               0.001835922              -0.000678356               0.001558681               0.000880325               0.000000000               0.000000000               0.000000000               0.000000000              -0.001023432               0.005367959               0.001962061              -0.001054780               0.002140894               0.001086114               0.000000000               0.000000000               0.000000000               0.000000000              -0.001074936               0.005919723               0.001733897              -0.001143064               0.002354242               0.001211178               0.000000000               0.000000000               0.000000000               0.000000000              -0.000971839               0.006122574               0.001470765              -0.001129759               0.002417424               0.001287665               0.000000000               0.000000000               0.000000000               0.000000000              -0.000824307               0.006150852               0.001237303              -0.001077969               0.002409587               0.001331617               0.000000000               0.000000000               0.000000000               0.000000000              -0.000673011               0.006095684               0.001037685              -0.001014337               0.002369987               0.001355649               0.000000000               0.000000000               0.000000000               0.000000000              -0.000528211               0.006009746               0.000866924              -0.000949295               0.002319660               0.001370365               0.000000000               0.000000000               0.000000000               0.000000000              -0.000402341               0.005900194               0.000722574              -0.000888400               0.002262845               0.001374445               0.000000000               0.000000000               0.000000000               0.000000000              -0.000305389               0.005766586               0.000600591              -0.000835342               0.002200624               0.001365281               0.000000000               0.000000000               0.000000000               0.000000000              -0.000226029               0.005619538               0.000493061              -0.000787201               0.002135561               0.001348360               0.000000000               0.000000000               0.000000000               0.000000000              -0.000161550               0.005462964               0.000395799              -0.000743450               0.002068786               0.001325336               0.000000000               0.000000000               0.000000000               0.000000000              -0.000116354               0.005312223               0.000305142              -0.000707659               0.002006610               0.001298951               0.000000000               0.000000000               0.000000000               0.000000000              -0.000088455               0.005181192               0.000216698              -0.000680818               0.001953986               0.001273168               0.000000000               0.000000000               0.000000000               0.000000000              -0.000079726               0.005068442               0.000131143              -0.000663451               0.001910614               0.001247163               0.000000000               0.000000000               0.000000000               0.000000000              -0.000094003               0.004976844               0.000056168              -0.000657355               0.001878050               0.001220695               0.000000000               0.000000000               0.000000000               0.000000000              -0.000116035               0.004931181               0.000019656              -0.000659909               0.001863680               0.001203771               0.000000000               0.000000000               0.000000000               0.000000000              -0.001005723               0.001646584               0.000941808              -0.000582968               0.000743178               0.000160210               0.000000000               0.000000000               0.000000000               0.000000000              -0.000857557               0.002912564               0.001587517              -0.000685654               0.001199395               0.000513742               0.000000000               0.000000000               0.000000000               0.000000000              -0.001020226               0.004284021               0.002033435              -0.000918087               0.001734021               0.000815934               0.000000000               0.000000000               0.000000000               0.000000000              -0.000977069               0.005003444               0.001939790              -0.000991830               0.001998407               0.001006577               0.000000000               0.000000000               0.000000000               0.000000000              -0.000866411               0.005381763               0.001723637              -0.000997623               0.002126444               0.001128821               0.000000000               0.000000000               0.000000000               0.000000000              -0.000733016               0.005565815               0.001497558              -0.000970606               0.002178788               0.001208182               0.000000000               0.000000000               0.000000000               0.000000000              -0.000592178               0.005641759               0.001290075              -0.000927285               0.002189662               0.001262377               0.000000000               0.000000000               0.000000000               0.000000000              -0.000456687               0.005658419               0.001107000              -0.000878558               0.002178973               0.001300415               0.000000000               0.000000000               0.000000000               0.000000000              -0.000334418               0.005631001               0.000947089              -0.000829280               0.002153408               0.001324128               0.000000000               0.000000000               0.000000000               0.000000000              -0.000233865               0.005566570               0.000808858              -0.000783519               0.002116678               0.001333159               0.000000000               0.000000000               0.000000000               0.000000000              -0.000154984               0.005473005               0.000687446              -0.000742243               0.002071731               0.001329488               0.000000000               0.000000000               0.000000000               0.000000000              -0.000089917               0.005361135               0.000572099              -0.000703859               0.002021647               0.001317787               0.000000000               0.000000000               0.000000000               0.000000000              -0.000042223               0.005247261               0.000456215              -0.000671740               0.001972983               0.001301243               0.000000000               0.000000000               0.000000000               0.000000000              -0.000015044               0.005142589               0.000341267              -0.000648464               0.001930334               0.001281870               0.000000000               0.000000000               0.000000000               0.000000000              -0.000009946               0.005049600               0.000226591              -0.000634928               0.001894826               0.001259898               0.000000000               0.000000000               0.000000000               0.000000000              -0.000032080               0.004971882               0.000110797              -0.000633514               0.001868449               0.001234935               0.000000000               0.000000000               0.000000000               0.000000000              -0.000065394               0.004929046               0.000048418              -0.000640652               0.001856549               0.001215898               0.000000000               0.000000000               0.000000000               0.000000000              -0.002035726               0.000791280               0.000449693              -0.000862306               0.000551191              -0.000311115               0.000000000               0.000000000               0.000000000               0.000000000              -0.001295654               0.001940787               0.001272971              -0.000728468               0.000889744               0.000161276               0.000000000               0.000000000               0.000000000               0.000000000              -0.000997619               0.003173873               0.001924653              -0.000770841               0.001314893               0.000544052               0.000000000               0.000000000               0.000000000               0.000000000              -0.000807891               0.003979327               0.001959035              -0.000800374               0.001593220               0.000792845               0.000000000               0.000000000               0.000000000               0.000000000              -0.000667711               0.004497864               0.001811347              -0.000812624               0.001770147               0.000957523               0.000000000               0.000000000               0.000000000               0.000000000              -0.000543078               0.004828471               0.001621672              -0.000807212               0.001878544               0.001071332               0.000000000               0.000000000               0.000000000               0.000000000              -0.000420423               0.005034796               0.001431543              -0.000787007               0.001940584               0.001153577               0.000000000               0.000000000               0.000000000               0.000000000              -0.000302267               0.005161786               0.001253903              -0.000758572               0.001973435               0.001214863               0.000000000               0.000000000               0.000000000               0.000000000              -0.000191969               0.005229494               0.001095985              -0.000725674               0.001985038               0.001259365               0.000000000               0.000000000               0.000000000               0.000000000              -0.000090645               0.005244851               0.000958426              -0.000689597               0.001978132               0.001288535               0.000000000               0.000000000               0.000000000               0.000000000              -0.000006104               0.005220392               0.000835314              -0.000654837               0.001958392               0.001303555               0.000000000               0.000000000               0.000000000               0.000000000               0.000062111               0.005173737               0.000715380              -0.000623424               0.001932370               0.001308945               0.000000000               0.000000000               0.000000000               0.000000000               0.000118666               0.005114721               0.000590897              -0.000594839               0.001903170               0.001308331               0.000000000               0.000000000               0.000000000               0.000000000               0.000161976               0.005057781               0.000460976              -0.000571480               0.001876404               0.001304923               0.000000000               0.000000000               0.000000000               0.000000000               0.000181482               0.005005230               0.000322799              -0.000557597               0.001854259               0.001296662               0.000000000               0.000000000               0.000000000               0.000000000               0.000166478               0.004955003               0.000169081              -0.000556945               0.001837299               0.001280355               0.000000000               0.000000000               0.000000000               0.000000000               0.000134194               0.004922380               0.000082827              -0.000564973               0.001829101               0.001264128               0.000000000               0.000000000               0.000000000               0.000000000              -0.003038693               0.000202178               0.000100926              -0.001164781               0.000455650              -0.000709131               0.000000000               0.000000000               0.000000000               0.000000000              -0.001744835               0.001139900               0.000927319              -0.000796800               0.000645562              -0.000151238               0.000000000               0.000000000               0.000000000               0.000000000              -0.000970320               0.002144525               0.001630192              -0.000631935               0.000925479               0.000293543               0.000000000               0.000000000               0.000000000               0.000000000              -0.000603508               0.002959325               0.001750607              -0.000596231               0.001185175               0.000588944               0.000000000               0.000000000               0.000000000               0.000000000              -0.000405148               0.003568968               0.001674075              -0.000598051               0.001388994               0.000790942               0.000000000               0.000000000               0.000000000               0.000000000              -0.000275782               0.004015979               0.001537439              -0.000605415               0.001540451               0.000935036               0.000000000               0.000000000               0.000000000               0.000000000              -0.000172128               0.004338891               0.001384696              -0.000606909               0.001648585               0.001041676               0.000000000               0.000000000               0.000000000               0.000000000              -0.000073792               0.004570410               0.001235668              -0.000598973               0.001723112               0.001124139               0.000000000               0.000000000               0.000000000               0.000000000               0.000019264               0.004733002               0.001101208              -0.000584400               0.001772451               0.001188051               0.000000000               0.000000000               0.000000000               0.000000000               0.000109115               0.004837821               0.000981428              -0.000563809               0.001800527               0.001236718               0.000000000               0.000000000               0.000000000               0.000000000               0.000192175               0.004896483               0.000870160              -0.000539994               0.001812142               0.001272148               0.000000000               0.000000000               0.000000000               0.000000000               0.000268256               0.004925890               0.000762161              -0.000515139               0.001813660               0.001298521               0.000000000               0.000000000               0.000000000               0.000000000               0.000342750               0.004936872               0.000651443              -0.000488577               0.001808466               0.001319890               0.000000000               0.000000000               0.000000000               0.000000000               0.000417144               0.004939630               0.000529612              -0.000461024               0.001800201               0.001339178               0.000000000               0.000000000               0.000000000               0.000000000               0.000479724               0.004934084               0.000386535              -0.000436863               0.001790299               0.001353436               0.000000000               0.000000000               0.000000000               0.000000000               0.000515205               0.004921814               0.000210812              -0.000422024               0.001781263               0.001359239               0.000000000               0.000000000               0.000000000               0.000000000               0.000519215               0.004910391               0.000111347              -0.000419092               0.001776478               0.001357386               0.000000000               0.000000000               0.000000000               0.000000000              -0.003881890              -0.000153221              -0.000073272              -0.001436555               0.000427775              -0.001008780               0.000000000               0.000000000               0.000000000               0.000000000              -0.002145062               0.000553893               0.000588119              -0.000873634               0.000475839              -0.000397795               0.000000000               0.000000000               0.000000000               0.000000000              -0.000953970               0.001313972               0.001175936              -0.000521985               0.000611980               0.000089995               0.000000000               0.000000000               0.000000000               0.000000000              -0.000412436               0.002085270               0.001316860              -0.000415322               0.000833523               0.000418201               0.000000000               0.000000000               0.000000000               0.000000000              -0.000142223               0.002736100               0.001291834              -0.000395346               0.001043806               0.000648460               0.000000000               0.000000000               0.000000000               0.000000000               0.000002300               0.003260143               0.001207950              -0.000406655               0.001222255               0.000815600               0.000000000               0.000000000               0.000000000               0.000000000               0.000096414               0.003674550               0.001105993              -0.000423163               0.001365892               0.000942729               0.000000000               0.000000000               0.000000000               0.000000000               0.000175233               0.003996922               0.001001057              -0.000433902               0.001476928               0.001043026               0.000000000               0.000000000               0.000000000               0.000000000               0.000248316               0.004243377               0.000904187              -0.000437303               0.001560212               0.001122909               0.000000000               0.000000000               0.000000000               0.000000000               0.000319211               0.004429326               0.000817428              -0.000433961               0.001621081               0.001187120               0.000000000               0.000000000               0.000000000               0.000000000               0.000395584               0.004568157               0.000735505              -0.000422675               0.001663595               0.001240921               0.000000000               0.000000000               0.000000000               0.000000000               0.000481742               0.004674082               0.000657036              -0.000403606               0.001692547               0.001288941               0.000000000               0.000000000               0.000000000               0.000000000               0.000581472               0.004758016               0.000577923              -0.000376699               0.001711556               0.001334857               0.000000000               0.000000000               0.000000000               0.000000000               0.000695264               0.004822342               0.000486465              -0.000342068               0.001721454               0.001379386               0.000000000               0.000000000               0.000000000               0.000000000               0.000821311               0.004865570               0.000368187              -0.000300204               0.001721908               0.001421705               0.000000000               0.000000000               0.000000000               0.000000000               0.000955660               0.004890941               0.000206954              -0.000252994               0.001714629               0.001461635               0.000000000               0.000000000               0.000000000               0.000000000               0.001048579               0.004907315               0.000115286              -0.000220197               0.001709154               0.001488957               0.000000000               0.000000000               0.000000000               0.000000000              -0.004445069              -0.000324437              -0.000086724              -0.001626345               0.000433966              -0.001192379               0.000000000               0.000000000               0.000000000               0.000000000              -0.002429837               0.000206392               0.000279452              -0.000936987               0.000381124              -0.000555863               0.000000000               0.000000000               0.000000000               0.000000000              -0.000954386               0.000776950               0.000612745              -0.000455013               0.000410651              -0.000044362               0.000000000               0.000000000               0.000000000               0.000000000              -0.000277248               0.001494924               0.000705220              -0.000290833               0.000595247               0.000304414               0.000000000               0.000000000               0.000000000               0.000000000               0.000051703               0.002155528               0.000703432              -0.000250052               0.000801852               0.000551800               0.000000000               0.000000000               0.000000000               0.000000000               0.000217377               0.002720644               0.000665350              -0.000258564               0.000993060               0.000734496               0.000000000               0.000000000               0.000000000               0.000000000               0.000307760               0.003192007               0.000614873              -0.000283591               0.001158522               0.000874931               0.000000000               0.000000000               0.000000000               0.000000000               0.000367380               0.003575014               0.000560698              -0.000309109               0.001294696               0.000985587               0.000000000               0.000000000               0.000000000               0.000000000               0.000422255               0.003882303               0.000509496              -0.000326942               0.001403069               0.001076127               0.000000000               0.000000000               0.000000000               0.000000000               0.000480653               0.004127289               0.000464216              -0.000335666               0.001487638               0.001151972               0.000000000               0.000000000               0.000000000               0.000000000               0.000552373               0.004324060               0.000422275              -0.000333367               0.001552461               0.001219094               0.000000000               0.000000000               0.000000000               0.000000000               0.000645586               0.004487685               0.000382795              -0.000318865               0.001602169               0.001283303               0.000000000               0.000000000               0.000000000               0.000000000               0.000764507               0.004624852               0.000343220              -0.000291416               0.001638741               0.001347325               0.000000000               0.000000000               0.000000000               0.000000000               0.000913154               0.004735706               0.000295069              -0.000249530               0.001661729               0.001412199               0.000000000               0.000000000               0.000000000               0.000000000               0.001101143               0.004818111               0.000228948              -0.000189335               0.001669133               0.001479798               0.000000000               0.000000000               0.000000000               0.000000000               0.001342113               0.004870761               0.000132174              -0.000105553               0.001658755               0.001553203               0.000000000               0.000000000               0.000000000               0.000000000               0.001541013               0.004911556               0.000077667              -0.000036065               0.001649191               0.001613126               0.000000000               0.000000000               0.000000000               0.000000000               0.000000000               0.000000000               0.000000000               0.000000000               0.000000000               0.000000000               0.000000000               0.000000000               0.000000000               0.000000000               0.000000000               0.000000000               0.000000000               0.000000000               0.000000000               0.000000000               0.000000000               0.000000000               0.000000000               0.000000000               0.000000000               0.000000000               0.000000000               0.000000000               0.000000000               0.000000000               0.000000000               0.000000000               0.000000000               0.000000000               0.000000000               0.000000000               0.000000000               0.000000000               0.000000000               0.000000000               0.000000000               0.000000000               0.000000000               0.000000000               0.000000000               0.000000000               0.000000000               0.000000000               0.000000000               0.000000000               0.000000000               0.000000000               0.000000000               0.000000000               0.000000000               0.000000000               0.000000000               0.000000000               0.000000000               0.000000000               0.000000000               0.000000000               0.000000000               0.000000000               0.000000000               0.000000000               0.000000000               0.000000000               0.000000000               0.000000000               0.000000000               0.000000000               0.000000000               0.000000000               0.000000000               0.000000000               0.000000000               0.000000000               0.000000000               0.000000000               0.000000000               0.000000000               0.000000000               0.000000000               0.000000000               0.000000000               0.000000000               0.000000000               0.000000000               0.000000000               0.000000000               0.000000000               0.000000000               0.000000000               0.000000000               0.000000000               0.000000000               0.000000000               0.000000000               0.000000000               0.000000000               0.000000000               0.000000000               0.000000000               0.000000000               0.000000000               0.000000000               0.000000000               0.000000000               0.000000000               0.000000000               0.000000000               0.000000000               0.000000000               0.000000000               0.000000000               0.000000000               0.000000000               0.000000000               0.000000000               0.000000000               0.000000000               0.000000000               0.000000000               0.000000000               0.000000000               0.000000000               0.000000000               0.000000000               0.000000000               0.000000000               0.000000000               0.000000000               0.000000000               0.000000000               0.000000000               0.000000000               0.000000000               0.000000000               0.000000000               0.000000000               0.000000000               0.000000000               0.000000000               0.000000000               0.000000000               0.000000000               0.000000000               0.000000000               0.000000000               0.000000000               0.000000000               0.000000000               0.000000000               0.000000000               0.000000000               0.000000000               0.000000000               0.000000000               0.000000000               0.000000000               0.000000000               0.000000000               0.000000000               0.000000000               0.000000000               0.000000000               0.000000000               0.000000000               0.000000000               0.000000000               0.000000000               0.000000000               0.000000000 </DataArray>
</PointData>
</Piece>
</UnstructuredGrid> </VTKFile>
