<?xml version="1.0"?>
<VTKFile type="UnstructuredGrid" version="0.1">
<UnstructuredGrid>
<Piece NumberOfPoints="      1156" NumberOfCells="      1024">
<Points>
<DataArray type="Float64"                                    Name="coordinates"                                                      NumberOfComponents=" 3" format="ascii">
              0.133000000               0.000000000               0.000000000               0.155937500               0.000000000               0.000000000               0.178875000               0.000000000               0.000000000               0.201812500               0.000000000               0.000000000               0.224750000               0.000000000               0.000000000               0.247687500               0.000000000               0.000000000               0.270625000               0.000000000               0.000000000               0.293562500               0.000000000               0.000000000               0.316500000               0.000000000               0.000000000               0.339437500               0.000000000               0.000000000               0.362375000               0.000000000               0.000000000               0.385312500               0.000000000               0.000000000               0.408250000               0.000000000               0.000000000               0.431187500               0.000000000               0.000000000               0.454125000               0.000000000               0.000000000               0.477062500               0.000000000               0.000000000               0.500000000               0.000000000               0.000000000               0.132359569               0.013036280               0.000000000               0.155337096               0.016127762               0.000000000               0.178314623               0.019219245               0.000000000               0.201292150               0.022310727               0.000000000               0.224269676               0.025402210               0.000000000               0.247247203               0.028493692               0.000000000               0.270224730               0.031585175               0.000000000               0.293202257               0.034676657               0.000000000               0.316179784               0.037768140               0.000000000               0.339157311               0.040859622               0.000000000               0.362134838               0.043951105               0.000000000               0.385112365               0.047042587               0.000000000               0.408089892               0.050134070               0.000000000               0.431067419               0.053225552               0.000000000               0.454044946               0.056317035               0.000000000               0.477022473               0.059408517               0.000000000               0.500000000               0.062500000               0.000000000               0.130444442               0.025947013               0.000000000               0.153541665               0.032137825               0.000000000               0.176638887               0.038328636               0.000000000               0.199736109               0.044519448               0.000000000               0.222833332               0.050710260               0.000000000               0.245930554               0.056901071               0.000000000               0.269027776               0.063091883               0.000000000               0.292124999               0.069282695               0.000000000               0.315222221               0.075473506               0.000000000               0.338319444               0.081664318               0.000000000               0.361416666               0.087855130               0.000000000               0.384513888               0.094045942               0.000000000               0.407611111               0.100236753               0.000000000               0.430708333               0.106427565               0.000000000               0.453805555               0.112618377               0.000000000               0.476902778               0.118809188               0.000000000               0.500000000               0.125000000               0.000000000               0.127273065               0.038607862               0.000000000               0.150568498               0.047913621               0.000000000               0.173863932               0.057219379               0.000000000               0.197159365               0.066525138               0.000000000               0.220454798               0.075830897               0.000000000               0.243750232               0.085136655               0.000000000               0.267045665               0.094442414               0.000000000               0.290341099               0.103748172               0.000000000               0.313636532               0.113053931               0.000000000               0.336931966               0.122359690               0.000000000               0.360227399               0.131665448               0.000000000               0.383522833               0.140971207               0.000000000               0.406818266               0.150276966               0.000000000               0.430113700               0.159582724               0.000000000               0.453409133               0.168888483               0.000000000               0.476704567               0.178194241               0.000000000               0.500000000               0.187500000               0.000000000               0.122875978               0.050896897               0.000000000               0.146446229               0.063340840               0.000000000               0.170016481               0.075784784               0.000000000               0.193586732               0.088228728               0.000000000               0.217156983               0.100672672               0.000000000               0.240727235               0.113116616               0.000000000               0.264297486               0.125560560               0.000000000               0.287867738               0.138004504               0.000000000               0.311437989               0.150448448               0.000000000               0.335008240               0.162892392               0.000000000               0.358578492               0.175336336               0.000000000               0.382148743               0.187780280               0.000000000               0.405718994               0.200224224               0.000000000               0.429289246               0.212668168               0.000000000               0.452859497               0.225112112               0.000000000               0.476429749               0.237556056               0.000000000               0.500000000               0.250000000               0.000000000               0.117295528               0.062695766               0.000000000               0.141214558               0.078308531               0.000000000               0.165133587               0.093921295               0.000000000               0.189052617               0.109534060               0.000000000               0.212971646               0.125146824               0.000000000               0.236890676               0.140759589               0.000000000               0.260809705               0.156372354               0.000000000               0.284728735               0.171985118               0.000000000               0.308647764               0.187597883               0.000000000               0.332566794               0.203210648               0.000000000               0.356485823               0.218823412               0.000000000               0.380404853               0.234436177               0.000000000               0.404323882               0.250048941               0.000000000               0.428242912               0.265661706               0.000000000               0.452161941               0.281274471               0.000000000               0.476080971               0.296887235               0.000000000               0.500000000               0.312500000               0.000000000               0.110585458               0.073890841               0.000000000               0.134923867               0.092710163               0.000000000               0.159262276               0.111529486               0.000000000               0.183600685               0.130348808               0.000000000               0.207939094               0.149168131               0.000000000               0.232277503               0.167987453               0.000000000               0.256615912               0.186806776               0.000000000               0.280954320               0.205626098               0.000000000               0.305292729               0.224445420               0.000000000               0.329631138               0.243264743               0.000000000               0.353969547               0.262084065               0.000000000               0.378307956               0.280903388               0.000000000               0.402646365               0.299722710               0.000000000               0.426984773               0.318542033               0.000000000               0.451323182               0.337361355               0.000000000               0.475661591               0.356180678               0.000000000               0.500000000               0.375000000               0.000000000               0.102810390               0.084374307               0.000000000               0.127634741               0.106444663               0.000000000               0.152459092               0.128515018               0.000000000               0.177283442               0.150585374               0.000000000               0.202107793               0.172655730               0.000000000               0.226932143               0.194726086               0.000000000               0.251756494               0.216796442               0.000000000               0.276580845               0.238866798               0.000000000               0.301405195               0.260937153               0.000000000               0.326229546               0.283007509               0.000000000               0.351053896               0.305077865               0.000000000               0.375878247               0.327148221               0.000000000               0.400702598               0.349218577               0.000000000               0.425526948               0.371288933               0.000000000               0.450351299               0.393359288               0.000000000               0.475175649               0.415429644               0.000000000               0.500000000               0.437500000               0.000000000               0.094045202               0.094045202               0.000000000               0.119417377               0.119417377               0.000000000               0.144789552               0.144789552               0.000000000               0.170161727               0.170161727               0.000000000               0.195533901               0.195533901               0.000000000               0.220906076               0.220906076               0.000000000               0.246278251               0.246278251               0.000000000               0.271650426               0.271650426               0.000000000               0.297022601               0.297022601               0.000000000               0.322394776               0.322394776               0.000000000               0.347766951               0.347766951               0.000000000               0.373139126               0.373139126               0.000000000               0.398511300               0.398511300               0.000000000               0.423883475               0.423883475               0.000000000               0.449255650               0.449255650               0.000000000               0.474627825               0.474627825               0.000000000               0.500000000               0.500000000               0.000000000               0.084374307               0.102810390               0.000000000               0.106444663               0.127634741               0.000000000               0.128515018               0.152459092               0.000000000               0.150585374               0.177283442               0.000000000               0.172655730               0.202107793               0.000000000               0.194726086               0.226932143               0.000000000               0.216796442               0.251756494               0.000000000               0.238866798               0.276580845               0.000000000               0.260937153               0.301405195               0.000000000               0.283007509               0.326229546               0.000000000               0.305077865               0.351053896               0.000000000               0.327148221               0.375878247               0.000000000               0.349218577               0.400702598               0.000000000               0.371288933               0.425526948               0.000000000               0.393359288               0.450351299               0.000000000               0.415429644               0.475175649               0.000000000               0.437500000               0.500000000               0.000000000               0.073890841               0.110585458               0.000000000               0.092710163               0.134923867               0.000000000               0.111529486               0.159262276               0.000000000               0.130348808               0.183600685               0.000000000               0.149168131               0.207939094               0.000000000               0.167987453               0.232277503               0.000000000               0.186806776               0.256615912               0.000000000               0.205626098               0.280954320               0.000000000               0.224445420               0.305292729               0.000000000               0.243264743               0.329631138               0.000000000               0.262084065               0.353969547               0.000000000               0.280903388               0.378307956               0.000000000               0.299722710               0.402646365               0.000000000               0.318542033               0.426984773               0.000000000               0.337361355               0.451323182               0.000000000               0.356180678               0.475661591               0.000000000               0.375000000               0.500000000               0.000000000               0.062695766               0.117295528               0.000000000               0.078308531               0.141214558               0.000000000               0.093921295               0.165133587               0.000000000               0.109534060               0.189052617               0.000000000               0.125146824               0.212971646               0.000000000               0.140759589               0.236890676               0.000000000               0.156372354               0.260809705               0.000000000               0.171985118               0.284728735               0.000000000               0.187597883               0.308647764               0.000000000               0.203210648               0.332566794               0.000000000               0.218823412               0.356485823               0.000000000               0.234436177               0.380404853               0.000000000               0.250048941               0.404323882               0.000000000               0.265661706               0.428242912               0.000000000               0.281274471               0.452161941               0.000000000               0.296887235               0.476080971               0.000000000               0.312500000               0.500000000               0.000000000               0.050896897               0.122875978               0.000000000               0.063340840               0.146446229               0.000000000               0.075784784               0.170016481               0.000000000               0.088228728               0.193586732               0.000000000               0.100672672               0.217156983               0.000000000               0.113116616               0.240727235               0.000000000               0.125560560               0.264297486               0.000000000               0.138004504               0.287867738               0.000000000               0.150448448               0.311437989               0.000000000               0.162892392               0.335008240               0.000000000               0.175336336               0.358578492               0.000000000               0.187780280               0.382148743               0.000000000               0.200224224               0.405718994               0.000000000               0.212668168               0.429289246               0.000000000               0.225112112               0.452859497               0.000000000               0.237556056               0.476429749               0.000000000               0.250000000               0.500000000               0.000000000               0.038607862               0.127273065               0.000000000               0.047913621               0.150568498               0.000000000               0.057219379               0.173863932               0.000000000               0.066525138               0.197159365               0.000000000               0.075830897               0.220454798               0.000000000               0.085136655               0.243750232               0.000000000               0.094442414               0.267045665               0.000000000               0.103748172               0.290341099               0.000000000               0.113053931               0.313636532               0.000000000               0.122359690               0.336931966               0.000000000               0.131665448               0.360227399               0.000000000               0.140971207               0.383522833               0.000000000               0.150276966               0.406818266               0.000000000               0.159582724               0.430113700               0.000000000               0.168888483               0.453409133               0.000000000               0.178194241               0.476704567               0.000000000               0.187500000               0.500000000               0.000000000               0.025947013               0.130444442               0.000000000               0.032137825               0.153541665               0.000000000               0.038328636               0.176638887               0.000000000               0.044519448               0.199736109               0.000000000               0.050710260               0.222833332               0.000000000               0.056901071               0.245930554               0.000000000               0.063091883               0.269027776               0.000000000               0.069282695               0.292124999               0.000000000               0.075473506               0.315222221               0.000000000               0.081664318               0.338319444               0.000000000               0.087855130               0.361416666               0.000000000               0.094045942               0.384513888               0.000000000               0.100236753               0.407611111               0.000000000               0.106427565               0.430708333               0.000000000               0.112618377               0.453805555               0.000000000               0.118809188               0.476902778               0.000000000               0.125000000               0.500000000               0.000000000               0.013036280               0.132359569               0.000000000               0.016127762               0.155337096               0.000000000               0.019219245               0.178314623               0.000000000               0.022310727               0.201292150               0.000000000               0.025402210               0.224269676               0.000000000               0.028493692               0.247247203               0.000000000               0.031585175               0.270224730               0.000000000               0.034676657               0.293202257               0.000000000               0.037768140               0.316179784               0.000000000               0.040859622               0.339157311               0.000000000               0.043951105               0.362134838               0.000000000               0.047042587               0.385112365               0.000000000               0.050134070               0.408089892               0.000000000               0.053225552               0.431067419               0.000000000               0.056317035               0.454044946               0.000000000               0.059408517               0.477022473               0.000000000               0.062500000               0.500000000               0.000000000               0.000000000               0.133000000               0.000000000               0.000000000               0.155937500               0.000000000               0.000000000               0.178875000               0.000000000               0.000000000               0.201812500               0.000000000               0.000000000               0.224750000               0.000000000               0.000000000               0.247687500               0.000000000               0.000000000               0.270625000               0.000000000               0.000000000               0.293562500               0.000000000               0.000000000               0.316500000               0.000000000               0.000000000               0.339437500               0.000000000               0.000000000               0.362375000               0.000000000               0.000000000               0.385312500               0.000000000               0.000000000               0.408250000               0.000000000               0.000000000               0.431187500               0.000000000               0.000000000               0.454125000               0.000000000               0.000000000               0.477062500               0.000000000               0.000000000               0.500000000               0.000000000               0.133000000               0.000000000               0.000000000               0.155937500               0.000000000               0.000000000               0.178875000               0.000000000               0.000000000               0.201812500               0.000000000               0.000000000               0.224750000               0.000000000               0.000000000               0.247687500               0.000000000               0.000000000               0.270625000               0.000000000               0.000000000               0.293562500               0.000000000               0.000000000               0.316500000               0.000000000               0.000000000               0.339437500               0.000000000               0.000000000               0.362375000               0.000000000               0.000000000               0.385312500               0.000000000               0.000000000               0.408250000               0.000000000               0.000000000               0.431187500               0.000000000               0.000000000               0.454125000               0.000000000               0.000000000               0.477062500               0.000000000               0.000000000               0.500000000               0.000000000               0.000000000               0.132359569              -0.013036280               0.000000000               0.155337096              -0.016127762               0.000000000               0.178314623              -0.019219245               0.000000000               0.201292150              -0.022310727               0.000000000               0.224269676              -0.025402210               0.000000000               0.247247203              -0.028493692               0.000000000               0.270224730              -0.031585175               0.000000000               0.293202257              -0.034676657               0.000000000               0.316179784              -0.037768140               0.000000000               0.339157311              -0.040859622               0.000000000               0.362134838              -0.043951105               0.000000000               0.385112365              -0.047042587               0.000000000               0.408089892              -0.050134070               0.000000000               0.431067419              -0.053225552               0.000000000               0.454044946              -0.056317035               0.000000000               0.477022473              -0.059408517               0.000000000               0.500000000              -0.062500000               0.000000000               0.130444442              -0.025947013               0.000000000               0.153541665              -0.032137825               0.000000000               0.176638887              -0.038328636               0.000000000               0.199736109              -0.044519448               0.000000000               0.222833332              -0.050710260               0.000000000               0.245930554              -0.056901071               0.000000000               0.269027776              -0.063091883               0.000000000               0.292124999              -0.069282695               0.000000000               0.315222221              -0.075473506               0.000000000               0.338319444              -0.081664318               0.000000000               0.361416666              -0.087855130               0.000000000               0.384513888              -0.094045942               0.000000000               0.407611111              -0.100236753               0.000000000               0.430708333              -0.106427565               0.000000000               0.453805555              -0.112618377               0.000000000               0.476902778              -0.118809188               0.000000000               0.500000000              -0.125000000               0.000000000               0.127273065              -0.038607862               0.000000000               0.150568498              -0.047913621               0.000000000               0.173863932              -0.057219379               0.000000000               0.197159365              -0.066525138               0.000000000               0.220454798              -0.075830897               0.000000000               0.243750232              -0.085136655               0.000000000               0.267045665              -0.094442414               0.000000000               0.290341099              -0.103748172               0.000000000               0.313636532              -0.113053931               0.000000000               0.336931966              -0.122359690               0.000000000               0.360227399              -0.131665448               0.000000000               0.383522833              -0.140971207               0.000000000               0.406818266              -0.150276966               0.000000000               0.430113700              -0.159582724               0.000000000               0.453409133              -0.168888483               0.000000000               0.476704567              -0.178194241               0.000000000               0.500000000              -0.187500000               0.000000000               0.122875978              -0.050896897               0.000000000               0.146446229              -0.063340840               0.000000000               0.170016481              -0.075784784               0.000000000               0.193586732              -0.088228728               0.000000000               0.217156983              -0.100672672               0.000000000               0.240727235              -0.113116616               0.000000000               0.264297486              -0.125560560               0.000000000               0.287867738              -0.138004504               0.000000000               0.311437989              -0.150448448               0.000000000               0.335008240              -0.162892392               0.000000000               0.358578492              -0.175336336               0.000000000               0.382148743              -0.187780280               0.000000000               0.405718994              -0.200224224               0.000000000               0.429289246              -0.212668168               0.000000000               0.452859497              -0.225112112               0.000000000               0.476429749              -0.237556056               0.000000000               0.500000000              -0.250000000               0.000000000               0.117295528              -0.062695766               0.000000000               0.141214558              -0.078308531               0.000000000               0.165133587              -0.093921295               0.000000000               0.189052617              -0.109534060               0.000000000               0.212971646              -0.125146824               0.000000000               0.236890676              -0.140759589               0.000000000               0.260809705              -0.156372354               0.000000000               0.284728735              -0.171985118               0.000000000               0.308647764              -0.187597883               0.000000000               0.332566794              -0.203210648               0.000000000               0.356485823              -0.218823412               0.000000000               0.380404853              -0.234436177               0.000000000               0.404323882              -0.250048941               0.000000000               0.428242912              -0.265661706               0.000000000               0.452161941              -0.281274471               0.000000000               0.476080971              -0.296887235               0.000000000               0.500000000              -0.312500000               0.000000000               0.110585458              -0.073890841               0.000000000               0.134923867              -0.092710163               0.000000000               0.159262276              -0.111529486               0.000000000               0.183600685              -0.130348808               0.000000000               0.207939094              -0.149168131               0.000000000               0.232277503              -0.167987453               0.000000000               0.256615912              -0.186806776               0.000000000               0.280954320              -0.205626098               0.000000000               0.305292729              -0.224445420               0.000000000               0.329631138              -0.243264743               0.000000000               0.353969547              -0.262084065               0.000000000               0.378307956              -0.280903388               0.000000000               0.402646365              -0.299722710               0.000000000               0.426984773              -0.318542033               0.000000000               0.451323182              -0.337361355               0.000000000               0.475661591              -0.356180678               0.000000000               0.500000000              -0.375000000               0.000000000               0.102810390              -0.084374307               0.000000000               0.127634741              -0.106444663               0.000000000               0.152459092              -0.128515018               0.000000000               0.177283442              -0.150585374               0.000000000               0.202107793              -0.172655730               0.000000000               0.226932143              -0.194726086               0.000000000               0.251756494              -0.216796442               0.000000000               0.276580845              -0.238866798               0.000000000               0.301405195              -0.260937153               0.000000000               0.326229546              -0.283007509               0.000000000               0.351053896              -0.305077865               0.000000000               0.375878247              -0.327148221               0.000000000               0.400702598              -0.349218577               0.000000000               0.425526948              -0.371288933               0.000000000               0.450351299              -0.393359288               0.000000000               0.475175649              -0.415429644               0.000000000               0.500000000              -0.437500000               0.000000000               0.094045202              -0.094045202               0.000000000               0.119417377              -0.119417377               0.000000000               0.144789552              -0.144789552               0.000000000               0.170161727              -0.170161727               0.000000000               0.195533901              -0.195533901               0.000000000               0.220906076              -0.220906076               0.000000000               0.246278251              -0.246278251               0.000000000               0.271650426              -0.271650426               0.000000000               0.297022601              -0.297022601               0.000000000               0.322394776              -0.322394776               0.000000000               0.347766951              -0.347766951               0.000000000               0.373139126              -0.373139126               0.000000000               0.398511300              -0.398511300               0.000000000               0.423883475              -0.423883475               0.000000000               0.449255650              -0.449255650               0.000000000               0.474627825              -0.474627825               0.000000000               0.500000000              -0.500000000               0.000000000               0.084374307              -0.102810390               0.000000000               0.106444663              -0.127634741               0.000000000               0.128515018              -0.152459092               0.000000000               0.150585374              -0.177283442               0.000000000               0.172655730              -0.202107793               0.000000000               0.194726086              -0.226932143               0.000000000               0.216796442              -0.251756494               0.000000000               0.238866798              -0.276580845               0.000000000               0.260937153              -0.301405195               0.000000000               0.283007509              -0.326229546               0.000000000               0.305077865              -0.351053896               0.000000000               0.327148221              -0.375878247               0.000000000               0.349218577              -0.400702598               0.000000000               0.371288933              -0.425526948               0.000000000               0.393359288              -0.450351299               0.000000000               0.415429644              -0.475175649               0.000000000               0.437500000              -0.500000000               0.000000000               0.073890841              -0.110585458               0.000000000               0.092710163              -0.134923867               0.000000000               0.111529486              -0.159262276               0.000000000               0.130348808              -0.183600685               0.000000000               0.149168131              -0.207939094               0.000000000               0.167987453              -0.232277503               0.000000000               0.186806776              -0.256615912               0.000000000               0.205626098              -0.280954320               0.000000000               0.224445420              -0.305292729               0.000000000               0.243264743              -0.329631138               0.000000000               0.262084065              -0.353969547               0.000000000               0.280903388              -0.378307956               0.000000000               0.299722710              -0.402646365               0.000000000               0.318542033              -0.426984773               0.000000000               0.337361355              -0.451323182               0.000000000               0.356180678              -0.475661591               0.000000000               0.375000000              -0.500000000               0.000000000               0.062695766              -0.117295528               0.000000000               0.078308531              -0.141214558               0.000000000               0.093921295              -0.165133587               0.000000000               0.109534060              -0.189052617               0.000000000               0.125146824              -0.212971646               0.000000000               0.140759589              -0.236890676               0.000000000               0.156372354              -0.260809705               0.000000000               0.171985118              -0.284728735               0.000000000               0.187597883              -0.308647764               0.000000000               0.203210648              -0.332566794               0.000000000               0.218823412              -0.356485823               0.000000000               0.234436177              -0.380404853               0.000000000               0.250048941              -0.404323882               0.000000000               0.265661706              -0.428242912               0.000000000               0.281274471              -0.452161941               0.000000000               0.296887235              -0.476080971               0.000000000               0.312500000              -0.500000000               0.000000000               0.050896897              -0.122875978               0.000000000               0.063340840              -0.146446229               0.000000000               0.075784784              -0.170016481               0.000000000               0.088228728              -0.193586732               0.000000000               0.100672672              -0.217156983               0.000000000               0.113116616              -0.240727235               0.000000000               0.125560560              -0.264297486               0.000000000               0.138004504              -0.287867738               0.000000000               0.150448448              -0.311437989               0.000000000               0.162892392              -0.335008240               0.000000000               0.175336336              -0.358578492               0.000000000               0.187780280              -0.382148743               0.000000000               0.200224224              -0.405718994               0.000000000               0.212668168              -0.429289246               0.000000000               0.225112112              -0.452859497               0.000000000               0.237556056              -0.476429749               0.000000000               0.250000000              -0.500000000               0.000000000               0.038607862              -0.127273065               0.000000000               0.047913621              -0.150568498               0.000000000               0.057219379              -0.173863932               0.000000000               0.066525138              -0.197159365               0.000000000               0.075830897              -0.220454798               0.000000000               0.085136655              -0.243750232               0.000000000               0.094442414              -0.267045665               0.000000000               0.103748172              -0.290341099               0.000000000               0.113053931              -0.313636532               0.000000000               0.122359690              -0.336931966               0.000000000               0.131665448              -0.360227399               0.000000000               0.140971207              -0.383522833               0.000000000               0.150276966              -0.406818266               0.000000000               0.159582724              -0.430113700               0.000000000               0.168888483              -0.453409133               0.000000000               0.178194241              -0.476704567               0.000000000               0.187500000              -0.500000000               0.000000000               0.025947013              -0.130444442               0.000000000               0.032137825              -0.153541665               0.000000000               0.038328636              -0.176638887               0.000000000               0.044519448              -0.199736109               0.000000000               0.050710260              -0.222833332               0.000000000               0.056901071              -0.245930554               0.000000000               0.063091883              -0.269027776               0.000000000               0.069282695              -0.292124999               0.000000000               0.075473506              -0.315222221               0.000000000               0.081664318              -0.338319444               0.000000000               0.087855130              -0.361416666               0.000000000               0.094045942              -0.384513888               0.000000000               0.100236753              -0.407611111               0.000000000               0.106427565              -0.430708333               0.000000000               0.112618377              -0.453805555               0.000000000               0.118809188              -0.476902778               0.000000000               0.125000000              -0.500000000               0.000000000               0.013036280              -0.132359569               0.000000000               0.016127762              -0.155337096               0.000000000               0.019219245              -0.178314623               0.000000000               0.022310727              -0.201292150               0.000000000               0.025402210              -0.224269676               0.000000000               0.028493692              -0.247247203               0.000000000               0.031585175              -0.270224730               0.000000000               0.034676657              -0.293202257               0.000000000               0.037768140              -0.316179784               0.000000000               0.040859622              -0.339157311               0.000000000               0.043951105              -0.362134838               0.000000000               0.047042587              -0.385112365               0.000000000               0.050134070              -0.408089892               0.000000000               0.053225552              -0.431067419               0.000000000               0.056317035              -0.454044946               0.000000000               0.059408517              -0.477022473               0.000000000               0.062500000              -0.500000000               0.000000000               0.000000000              -0.133000000               0.000000000               0.000000000              -0.155937500               0.000000000               0.000000000              -0.178875000               0.000000000               0.000000000              -0.201812500               0.000000000               0.000000000              -0.224750000               0.000000000               0.000000000              -0.247687500               0.000000000               0.000000000              -0.270625000               0.000000000               0.000000000              -0.293562500               0.000000000               0.000000000              -0.316500000               0.000000000               0.000000000              -0.339437500               0.000000000               0.000000000              -0.362375000               0.000000000               0.000000000              -0.385312500               0.000000000               0.000000000              -0.408250000               0.000000000               0.000000000              -0.431187500               0.000000000               0.000000000              -0.454125000               0.000000000               0.000000000              -0.477062500               0.000000000               0.000000000              -0.500000000               0.000000000              -0.133000000               0.000000000               0.000000000              -0.155937500               0.000000000               0.000000000              -0.178875000               0.000000000               0.000000000              -0.201812500               0.000000000               0.000000000              -0.224750000               0.000000000               0.000000000              -0.247687500               0.000000000               0.000000000              -0.270625000               0.000000000               0.000000000              -0.293562500               0.000000000               0.000000000              -0.316500000               0.000000000               0.000000000              -0.339437500               0.000000000               0.000000000              -0.362375000               0.000000000               0.000000000              -0.385312500               0.000000000               0.000000000              -0.408250000               0.000000000               0.000000000              -0.431187500               0.000000000               0.000000000              -0.454125000               0.000000000               0.000000000              -0.477062500               0.000000000               0.000000000              -0.500000000               0.000000000               0.000000000              -0.132359569              -0.013036280               0.000000000              -0.155337096              -0.016127762               0.000000000              -0.178314623              -0.019219245               0.000000000              -0.201292150              -0.022310727               0.000000000              -0.224269676              -0.025402210               0.000000000              -0.247247203              -0.028493692               0.000000000              -0.270224730              -0.031585175               0.000000000              -0.293202257              -0.034676657               0.000000000              -0.316179784              -0.037768140               0.000000000              -0.339157311              -0.040859622               0.000000000              -0.362134838              -0.043951105               0.000000000              -0.385112365              -0.047042587               0.000000000              -0.408089892              -0.050134070               0.000000000              -0.431067419              -0.053225552               0.000000000              -0.454044946              -0.056317035               0.000000000              -0.477022473              -0.059408517               0.000000000              -0.500000000              -0.062500000               0.000000000              -0.130444442              -0.025947013               0.000000000              -0.153541665              -0.032137825               0.000000000              -0.176638887              -0.038328636               0.000000000              -0.199736109              -0.044519448               0.000000000              -0.222833332              -0.050710260               0.000000000              -0.245930554              -0.056901071               0.000000000              -0.269027776              -0.063091883               0.000000000              -0.292124999              -0.069282695               0.000000000              -0.315222221              -0.075473506               0.000000000              -0.338319444              -0.081664318               0.000000000              -0.361416666              -0.087855130               0.000000000              -0.384513888              -0.094045942               0.000000000              -0.407611111              -0.100236753               0.000000000              -0.430708333              -0.106427565               0.000000000              -0.453805555              -0.112618377               0.000000000              -0.476902778              -0.118809188               0.000000000              -0.500000000              -0.125000000               0.000000000              -0.127273065              -0.038607862               0.000000000              -0.150568498              -0.047913621               0.000000000              -0.173863932              -0.057219379               0.000000000              -0.197159365              -0.066525138               0.000000000              -0.220454798              -0.075830897               0.000000000              -0.243750232              -0.085136655               0.000000000              -0.267045665              -0.094442414               0.000000000              -0.290341099              -0.103748172               0.000000000              -0.313636532              -0.113053931               0.000000000              -0.336931966              -0.122359690               0.000000000              -0.360227399              -0.131665448               0.000000000              -0.383522833              -0.140971207               0.000000000              -0.406818266              -0.150276966               0.000000000              -0.430113700              -0.159582724               0.000000000              -0.453409133              -0.168888483               0.000000000              -0.476704567              -0.178194241               0.000000000              -0.500000000              -0.187500000               0.000000000              -0.122875978              -0.050896897               0.000000000              -0.146446229              -0.063340840               0.000000000              -0.170016481              -0.075784784               0.000000000              -0.193586732              -0.088228728               0.000000000              -0.217156983              -0.100672672               0.000000000              -0.240727235              -0.113116616               0.000000000              -0.264297486              -0.125560560               0.000000000              -0.287867738              -0.138004504               0.000000000              -0.311437989              -0.150448448               0.000000000              -0.335008240              -0.162892392               0.000000000              -0.358578492              -0.175336336               0.000000000              -0.382148743              -0.187780280               0.000000000              -0.405718994              -0.200224224               0.000000000              -0.429289246              -0.212668168               0.000000000              -0.452859497              -0.225112112               0.000000000              -0.476429749              -0.237556056               0.000000000              -0.500000000              -0.250000000               0.000000000              -0.117295528              -0.062695766               0.000000000              -0.141214558              -0.078308531               0.000000000              -0.165133587              -0.093921295               0.000000000              -0.189052617              -0.109534060               0.000000000              -0.212971646              -0.125146824               0.000000000              -0.236890676              -0.140759589               0.000000000              -0.260809705              -0.156372354               0.000000000              -0.284728735              -0.171985118               0.000000000              -0.308647764              -0.187597883               0.000000000              -0.332566794              -0.203210648               0.000000000              -0.356485823              -0.218823412               0.000000000              -0.380404853              -0.234436177               0.000000000              -0.404323882              -0.250048941               0.000000000              -0.428242912              -0.265661706               0.000000000              -0.452161941              -0.281274471               0.000000000              -0.476080971              -0.296887235               0.000000000              -0.500000000              -0.312500000               0.000000000              -0.110585458              -0.073890841               0.000000000              -0.134923867              -0.092710163               0.000000000              -0.159262276              -0.111529486               0.000000000              -0.183600685              -0.130348808               0.000000000              -0.207939094              -0.149168131               0.000000000              -0.232277503              -0.167987453               0.000000000              -0.256615912              -0.186806776               0.000000000              -0.280954320              -0.205626098               0.000000000              -0.305292729              -0.224445420               0.000000000              -0.329631138              -0.243264743               0.000000000              -0.353969547              -0.262084065               0.000000000              -0.378307956              -0.280903388               0.000000000              -0.402646365              -0.299722710               0.000000000              -0.426984773              -0.318542033               0.000000000              -0.451323182              -0.337361355               0.000000000              -0.475661591              -0.356180678               0.000000000              -0.500000000              -0.375000000               0.000000000              -0.102810390              -0.084374307               0.000000000              -0.127634741              -0.106444663               0.000000000              -0.152459092              -0.128515018               0.000000000              -0.177283442              -0.150585374               0.000000000              -0.202107793              -0.172655730               0.000000000              -0.226932143              -0.194726086               0.000000000              -0.251756494              -0.216796442               0.000000000              -0.276580845              -0.238866798               0.000000000              -0.301405195              -0.260937153               0.000000000              -0.326229546              -0.283007509               0.000000000              -0.351053896              -0.305077865               0.000000000              -0.375878247              -0.327148221               0.000000000              -0.400702598              -0.349218577               0.000000000              -0.425526948              -0.371288933               0.000000000              -0.450351299              -0.393359288               0.000000000              -0.475175649              -0.415429644               0.000000000              -0.500000000              -0.437500000               0.000000000              -0.094045202              -0.094045202               0.000000000              -0.119417377              -0.119417377               0.000000000              -0.144789552              -0.144789552               0.000000000              -0.170161727              -0.170161727               0.000000000              -0.195533901              -0.195533901               0.000000000              -0.220906076              -0.220906076               0.000000000              -0.246278251              -0.246278251               0.000000000              -0.271650426              -0.271650426               0.000000000              -0.297022601              -0.297022601               0.000000000              -0.322394776              -0.322394776               0.000000000              -0.347766951              -0.347766951               0.000000000              -0.373139126              -0.373139126               0.000000000              -0.398511300              -0.398511300               0.000000000              -0.423883475              -0.423883475               0.000000000              -0.449255650              -0.449255650               0.000000000              -0.474627825              -0.474627825               0.000000000              -0.500000000              -0.500000000               0.000000000              -0.084374307              -0.102810390               0.000000000              -0.106444663              -0.127634741               0.000000000              -0.128515018              -0.152459092               0.000000000              -0.150585374              -0.177283442               0.000000000              -0.172655730              -0.202107793               0.000000000              -0.194726086              -0.226932143               0.000000000              -0.216796442              -0.251756494               0.000000000              -0.238866798              -0.276580845               0.000000000              -0.260937153              -0.301405195               0.000000000              -0.283007509              -0.326229546               0.000000000              -0.305077865              -0.351053896               0.000000000              -0.327148221              -0.375878247               0.000000000              -0.349218577              -0.400702598               0.000000000              -0.371288933              -0.425526948               0.000000000              -0.393359288              -0.450351299               0.000000000              -0.415429644              -0.475175649               0.000000000              -0.437500000              -0.500000000               0.000000000              -0.073890841              -0.110585458               0.000000000              -0.092710163              -0.134923867               0.000000000              -0.111529486              -0.159262276               0.000000000              -0.130348808              -0.183600685               0.000000000              -0.149168131              -0.207939094               0.000000000              -0.167987453              -0.232277503               0.000000000              -0.186806776              -0.256615912               0.000000000              -0.205626098              -0.280954320               0.000000000              -0.224445420              -0.305292729               0.000000000              -0.243264743              -0.329631138               0.000000000              -0.262084065              -0.353969547               0.000000000              -0.280903388              -0.378307956               0.000000000              -0.299722710              -0.402646365               0.000000000              -0.318542033              -0.426984773               0.000000000              -0.337361355              -0.451323182               0.000000000              -0.356180678              -0.475661591               0.000000000              -0.375000000              -0.500000000               0.000000000              -0.062695766              -0.117295528               0.000000000              -0.078308531              -0.141214558               0.000000000              -0.093921295              -0.165133587               0.000000000              -0.109534060              -0.189052617               0.000000000              -0.125146824              -0.212971646               0.000000000              -0.140759589              -0.236890676               0.000000000              -0.156372354              -0.260809705               0.000000000              -0.171985118              -0.284728735               0.000000000              -0.187597883              -0.308647764               0.000000000              -0.203210648              -0.332566794               0.000000000              -0.218823412              -0.356485823               0.000000000              -0.234436177              -0.380404853               0.000000000              -0.250048941              -0.404323882               0.000000000              -0.265661706              -0.428242912               0.000000000              -0.281274471              -0.452161941               0.000000000              -0.296887235              -0.476080971               0.000000000              -0.312500000              -0.500000000               0.000000000              -0.050896897              -0.122875978               0.000000000              -0.063340840              -0.146446229               0.000000000              -0.075784784              -0.170016481               0.000000000              -0.088228728              -0.193586732               0.000000000              -0.100672672              -0.217156983               0.000000000              -0.113116616              -0.240727235               0.000000000              -0.125560560              -0.264297486               0.000000000              -0.138004504              -0.287867738               0.000000000              -0.150448448              -0.311437989               0.000000000              -0.162892392              -0.335008240               0.000000000              -0.175336336              -0.358578492               0.000000000              -0.187780280              -0.382148743               0.000000000              -0.200224224              -0.405718994               0.000000000              -0.212668168              -0.429289246               0.000000000              -0.225112112              -0.452859497               0.000000000              -0.237556056              -0.476429749               0.000000000              -0.250000000              -0.500000000               0.000000000              -0.038607862              -0.127273065               0.000000000              -0.047913621              -0.150568498               0.000000000              -0.057219379              -0.173863932               0.000000000              -0.066525138              -0.197159365               0.000000000              -0.075830897              -0.220454798               0.000000000              -0.085136655              -0.243750232               0.000000000              -0.094442414              -0.267045665               0.000000000              -0.103748172              -0.290341099               0.000000000              -0.113053931              -0.313636532               0.000000000              -0.122359690              -0.336931966               0.000000000              -0.131665448              -0.360227399               0.000000000              -0.140971207              -0.383522833               0.000000000              -0.150276966              -0.406818266               0.000000000              -0.159582724              -0.430113700               0.000000000              -0.168888483              -0.453409133               0.000000000              -0.178194241              -0.476704567               0.000000000              -0.187500000              -0.500000000               0.000000000              -0.025947013              -0.130444442               0.000000000              -0.032137825              -0.153541665               0.000000000              -0.038328636              -0.176638887               0.000000000              -0.044519448              -0.199736109               0.000000000              -0.050710260              -0.222833332               0.000000000              -0.056901071              -0.245930554               0.000000000              -0.063091883              -0.269027776               0.000000000              -0.069282695              -0.292124999               0.000000000              -0.075473506              -0.315222221               0.000000000              -0.081664318              -0.338319444               0.000000000              -0.087855130              -0.361416666               0.000000000              -0.094045942              -0.384513888               0.000000000              -0.100236753              -0.407611111               0.000000000              -0.106427565              -0.430708333               0.000000000              -0.112618377              -0.453805555               0.000000000              -0.118809188              -0.476902778               0.000000000              -0.125000000              -0.500000000               0.000000000              -0.013036280              -0.132359569               0.000000000              -0.016127762              -0.155337096               0.000000000              -0.019219245              -0.178314623               0.000000000              -0.022310727              -0.201292150               0.000000000              -0.025402210              -0.224269676               0.000000000              -0.028493692              -0.247247203               0.000000000              -0.031585175              -0.270224730               0.000000000              -0.034676657              -0.293202257               0.000000000              -0.037768140              -0.316179784               0.000000000              -0.040859622              -0.339157311               0.000000000              -0.043951105              -0.362134838               0.000000000              -0.047042587              -0.385112365               0.000000000              -0.050134070              -0.408089892               0.000000000              -0.053225552              -0.431067419               0.000000000              -0.056317035              -0.454044946               0.000000000              -0.059408517              -0.477022473               0.000000000              -0.062500000              -0.500000000               0.000000000               0.000000000              -0.133000000               0.000000000               0.000000000              -0.155937500               0.000000000               0.000000000              -0.178875000               0.000000000               0.000000000              -0.201812500               0.000000000               0.000000000              -0.224750000               0.000000000               0.000000000              -0.247687500               0.000000000               0.000000000              -0.270625000               0.000000000               0.000000000              -0.293562500               0.000000000               0.000000000              -0.316500000               0.000000000               0.000000000              -0.339437500               0.000000000               0.000000000              -0.362375000               0.000000000               0.000000000              -0.385312500               0.000000000               0.000000000              -0.408250000               0.000000000               0.000000000              -0.431187500               0.000000000               0.000000000              -0.454125000               0.000000000               0.000000000              -0.477062500               0.000000000               0.000000000              -0.500000000               0.000000000              -0.133000000               0.000000000               0.000000000              -0.155937500               0.000000000               0.000000000              -0.178875000               0.000000000               0.000000000              -0.201812500               0.000000000               0.000000000              -0.224750000               0.000000000               0.000000000              -0.247687500               0.000000000               0.000000000              -0.270625000               0.000000000               0.000000000              -0.293562500               0.000000000               0.000000000              -0.316500000               0.000000000               0.000000000              -0.339437500               0.000000000               0.000000000              -0.362375000               0.000000000               0.000000000              -0.385312500               0.000000000               0.000000000              -0.408250000               0.000000000               0.000000000              -0.431187500               0.000000000               0.000000000              -0.454125000               0.000000000               0.000000000              -0.477062500               0.000000000               0.000000000              -0.500000000               0.000000000               0.000000000              -0.132359569               0.013036280               0.000000000              -0.155337096               0.016127762               0.000000000              -0.178314623               0.019219245               0.000000000              -0.201292150               0.022310727               0.000000000              -0.224269676               0.025402210               0.000000000              -0.247247203               0.028493692               0.000000000              -0.270224730               0.031585175               0.000000000              -0.293202257               0.034676657               0.000000000              -0.316179784               0.037768140               0.000000000              -0.339157311               0.040859622               0.000000000              -0.362134838               0.043951105               0.000000000              -0.385112365               0.047042587               0.000000000              -0.408089892               0.050134070               0.000000000              -0.431067419               0.053225552               0.000000000              -0.454044946               0.056317035               0.000000000              -0.477022473               0.059408517               0.000000000              -0.500000000               0.062500000               0.000000000              -0.130444442               0.025947013               0.000000000              -0.153541665               0.032137825               0.000000000              -0.176638887               0.038328636               0.000000000              -0.199736109               0.044519448               0.000000000              -0.222833332               0.050710260               0.000000000              -0.245930554               0.056901071               0.000000000              -0.269027776               0.063091883               0.000000000              -0.292124999               0.069282695               0.000000000              -0.315222221               0.075473506               0.000000000              -0.338319444               0.081664318               0.000000000              -0.361416666               0.087855130               0.000000000              -0.384513888               0.094045942               0.000000000              -0.407611111               0.100236753               0.000000000              -0.430708333               0.106427565               0.000000000              -0.453805555               0.112618377               0.000000000              -0.476902778               0.118809188               0.000000000              -0.500000000               0.125000000               0.000000000              -0.127273065               0.038607862               0.000000000              -0.150568498               0.047913621               0.000000000              -0.173863932               0.057219379               0.000000000              -0.197159365               0.066525138               0.000000000              -0.220454798               0.075830897               0.000000000              -0.243750232               0.085136655               0.000000000              -0.267045665               0.094442414               0.000000000              -0.290341099               0.103748172               0.000000000              -0.313636532               0.113053931               0.000000000              -0.336931966               0.122359690               0.000000000              -0.360227399               0.131665448               0.000000000              -0.383522833               0.140971207               0.000000000              -0.406818266               0.150276966               0.000000000              -0.430113700               0.159582724               0.000000000              -0.453409133               0.168888483               0.000000000              -0.476704567               0.178194241               0.000000000              -0.500000000               0.187500000               0.000000000              -0.122875978               0.050896897               0.000000000              -0.146446229               0.063340840               0.000000000              -0.170016481               0.075784784               0.000000000              -0.193586732               0.088228728               0.000000000              -0.217156983               0.100672672               0.000000000              -0.240727235               0.113116616               0.000000000              -0.264297486               0.125560560               0.000000000              -0.287867738               0.138004504               0.000000000              -0.311437989               0.150448448               0.000000000              -0.335008240               0.162892392               0.000000000              -0.358578492               0.175336336               0.000000000              -0.382148743               0.187780280               0.000000000              -0.405718994               0.200224224               0.000000000              -0.429289246               0.212668168               0.000000000              -0.452859497               0.225112112               0.000000000              -0.476429749               0.237556056               0.000000000              -0.500000000               0.250000000               0.000000000              -0.117295528               0.062695766               0.000000000              -0.141214558               0.078308531               0.000000000              -0.165133587               0.093921295               0.000000000              -0.189052617               0.109534060               0.000000000              -0.212971646               0.125146824               0.000000000              -0.236890676               0.140759589               0.000000000              -0.260809705               0.156372354               0.000000000              -0.284728735               0.171985118               0.000000000              -0.308647764               0.187597883               0.000000000              -0.332566794               0.203210648               0.000000000              -0.356485823               0.218823412               0.000000000              -0.380404853               0.234436177               0.000000000              -0.404323882               0.250048941               0.000000000              -0.428242912               0.265661706               0.000000000              -0.452161941               0.281274471               0.000000000              -0.476080971               0.296887235               0.000000000              -0.500000000               0.312500000               0.000000000              -0.110585458               0.073890841               0.000000000              -0.134923867               0.092710163               0.000000000              -0.159262276               0.111529486               0.000000000              -0.183600685               0.130348808               0.000000000              -0.207939094               0.149168131               0.000000000              -0.232277503               0.167987453               0.000000000              -0.256615912               0.186806776               0.000000000              -0.280954320               0.205626098               0.000000000              -0.305292729               0.224445420               0.000000000              -0.329631138               0.243264743               0.000000000              -0.353969547               0.262084065               0.000000000              -0.378307956               0.280903388               0.000000000              -0.402646365               0.299722710               0.000000000              -0.426984773               0.318542033               0.000000000              -0.451323182               0.337361355               0.000000000              -0.475661591               0.356180678               0.000000000              -0.500000000               0.375000000               0.000000000              -0.102810390               0.084374307               0.000000000              -0.127634741               0.106444663               0.000000000              -0.152459092               0.128515018               0.000000000              -0.177283442               0.150585374               0.000000000              -0.202107793               0.172655730               0.000000000              -0.226932143               0.194726086               0.000000000              -0.251756494               0.216796442               0.000000000              -0.276580845               0.238866798               0.000000000              -0.301405195               0.260937153               0.000000000              -0.326229546               0.283007509               0.000000000              -0.351053896               0.305077865               0.000000000              -0.375878247               0.327148221               0.000000000              -0.400702598               0.349218577               0.000000000              -0.425526948               0.371288933               0.000000000              -0.450351299               0.393359288               0.000000000              -0.475175649               0.415429644               0.000000000              -0.500000000               0.437500000               0.000000000              -0.094045202               0.094045202               0.000000000              -0.119417377               0.119417377               0.000000000              -0.144789552               0.144789552               0.000000000              -0.170161727               0.170161727               0.000000000              -0.195533901               0.195533901               0.000000000              -0.220906076               0.220906076               0.000000000              -0.246278251               0.246278251               0.000000000              -0.271650426               0.271650426               0.000000000              -0.297022601               0.297022601               0.000000000              -0.322394776               0.322394776               0.000000000              -0.347766951               0.347766951               0.000000000              -0.373139126               0.373139126               0.000000000              -0.398511300               0.398511300               0.000000000              -0.423883475               0.423883475               0.000000000              -0.449255650               0.449255650               0.000000000              -0.474627825               0.474627825               0.000000000              -0.500000000               0.500000000               0.000000000              -0.084374307               0.102810390               0.000000000              -0.106444663               0.127634741               0.000000000              -0.128515018               0.152459092               0.000000000              -0.150585374               0.177283442               0.000000000              -0.172655730               0.202107793               0.000000000              -0.194726086               0.226932143               0.000000000              -0.216796442               0.251756494               0.000000000              -0.238866798               0.276580845               0.000000000              -0.260937153               0.301405195               0.000000000              -0.283007509               0.326229546               0.000000000              -0.305077865               0.351053896               0.000000000              -0.327148221               0.375878247               0.000000000              -0.349218577               0.400702598               0.000000000              -0.371288933               0.425526948               0.000000000              -0.393359288               0.450351299               0.000000000              -0.415429644               0.475175649               0.000000000              -0.437500000               0.500000000               0.000000000              -0.073890841               0.110585458               0.000000000              -0.092710163               0.134923867               0.000000000              -0.111529486               0.159262276               0.000000000              -0.130348808               0.183600685               0.000000000              -0.149168131               0.207939094               0.000000000              -0.167987453               0.232277503               0.000000000              -0.186806776               0.256615912               0.000000000              -0.205626098               0.280954320               0.000000000              -0.224445420               0.305292729               0.000000000              -0.243264743               0.329631138               0.000000000              -0.262084065               0.353969547               0.000000000              -0.280903388               0.378307956               0.000000000              -0.299722710               0.402646365               0.000000000              -0.318542033               0.426984773               0.000000000              -0.337361355               0.451323182               0.000000000              -0.356180678               0.475661591               0.000000000              -0.375000000               0.500000000               0.000000000              -0.062695766               0.117295528               0.000000000              -0.078308531               0.141214558               0.000000000              -0.093921295               0.165133587               0.000000000              -0.109534060               0.189052617               0.000000000              -0.125146824               0.212971646               0.000000000              -0.140759589               0.236890676               0.000000000              -0.156372354               0.260809705               0.000000000              -0.171985118               0.284728735               0.000000000              -0.187597883               0.308647764               0.000000000              -0.203210648               0.332566794               0.000000000              -0.218823412               0.356485823               0.000000000              -0.234436177               0.380404853               0.000000000              -0.250048941               0.404323882               0.000000000              -0.265661706               0.428242912               0.000000000              -0.281274471               0.452161941               0.000000000              -0.296887235               0.476080971               0.000000000              -0.312500000               0.500000000               0.000000000              -0.050896897               0.122875978               0.000000000              -0.063340840               0.146446229               0.000000000              -0.075784784               0.170016481               0.000000000              -0.088228728               0.193586732               0.000000000              -0.100672672               0.217156983               0.000000000              -0.113116616               0.240727235               0.000000000              -0.125560560               0.264297486               0.000000000              -0.138004504               0.287867738               0.000000000              -0.150448448               0.311437989               0.000000000              -0.162892392               0.335008240               0.000000000              -0.175336336               0.358578492               0.000000000              -0.187780280               0.382148743               0.000000000              -0.200224224               0.405718994               0.000000000              -0.212668168               0.429289246               0.000000000              -0.225112112               0.452859497               0.000000000              -0.237556056               0.476429749               0.000000000              -0.250000000               0.500000000               0.000000000              -0.038607862               0.127273065               0.000000000              -0.047913621               0.150568498               0.000000000              -0.057219379               0.173863932               0.000000000              -0.066525138               0.197159365               0.000000000              -0.075830897               0.220454798               0.000000000              -0.085136655               0.243750232               0.000000000              -0.094442414               0.267045665               0.000000000              -0.103748172               0.290341099               0.000000000              -0.113053931               0.313636532               0.000000000              -0.122359690               0.336931966               0.000000000              -0.131665448               0.360227399               0.000000000              -0.140971207               0.383522833               0.000000000              -0.150276966               0.406818266               0.000000000              -0.159582724               0.430113700               0.000000000              -0.168888483               0.453409133               0.000000000              -0.178194241               0.476704567               0.000000000              -0.187500000               0.500000000               0.000000000              -0.025947013               0.130444442               0.000000000              -0.032137825               0.153541665               0.000000000              -0.038328636               0.176638887               0.000000000              -0.044519448               0.199736109               0.000000000              -0.050710260               0.222833332               0.000000000              -0.056901071               0.245930554               0.000000000              -0.063091883               0.269027776               0.000000000              -0.069282695               0.292124999               0.000000000              -0.075473506               0.315222221               0.000000000              -0.081664318               0.338319444               0.000000000              -0.087855130               0.361416666               0.000000000              -0.094045942               0.384513888               0.000000000              -0.100236753               0.407611111               0.000000000              -0.106427565               0.430708333               0.000000000              -0.112618377               0.453805555               0.000000000              -0.118809188               0.476902778               0.000000000              -0.125000000               0.500000000               0.000000000              -0.013036280               0.132359569               0.000000000              -0.016127762               0.155337096               0.000000000              -0.019219245               0.178314623               0.000000000              -0.022310727               0.201292150               0.000000000              -0.025402210               0.224269676               0.000000000              -0.028493692               0.247247203               0.000000000              -0.031585175               0.270224730               0.000000000              -0.034676657               0.293202257               0.000000000              -0.037768140               0.316179784               0.000000000              -0.040859622               0.339157311               0.000000000              -0.043951105               0.362134838               0.000000000              -0.047042587               0.385112365               0.000000000              -0.050134070               0.408089892               0.000000000              -0.053225552               0.431067419               0.000000000              -0.056317035               0.454044946               0.000000000              -0.059408517               0.477022473               0.000000000              -0.062500000               0.500000000               0.000000000               0.000000000               0.133000000               0.000000000               0.000000000               0.155937500               0.000000000               0.000000000               0.178875000               0.000000000               0.000000000               0.201812500               0.000000000               0.000000000               0.224750000               0.000000000               0.000000000               0.247687500               0.000000000               0.000000000               0.270625000               0.000000000               0.000000000               0.293562500               0.000000000               0.000000000               0.316500000               0.000000000               0.000000000               0.339437500               0.000000000               0.000000000               0.362375000               0.000000000               0.000000000               0.385312500               0.000000000               0.000000000               0.408250000               0.000000000               0.000000000               0.431187500               0.000000000               0.000000000               0.454125000               0.000000000               0.000000000               0.477062500               0.000000000               0.000000000               0.500000000               0.000000000 </DataArray>
</Points>
<Cells>
<DataArray type="Int32"                                    Name="connectivity"                                                      NumberOfComponents=" 1" format="ascii">
         0          1         18         17          1          2         19         18          2          3         20         19          3          4         21         20          4          5         22         21          5          6         23         22          6          7         24         23          7          8         25         24          8          9         26         25          9         10         27         26         10         11         28         27         11         12         29         28         12         13         30         29         13         14         31         30         14         15         32         31         15         16         33         32         17         18         35         34         18         19         36         35         19         20         37         36         20         21         38         37         21         22         39         38         22         23         40         39         23         24         41         40         24         25         42         41         25         26         43         42         26         27         44         43         27         28         45         44         28         29         46         45         29         30         47         46         30         31         48         47         31         32         49         48         32         33         50         49         34         35         52         51         35         36         53         52         36         37         54         53         37         38         55         54         38         39         56         55         39         40         57         56         40         41         58         57         41         42         59         58         42         43         60         59         43         44         61         60         44         45         62         61         45         46         63         62         46         47         64         63         47         48         65         64         48         49         66         65         49         50         67         66         51         52         69         68         52         53         70         69         53         54         71         70         54         55         72         71         55         56         73         72         56         57         74         73         57         58         75         74         58         59         76         75         59         60         77         76         60         61         78         77         61         62         79         78         62         63         80         79         63         64         81         80         64         65         82         81         65         66         83         82         66         67         84         83         68         69         86         85         69         70         87         86         70         71         88         87         71         72         89         88         72         73         90         89         73         74         91         90         74         75         92         91         75         76         93         92         76         77         94         93         77         78         95         94         78         79         96         95         79         80         97         96         80         81         98         97         81         82         99         98         82         83        100         99         83         84        101        100         85         86        103        102         86         87        104        103         87         88        105        104         88         89        106        105         89         90        107        106         90         91        108        107         91         92        109        108         92         93        110        109         93         94        111        110         94         95        112        111         95         96        113        112         96         97        114        113         97         98        115        114         98         99        116        115         99        100        117        116        100        101        118        117        102        103        120        119        103        104        121        120        104        105        122        121        105        106        123        122        106        107        124        123        107        108        125        124        108        109        126        125        109        110        127        126        110        111        128        127        111        112        129        128        112        113        130        129        113        114        131        130        114        115        132        131        115        116        133        132        116        117        134        133        117        118        135        134        119        120        137        136        120        121        138        137        121        122        139        138        122        123        140        139        123        124        141        140        124        125        142        141        125        126        143        142        126        127        144        143        127        128        145        144        128        129        146        145        129        130        147        146        130        131        148        147        131        132        149        148        132        133        150        149        133        134        151        150        134        135        152        151        136        137        154        153        137        138        155        154        138        139        156        155        139        140        157        156        140        141        158        157        141        142        159        158        142        143        160        159        143        144        161        160        144        145        162        161        145        146        163        162        146        147        164        163        147        148        165        164        148        149        166        165        149        150        167        166        150        151        168        167        151        152        169        168        153        154        171        170        154        155        172        171        155        156        173        172        156        157        174        173        157        158        175        174        158        159        176        175        159        160        177        176        160        161        178        177        161        162        179        178        162        163        180        179        163        164        181        180        164        165        182        181        165        166        183        182        166        167        184        183        167        168        185        184        168        169        186        185        170        171        188        187        171        172        189        188        172        173        190        189        173        174        191        190        174        175        192        191        175        176        193        192        176        177        194        193        177        178        195        194        178        179        196        195        179        180        197        196        180        181        198        197        181        182        199        198        182        183        200        199        183        184        201        200        184        185        202        201        185        186        203        202        187        188        205        204        188        189        206        205        189        190        207        206        190        191        208        207        191        192        209        208        192        193        210        209        193        194        211        210        194        195        212        211        195        196        213        212        196        197        214        213        197        198        215        214        198        199        216        215        199        200        217        216        200        201        218        217        201        202        219        218        202        203        220        219        204        205        222        221        205        206        223        222        206        207        224        223        207        208        225        224        208        209        226        225        209        210        227        226        210        211        228        227        211        212        229        228        212        213        230        229        213        214        231        230        214        215        232        231        215        216        233        232        216        217        234        233        217        218        235        234        218        219        236        235        219        220        237        236        221        222        239        238        222        223        240        239        223        224        241        240        224        225        242        241        225        226        243        242        226        227        244        243        227        228        245        244        228        229        246        245        229        230        247        246        230        231        248        247        231        232        249        248        232        233        250        249        233        234        251        250        234        235        252        251        235        236        253        252        236        237        254        253        238        239        256        255        239        240        257        256        240        241        258        257        241        242        259        258        242        243        260        259        243        244        261        260        244        245        262        261        245        246        263        262        246        247        264        263        247        248        265        264        248        249        266        265        249        250        267        266        250        251        268        267        251        252        269        268        252        253        270        269        253        254        271        270        255        256        273        272        256        257        274        273        257        258        275        274        258        259        276        275        259        260        277        276        260        261        278        277        261        262        279        278        262        263        280        279        263        264        281        280        264        265        282        281        265        266        283        282        266        267        284        283        267        268        285        284        268        269        286        285        269        270        287        286        270        271        288        287        306        307          1          0        307        308          2          1        308        309          3          2        309        310          4          3        310        311          5          4        311        312          6          5        312        313          7          6        313        314          8          7        314        315          9          8        315        316         10          9        316        317         11         10        317        318         12         11        318        319         13         12        319        320         14         13        320        321         15         14        321        322         16         15        323        324        307        306        324        325        308        307        325        326        309        308        326        327        310        309        327        328        311        310        328        329        312        311        329        330        313        312        330        331        314        313        331        332        315        314        332        333        316        315        333        334        317        316        334        335        318        317        335        336        319        318        336        337        320        319        337        338        321        320        338        339        322        321        340        341        324        323        341        342        325        324        342        343        326        325        343        344        327        326        344        345        328        327        345        346        329        328        346        347        330        329        347        348        331        330        348        349        332        331        349        350        333        332        350        351        334        333        351        352        335        334        352        353        336        335        353        354        337        336        354        355        338        337        355        356        339        338        357        358        341        340        358        359        342        341        359        360        343        342        360        361        344        343        361        362        345        344        362        363        346        345        363        364        347        346        364        365        348        347        365        366        349        348        366        367        350        349        367        368        351        350        368        369        352        351        369        370        353        352        370        371        354        353        371        372        355        354        372        373        356        355        374        375        358        357        375        376        359        358        376        377        360        359        377        378        361        360        378        379        362        361        379        380        363        362        380        381        364        363        381        382        365        364        382        383        366        365        383        384        367        366        384        385        368        367        385        386        369        368        386        387        370        369        387        388        371        370        388        389        372        371        389        390        373        372        391        392        375        374        392        393        376        375        393        394        377        376        394        395        378        377        395        396        379        378        396        397        380        379        397        398        381        380        398        399        382        381        399        400        383        382        400        401        384        383        401        402        385        384        402        403        386        385        403        404        387        386        404        405        388        387        405        406        389        388        406        407        390        389        408        409        392        391        409        410        393        392        410        411        394        393        411        412        395        394        412        413        396        395        413        414        397        396        414        415        398        397        415        416        399        398        416        417        400        399        417        418        401        400        418        419        402        401        419        420        403        402        420        421        404        403        421        422        405        404        422        423        406        405        423        424        407        406        425        426        409        408        426        427        410        409        427        428        411        410        428        429        412        411        429        430        413        412        430        431        414        413        431        432        415        414        432        433        416        415        433        434        417        416        434        435        418        417        435        436        419        418        436        437        420        419        437        438        421        420        438        439        422        421        439        440        423        422        440        441        424        423        442        443        426        425        443        444        427        426        444        445        428        427        445        446        429        428        446        447        430        429        447        448        431        430        448        449        432        431        449        450        433        432        450        451        434        433        451        452        435        434        452        453        436        435        453        454        437        436        454        455        438        437        455        456        439        438        456        457        440        439        457        458        441        440        459        460        443        442        460        461        444        443        461        462        445        444        462        463        446        445        463        464        447        446        464        465        448        447        465        466        449        448        466        467        450        449        467        468        451        450        468        469        452        451        469        470        453        452        470        471        454        453        471        472        455        454        472        473        456        455        473        474        457        456        474        475        458        457        476        477        460        459        477        478        461        460        478        479        462        461        479        480        463        462        480        481        464        463        481        482        465        464        482        483        466        465        483        484        467        466        484        485        468        467        485        486        469        468        486        487        470        469        487        488        471        470        488        489        472        471        489        490        473        472        490        491        474        473        491        492        475        474        493        494        477        476        494        495        478        477        495        496        479        478        496        497        480        479        497        498        481        480        498        499        482        481        499        500        483        482        500        501        484        483        501        502        485        484        502        503        486        485        503        504        487        486        504        505        488        487        505        506        489        488        506        507        490        489        507        508        491        490        508        509        492        491        510        511        494        493        511        512        495        494        512        513        496        495        513        514        497        496        514        515        498        497        515        516        499        498        516        517        500        499        517        518        501        500        518        519        502        501        519        520        503        502        520        521        504        503        521        522        505        504        522        523        506        505        523        524        507        506        524        525        508        507        525        526        509        508        527        528        511        510        528        529        512        511        529        530        513        512        530        531        514        513        531        532        515        514        532        533        516        515        533        534        517        516        534        535        518        517        535        536        519        518        536        537        520        519        537        538        521        520        538        539        522        521        539        540        523        522        540        541        524        523        541        542        525        524        542        543        526        525        544        545        528        527        545        546        529        528        546        547        530        529        547        548        531        530        548        549        532        531        549        550        533        532        550        551        534        533        551        552        535        534        552        553        536        535        553        554        537        536        554        555        538        537        555        556        539        538        556        557        540        539        557        558        541        540        558        559        542        541        559        560        543        542        561        562        545        544        562        563        546        545        563        564        547        546        564        565        548        547        565        566        549        548        566        567        550        549        567        568        551        550        568        569        552        551        569        570        553        552        570        571        554        553        571        572        555        554        572        573        556        555        573        574        557        556        574        575        558        557        575        576        559        558        576        577        560        559        578        579        596        595        579        580        597        596        580        581        598        597        581        582        599        598        582        583        600        599        583        584        601        600        584        585        602        601        585        586        603        602        586        587        604        603        587        588        605        604        588        589        606        605        589        590        607        606        590        591        608        607        591        592        609        608        592        593        610        609        593        594        611        610        595        596        613        612        596        597        614        613        597        598        615        614        598        599        616        615        599        600        617        616        600        601        618        617        601        602        619        618        602        603        620        619        603        604        621        620        604        605        622        621        605        606        623        622        606        607        624        623        607        608        625        624        608        609        626        625        609        610        627        626        610        611        628        627        612        613        630        629        613        614        631        630        614        615        632        631        615        616        633        632        616        617        634        633        617        618        635        634        618        619        636        635        619        620        637        636        620        621        638        637        621        622        639        638        622        623        640        639        623        624        641        640        624        625        642        641        625        626        643        642        626        627        644        643        627        628        645        644        629        630        647        646        630        631        648        647        631        632        649        648        632        633        650        649        633        634        651        650        634        635        652        651        635        636        653        652        636        637        654        653        637        638        655        654        638        639        656        655        639        640        657        656        640        641        658        657        641        642        659        658        642        643        660        659        643        644        661        660        644        645        662        661        646        647        664        663        647        648        665        664        648        649        666        665        649        650        667        666        650        651        668        667        651        652        669        668        652        653        670        669        653        654        671        670        654        655        672        671        655        656        673        672        656        657        674        673        657        658        675        674        658        659        676        675        659        660        677        676        660        661        678        677        661        662        679        678        663        664        681        680        664        665        682        681        665        666        683        682        666        667        684        683        667        668        685        684        668        669        686        685        669        670        687        686        670        671        688        687        671        672        689        688        672        673        690        689        673        674        691        690        674        675        692        691        675        676        693        692        676        677        694        693        677        678        695        694        678        679        696        695        680        681        698        697        681        682        699        698        682        683        700        699        683        684        701        700        684        685        702        701        685        686        703        702        686        687        704        703        687        688        705        704        688        689        706        705        689        690        707        706        690        691        708        707        691        692        709        708        692        693        710        709        693        694        711        710        694        695        712        711        695        696        713        712        697        698        715        714        698        699        716        715        699        700        717        716        700        701        718        717        701        702        719        718        702        703        720        719        703        704        721        720        704        705        722        721        705        706        723        722        706        707        724        723        707        708        725        724        708        709        726        725        709        710        727        726        710        711        728        727        711        712        729        728        712        713        730        729        714        715        732        731        715        716        733        732        716        717        734        733        717        718        735        734        718        719        736        735        719        720        737        736        720        721        738        737        721        722        739        738        722        723        740        739        723        724        741        740        724        725        742        741        725        726        743        742        726        727        744        743        727        728        745        744        728        729        746        745        729        730        747        746        731        732        749        748        732        733        750        749        733        734        751        750        734        735        752        751        735        736        753        752        736        737        754        753        737        738        755        754        738        739        756        755        739        740        757        756        740        741        758        757        741        742        759        758        742        743        760        759        743        744        761        760        744        745        762        761        745        746        763        762        746        747        764        763        748        749        766        765        749        750        767        766        750        751        768        767        751        752        769        768        752        753        770        769        753        754        771        770        754        755        772        771        755        756        773        772        756        757        774        773        757        758        775        774        758        759        776        775        759        760        777        776        760        761        778        777        761        762        779        778        762        763        780        779        763        764        781        780        765        766        783        782        766        767        784        783        767        768        785        784        768        769        786        785        769        770        787        786        770        771        788        787        771        772        789        788        772        773        790        789        773        774        791        790        774        775        792        791        775        776        793        792        776        777        794        793        777        778        795        794        778        779        796        795        779        780        797        796        780        781        798        797        782        783        800        799        783        784        801        800        784        785        802        801        785        786        803        802        786        787        804        803        787        788        805        804        788        789        806        805        789        790        807        806        790        791        808        807        791        792        809        808        792        793        810        809        793        794        811        810        794        795        812        811        795        796        813        812        796        797        814        813        797        798        815        814        799        800        817        816        800        801        818        817        801        802        819        818        802        803        820        819        803        804        821        820        804        805        822        821        805        806        823        822        806        807        824        823        807        808        825        824        808        809        826        825        809        810        827        826        810        811        828        827        811        812        829        828        812        813        830        829        813        814        831        830        814        815        832        831        816        817        834        833        817        818        835        834        818        819        836        835        819        820        837        836        820        821        838        837        821        822        839        838        822        823        840        839        823        824        841        840        824        825        842        841        825        826        843        842        826        827        844        843        827        828        845        844        828        829        846        845        829        830        847        846        830        831        848        847        831        832        849        848        833        834        562        561        834        835        563        562        835        836        564        563        836        837        565        564        837        838        566        565        838        839        567        566        839        840        568        567        840        841        569        568        841        842        570        569        842        843        571        570        843        844        572        571        844        845        573        572        845        846        574        573        846        847        575        574        847        848        576        575        848        849        577        576        884        885        579        578        885        886        580        579        886        887        581        580        887        888        582        581        888        889        583        582        889        890        584        583        890        891        585        584        891        892        586        585        892        893        587        586        893        894        588        587        894        895        589        588        895        896        590        589        896        897        591        590        897        898        592        591        898        899        593        592        899        900        594        593        901        902        885        884        902        903        886        885        903        904        887        886        904        905        888        887        905        906        889        888        906        907        890        889        907        908        891        890        908        909        892        891        909        910        893        892        910        911        894        893        911        912        895        894        912        913        896        895        913        914        897        896        914        915        898        897        915        916        899        898        916        917        900        899        918        919        902        901        919        920        903        902        920        921        904        903        921        922        905        904        922        923        906        905        923        924        907        906        924        925        908        907        925        926        909        908        926        927        910        909        927        928        911        910        928        929        912        911        929        930        913        912        930        931        914        913        931        932        915        914        932        933        916        915        933        934        917        916        935        936        919        918        936        937        920        919        937        938        921        920        938        939        922        921        939        940        923        922        940        941        924        923        941        942        925        924        942        943        926        925        943        944        927        926        944        945        928        927        945        946        929        928        946        947        930        929        947        948        931        930        948        949        932        931        949        950        933        932        950        951        934        933        952        953        936        935        953        954        937        936        954        955        938        937        955        956        939        938        956        957        940        939        957        958        941        940        958        959        942        941        959        960        943        942        960        961        944        943        961        962        945        944        962        963        946        945        963        964        947        946        964        965        948        947        965        966        949        948        966        967        950        949        967        968        951        950        969        970        953        952        970        971        954        953        971        972        955        954        972        973        956        955        973        974        957        956        974        975        958        957        975        976        959        958        976        977        960        959        977        978        961        960        978        979        962        961        979        980        963        962        980        981        964        963        981        982        965        964        982        983        966        965        983        984        967        966        984        985        968        967        986        987        970        969        987        988        971        970        988        989        972        971        989        990        973        972        990        991        974        973        991        992        975        974        992        993        976        975        993        994        977        976        994        995        978        977        995        996        979        978        996        997        980        979        997        998        981        980        998        999        982        981        999       1000        983        982       1000       1001        984        983       1001       1002        985        984       1003       1004        987        986       1004       1005        988        987       1005       1006        989        988       1006       1007        990        989       1007       1008        991        990       1008       1009        992        991       1009       1010        993        992       1010       1011        994        993       1011       1012        995        994       1012       1013        996        995       1013       1014        997        996       1014       1015        998        997       1015       1016        999        998       1016       1017       1000        999       1017       1018       1001       1000       1018       1019       1002       1001       1020       1021       1004       1003       1021       1022       1005       1004       1022       1023       1006       1005       1023       1024       1007       1006       1024       1025       1008       1007       1025       1026       1009       1008       1026       1027       1010       1009       1027       1028       1011       1010       1028       1029       1012       1011       1029       1030       1013       1012       1030       1031       1014       1013       1031       1032       1015       1014       1032       1033       1016       1015       1033       1034       1017       1016       1034       1035       1018       1017       1035       1036       1019       1018       1037       1038       1021       1020       1038       1039       1022       1021       1039       1040       1023       1022       1040       1041       1024       1023       1041       1042       1025       1024       1042       1043       1026       1025       1043       1044       1027       1026       1044       1045       1028       1027       1045       1046       1029       1028       1046       1047       1030       1029       1047       1048       1031       1030       1048       1049       1032       1031       1049       1050       1033       1032       1050       1051       1034       1033       1051       1052       1035       1034       1052       1053       1036       1035       1054       1055       1038       1037       1055       1056       1039       1038       1056       1057       1040       1039       1057       1058       1041       1040       1058       1059       1042       1041       1059       1060       1043       1042       1060       1061       1044       1043       1061       1062       1045       1044       1062       1063       1046       1045       1063       1064       1047       1046       1064       1065       1048       1047       1065       1066       1049       1048       1066       1067       1050       1049       1067       1068       1051       1050       1068       1069       1052       1051       1069       1070       1053       1052       1071       1072       1055       1054       1072       1073       1056       1055       1073       1074       1057       1056       1074       1075       1058       1057       1075       1076       1059       1058       1076       1077       1060       1059       1077       1078       1061       1060       1078       1079       1062       1061       1079       1080       1063       1062       1080       1081       1064       1063       1081       1082       1065       1064       1082       1083       1066       1065       1083       1084       1067       1066       1084       1085       1068       1067       1085       1086       1069       1068       1086       1087       1070       1069       1088       1089       1072       1071       1089       1090       1073       1072       1090       1091       1074       1073       1091       1092       1075       1074       1092       1093       1076       1075       1093       1094       1077       1076       1094       1095       1078       1077       1095       1096       1079       1078       1096       1097       1080       1079       1097       1098       1081       1080       1098       1099       1082       1081       1099       1100       1083       1082       1100       1101       1084       1083       1101       1102       1085       1084       1102       1103       1086       1085       1103       1104       1087       1086       1105       1106       1089       1088       1106       1107       1090       1089       1107       1108       1091       1090       1108       1109       1092       1091       1109       1110       1093       1092       1110       1111       1094       1093       1111       1112       1095       1094       1112       1113       1096       1095       1113       1114       1097       1096       1114       1115       1098       1097       1115       1116       1099       1098       1116       1117       1100       1099       1117       1118       1101       1100       1118       1119       1102       1101       1119       1120       1103       1102       1120       1121       1104       1103       1122       1123       1106       1105       1123       1124       1107       1106       1124       1125       1108       1107       1125       1126       1109       1108       1126       1127       1110       1109       1127       1128       1111       1110       1128       1129       1112       1111       1129       1130       1113       1112       1130       1131       1114       1113       1131       1132       1115       1114       1132       1133       1116       1115       1133       1134       1117       1116       1134       1135       1118       1117       1135       1136       1119       1118       1136       1137       1120       1119       1137       1138       1121       1120        272        273       1123       1122        273        274       1124       1123        274        275       1125       1124        275        276       1126       1125        276        277       1127       1126        277        278       1128       1127        278        279       1129       1128        279        280       1130       1129        280        281       1131       1130        281        282       1132       1131        282        283       1133       1132        283        284       1134       1133        284        285       1135       1134        285        286       1136       1135        286        287       1137       1136        287        288       1138       1137 </DataArray>
<DataArray type="Int32"                                    Name="offsets"                                                      NumberOfComponents=" 1" format="ascii">
         4          8         12         16         20         24         28         32         36         40         44         48         52         56         60         64         68         72         76         80         84         88         92         96        100        104        108        112        116        120        124        128        132        136        140        144        148        152        156        160        164        168        172        176        180        184        188        192        196        200        204        208        212        216        220        224        228        232        236        240        244        248        252        256        260        264        268        272        276        280        284        288        292        296        300        304        308        312        316        320        324        328        332        336        340        344        348        352        356        360        364        368        372        376        380        384        388        392        396        400        404        408        412        416        420        424        428        432        436        440        444        448        452        456        460        464        468        472        476        480        484        488        492        496        500        504        508        512        516        520        524        528        532        536        540        544        548        552        556        560        564        568        572        576        580        584        588        592        596        600        604        608        612        616        620        624        628        632        636        640        644        648        652        656        660        664        668        672        676        680        684        688        692        696        700        704        708        712        716        720        724        728        732        736        740        744        748        752        756        760        764        768        772        776        780        784        788        792        796        800        804        808        812        816        820        824        828        832        836        840        844        848        852        856        860        864        868        872        876        880        884        888        892        896        900        904        908        912        916        920        924        928        932        936        940        944        948        952        956        960        964        968        972        976        980        984        988        992        996       1000       1004       1008       1012       1016       1020       1024       1028       1032       1036       1040       1044       1048       1052       1056       1060       1064       1068       1072       1076       1080       1084       1088       1092       1096       1100       1104       1108       1112       1116       1120       1124       1128       1132       1136       1140       1144       1148       1152       1156       1160       1164       1168       1172       1176       1180       1184       1188       1192       1196       1200       1204       1208       1212       1216       1220       1224       1228       1232       1236       1240       1244       1248       1252       1256       1260       1264       1268       1272       1276       1280       1284       1288       1292       1296       1300       1304       1308       1312       1316       1320       1324       1328       1332       1336       1340       1344       1348       1352       1356       1360       1364       1368       1372       1376       1380       1384       1388       1392       1396       1400       1404       1408       1412       1416       1420       1424       1428       1432       1436       1440       1444       1448       1452       1456       1460       1464       1468       1472       1476       1480       1484       1488       1492       1496       1500       1504       1508       1512       1516       1520       1524       1528       1532       1536       1540       1544       1548       1552       1556       1560       1564       1568       1572       1576       1580       1584       1588       1592       1596       1600       1604       1608       1612       1616       1620       1624       1628       1632       1636       1640       1644       1648       1652       1656       1660       1664       1668       1672       1676       1680       1684       1688       1692       1696       1700       1704       1708       1712       1716       1720       1724       1728       1732       1736       1740       1744       1748       1752       1756       1760       1764       1768       1772       1776       1780       1784       1788       1792       1796       1800       1804       1808       1812       1816       1820       1824       1828       1832       1836       1840       1844       1848       1852       1856       1860       1864       1868       1872       1876       1880       1884       1888       1892       1896       1900       1904       1908       1912       1916       1920       1924       1928       1932       1936       1940       1944       1948       1952       1956       1960       1964       1968       1972       1976       1980       1984       1988       1992       1996       2000       2004       2008       2012       2016       2020       2024       2028       2032       2036       2040       2044       2048       2052       2056       2060       2064       2068       2072       2076       2080       2084       2088       2092       2096       2100       2104       2108       2112       2116       2120       2124       2128       2132       2136       2140       2144       2148       2152       2156       2160       2164       2168       2172       2176       2180       2184       2188       2192       2196       2200       2204       2208       2212       2216       2220       2224       2228       2232       2236       2240       2244       2248       2252       2256       2260       2264       2268       2272       2276       2280       2284       2288       2292       2296       2300       2304       2308       2312       2316       2320       2324       2328       2332       2336       2340       2344       2348       2352       2356       2360       2364       2368       2372       2376       2380       2384       2388       2392       2396       2400       2404       2408       2412       2416       2420       2424       2428       2432       2436       2440       2444       2448       2452       2456       2460       2464       2468       2472       2476       2480       2484       2488       2492       2496       2500       2504       2508       2512       2516       2520       2524       2528       2532       2536       2540       2544       2548       2552       2556       2560       2564       2568       2572       2576       2580       2584       2588       2592       2596       2600       2604       2608       2612       2616       2620       2624       2628       2632       2636       2640       2644       2648       2652       2656       2660       2664       2668       2672       2676       2680       2684       2688       2692       2696       2700       2704       2708       2712       2716       2720       2724       2728       2732       2736       2740       2744       2748       2752       2756       2760       2764       2768       2772       2776       2780       2784       2788       2792       2796       2800       2804       2808       2812       2816       2820       2824       2828       2832       2836       2840       2844       2848       2852       2856       2860       2864       2868       2872       2876       2880       2884       2888       2892       2896       2900       2904       2908       2912       2916       2920       2924       2928       2932       2936       2940       2944       2948       2952       2956       2960       2964       2968       2972       2976       2980       2984       2988       2992       2996       3000       3004       3008       3012       3016       3020       3024       3028       3032       3036       3040       3044       3048       3052       3056       3060       3064       3068       3072       3076       3080       3084       3088       3092       3096       3100       3104       3108       3112       3116       3120       3124       3128       3132       3136       3140       3144       3148       3152       3156       3160       3164       3168       3172       3176       3180       3184       3188       3192       3196       3200       3204       3208       3212       3216       3220       3224       3228       3232       3236       3240       3244       3248       3252       3256       3260       3264       3268       3272       3276       3280       3284       3288       3292       3296       3300       3304       3308       3312       3316       3320       3324       3328       3332       3336       3340       3344       3348       3352       3356       3360       3364       3368       3372       3376       3380       3384       3388       3392       3396       3400       3404       3408       3412       3416       3420       3424       3428       3432       3436       3440       3444       3448       3452       3456       3460       3464       3468       3472       3476       3480       3484       3488       3492       3496       3500       3504       3508       3512       3516       3520       3524       3528       3532       3536       3540       3544       3548       3552       3556       3560       3564       3568       3572       3576       3580       3584       3588       3592       3596       3600       3604       3608       3612       3616       3620       3624       3628       3632       3636       3640       3644       3648       3652       3656       3660       3664       3668       3672       3676       3680       3684       3688       3692       3696       3700       3704       3708       3712       3716       3720       3724       3728       3732       3736       3740       3744       3748       3752       3756       3760       3764       3768       3772       3776       3780       3784       3788       3792       3796       3800       3804       3808       3812       3816       3820       3824       3828       3832       3836       3840       3844       3848       3852       3856       3860       3864       3868       3872       3876       3880       3884       3888       3892       3896       3900       3904       3908       3912       3916       3920       3924       3928       3932       3936       3940       3944       3948       3952       3956       3960       3964       3968       3972       3976       3980       3984       3988       3992       3996       4000       4004       4008       4012       4016       4020       4024       4028       4032       4036       4040       4044       4048       4052       4056       4060       4064       4068       4072       4076       4080       4084       4088       4092       4096 </DataArray>
<DataArray type="UInt8"                                    Name="types"                                                      NumberOfComponents=" 1" format="ascii">
         9          9          9          9          9          9          9          9          9          9          9          9          9          9          9          9          9          9          9          9          9          9          9          9          9          9          9          9          9          9          9          9          9          9          9          9          9          9          9          9          9          9          9          9          9          9          9          9          9          9          9          9          9          9          9          9          9          9          9          9          9          9          9          9          9          9          9          9          9          9          9          9          9          9          9          9          9          9          9          9          9          9          9          9          9          9          9          9          9          9          9          9          9          9          9          9          9          9          9          9          9          9          9          9          9          9          9          9          9          9          9          9          9          9          9          9          9          9          9          9          9          9          9          9          9          9          9          9          9          9          9          9          9          9          9          9          9          9          9          9          9          9          9          9          9          9          9          9          9          9          9          9          9          9          9          9          9          9          9          9          9          9          9          9          9          9          9          9          9          9          9          9          9          9          9          9          9          9          9          9          9          9          9          9          9          9          9          9          9          9          9          9          9          9          9          9          9          9          9          9          9          9          9          9          9          9          9          9          9          9          9          9          9          9          9          9          9          9          9          9          9          9          9          9          9          9          9          9          9          9          9          9          9          9          9          9          9          9          9          9          9          9          9          9          9          9          9          9          9          9          9          9          9          9          9          9          9          9          9          9          9          9          9          9          9          9          9          9          9          9          9          9          9          9          9          9          9          9          9          9          9          9          9          9          9          9          9          9          9          9          9          9          9          9          9          9          9          9          9          9          9          9          9          9          9          9          9          9          9          9          9          9          9          9          9          9          9          9          9          9          9          9          9          9          9          9          9          9          9          9          9          9          9          9          9          9          9          9          9          9          9          9          9          9          9          9          9          9          9          9          9          9          9          9          9          9          9          9          9          9          9          9          9          9          9          9          9          9          9          9          9          9          9          9          9          9          9          9          9          9          9          9          9          9          9          9          9          9          9          9          9          9          9          9          9          9          9          9          9          9          9          9          9          9          9          9          9          9          9          9          9          9          9          9          9          9          9          9          9          9          9          9          9          9          9          9          9          9          9          9          9          9          9          9          9          9          9          9          9          9          9          9          9          9          9          9          9          9          9          9          9          9          9          9          9          9          9          9          9          9          9          9          9          9          9          9          9          9          9          9          9          9          9          9          9          9          9          9          9          9          9          9          9          9          9          9          9          9          9          9          9          9          9          9          9          9          9          9          9          9          9          9          9          9          9          9          9          9          9          9          9          9          9          9          9          9          9          9          9          9          9          9          9          9          9          9          9          9          9          9          9          9          9          9          9          9          9          9          9          9          9          9          9          9          9          9          9          9          9          9          9          9          9          9          9          9          9          9          9          9          9          9          9          9          9          9          9          9          9          9          9          9          9          9          9          9          9          9          9          9          9          9          9          9          9          9          9          9          9          9          9          9          9          9          9          9          9          9          9          9          9          9          9          9          9          9          9          9          9          9          9          9          9          9          9          9          9          9          9          9          9          9          9          9          9          9          9          9          9          9          9          9          9          9          9          9          9          9          9          9          9          9          9          9          9          9          9          9          9          9          9          9          9          9          9          9          9          9          9          9          9          9          9          9          9          9          9          9          9          9          9          9          9          9          9          9          9          9          9          9          9          9          9          9          9          9          9          9          9          9          9          9          9          9          9          9          9          9          9          9          9          9          9          9          9          9          9          9          9          9          9          9          9          9          9          9          9          9          9          9          9          9          9          9          9          9          9          9          9          9          9          9          9          9          9          9          9          9          9          9          9          9          9          9          9          9          9          9          9          9          9          9          9          9          9          9          9          9          9          9          9          9          9          9          9          9          9          9          9          9          9          9          9          9          9          9          9          9          9          9          9          9          9          9          9          9          9          9          9          9          9          9          9          9          9          9          9          9          9          9          9          9          9          9          9          9          9          9          9          9          9          9          9          9          9          9          9          9          9          9          9          9          9          9          9          9          9          9          9          9          9          9          9          9          9          9          9          9          9          9          9          9          9          9          9          9          9          9          9          9          9          9          9          9          9          9          9          9          9          9          9          9          9          9          9          9          9          9          9          9          9          9          9          9          9          9          9          9          9          9          9          9          9          9          9          9          9          9          9          9          9          9          9          9          9          9          9          9          9          9          9          9          9          9          9          9          9          9          9          9          9          9          9          9          9          9          9          9          9          9          9          9          9          9          9          9          9          9          9          9          9          9          9          9          9          9          9          9          9          9          9          9          9          9          9          9          9          9          9          9          9          9          9          9          9          9          9          9          9          9          9          9          9          9          9          9          9          9          9          9          9          9          9          9          9          9          9          9          9          9          9          9          9          9          9          9          9          9          9          9          9          9          9          9          9          9          9          9          9          9          9          9          9          9          9          9          9          9          9          9          9          9          9          9          9          9          9          9          9          9          9          9          9          9 </DataArray>
</Cells>
<CellData>
<DataArray type="Int32"                                    Name="material"                                                      NumberOfComponents=" 1" format="ascii">
         1          1          1          1          1          1          1          1          1          1          1          1          1          1          1          1          1          1          1          1          1          1          1          1          1          1          1          1          1          1          1          1          1          1          1          1          1          1          1          1          1          1          1          1          1          1          1          1          1          1          1          1          1          1          1          1          1          1          1          1          1          1          1          1          1          1          1          1          1          1          1          1          1          1          1          1          1          1          1          1          1          1          1          1          1          1          1          1          1          1          1          1          1          1          1          1          1          1          1          1          1          1          1          1          1          1          1          1          1          1          1          1          1          1          1          1          1          1          1          1          1          1          1          1          1          1          1          1          1          1          1          1          1          1          1          1          1          1          1          1          1          1          1          1          1          1          1          1          1          1          1          1          1          1          1          1          1          1          1          1          1          1          1          1          1          1          1          1          1          1          1          1          1          1          1          1          1          1          1          1          1          1          1          1          1          1          1          1          1          1          1          1          1          1          1          1          1          1          1          1          1          1          1          1          1          1          1          1          1          1          1          1          1          1          1          1          1          1          1          1          1          1          1          1          1          1          1          1          1          1          1          1          1          1          1          1          1          1          1          1          1          1          1          1          1          1          1          1          1          1          1          1          1          1          1          1          1          1          1          1          1          1          1          1          1          1          1          1          1          1          1          1          1          1          1          1          1          1          1          1          1          1          1          1          1          1          1          1          1          1          1          1          1          1          1          1          1          1          1          1          1          1          1          1          1          1          1          1          1          1          1          1          1          1          1          1          1          1          1          1          1          1          1          1          1          1          1          1          1          1          1          1          1          1          1          1          1          1          1          1          1          1          1          1          1          1          1          1          1          1          1          1          1          1          1          1          1          1          1          1          1          1          1          1          1          1          1          1          1          1          1          1          1          1          1          1          1          1          1          1          1          1          1          1          1          1          1          1          1          1          1          1          1          1          1          1          1          1          1          1          1          1          1          1          1          1          1          1          1          1          1          1          1          1          1          1          1          1          1          1          1          1          1          1          1          1          1          1          1          1          1          1          1          1          1          1          1          1          1          1          1          1          1          1          1          1          1          1          1          1          1          1          1          1          1          1          1          1          1          1          1          1          1          1          1          1          1          1          1          1          1          1          1          1          1          1          1          1          1          1          1          1          1          1          1          1          1          1          1          1          1          1          1          1          1          1          1          1          1          1          1          1          1          1          1          1          1          1          1          1          1          1          1          1          1          1          1          1          1          1          1          1          1          1          1          1          1          1          1          1          1          1          1          1          1          1          1          1          1          1          1          1          1          1          1          1          1          1          1          1          1          1          1          1          1          1          1          1          1          1          1          1          1          1          1          1          1          1          1          1          1          1          1          1          1          1          1          1          1          1          1          1          1          1          1          1          1          1          1          1          1          1          1          1          1          1          1          1          1          1          1          1          1          1          1          1          1          1          1          1          1          1          1          1          1          1          1          1          1          1          1          1          1          1          1          1          1          1          1          1          1          1          1          1          1          1          1          1          1          1          1          1          1          1          1          1          1          1          1          1          1          1          1          1          1          1          1          1          1          1          1          1          1          1          1          1          1          1          1          1          1          1          1          1          1          1          1          1          1          1          1          1          1          1          1          1          1          1          1          1          1          1          1          1          1          1          1          1          1          1          1          1          1          1          1          1          1          1          1          1          1          1          1          1          1          1          1          1          1          1          1          1          1          1          1          1          1          1          1          1          1          1          1          1          1          1          1          1          1          1          1          1          1          1          1          1          1          1          1          1          1          1          1          1          1          1          1          1          1          1          1          1          1          1          1          1          1          1          1          1          1          1          1          1          1          1          1          1          1          1          1          1          1          1          1          1          1          1          1          1          1          1          1          1          1          1          1          1          1          1          1          1          1          1          1          1          1          1          1          1          1          1          1          1          1          1          1          1          1          1          1          1          1          1          1          1          1          1          1          1          1          1          1          1          1          1          1          1          1          1          1          1          1          1          1          1          1          1          1          1          1          1          1          1          1          1          1          1          1          1          1          1          1          1          1          1          1          1          1          1          1          1          1          1          1          1          1          1          1          1          1          1          1          1          1          1          1          1          1          1          1          1          1          1          1          1          1          1          1          1          1          1          1          1          1          1          1          1          1          1          1          1          1          1          1          1          1          1          1          1          1          1          1          1          1          1          1          1          1          1          1          1          1          1          1          1          1          1          1          1          1          1          1          1          1          1          1          1          1          1          1          1          1          1          1          1          1          1          1          1          1          1          1          1          1          1          1          1          1          1          1          1          1          1          1          1          1          1          1          1          1          1          1          1          1          1          1          1          1          1          1          1          1          1          1          1          1          1          1          1          1          1          1          1          1          1          1          1          1          1          1          1          1          1          1          1          1          1          1          1          1          1          1          1 </DataArray>
</CellData>
<PointData>
<DataArray type="Float64"                                    Name="u"                                                      NumberOfComponents=" 3" format="ascii">
              0.000009062              -0.000000000               0.999999999               0.000001881               0.000000000               0.999999999              -0.000001423              -0.000000000               0.999999999              -0.000003058              -0.000000000               0.999999999              -0.000004047               0.000000000               0.999999999              -0.000004887               0.000000000               0.999999999              -0.000005883               0.000000000               0.999999999              -0.000007216              -0.000000000               0.999999999              -0.000008950              -0.000000000               0.999999999              -0.000011112               0.000000000               0.999999999              -0.000013756               0.000000000               0.999999999              -0.000016905               0.000000000               0.999999999              -0.000020542               0.000000000               0.999999999              -0.000024776              -0.000000000               0.999999999              -0.000029519              -0.000000000               0.999999999              -0.000034631              -0.000000000               0.999999999              -0.000040168              -0.000000000               0.999999999               0.000008990               0.000017954               0.999999999               0.000002017               0.000016190               0.999999999              -0.000001173               0.000015739               0.999999999              -0.000002761               0.000016066               0.999999999              -0.000003788               0.000016947               0.999999999              -0.000004748               0.000018232               0.999999999              -0.000005872               0.000019825               0.999999999              -0.000007360               0.000021695               0.999999999              -0.000009244               0.000023778               0.999999999              -0.000011577               0.000026065               0.999999999              -0.000014410               0.000028581               0.999999999              -0.000017750               0.000031398               0.999999999              -0.000021660               0.000034335               0.999999999              -0.000026068               0.000037400               0.999999999              -0.000030894               0.000040465               0.999999999              -0.000036150               0.000043720               0.999999999              -0.000041842               0.000047242               0.999999999               0.000008752               0.000035765               0.999999999               0.000002461               0.000032205               0.999999999              -0.000000375               0.000031370               0.999999999              -0.000001939               0.000032132               0.999999999              -0.000003137               0.000033945               0.999999999              -0.000004382               0.000036569               0.999999999              -0.000005922               0.000039797               0.999999999              -0.000007863               0.000043536               0.999999999              -0.000010219               0.000047657               0.999999999              -0.000013058               0.000052255               0.999999999              -0.000016435               0.000057285               0.999999999              -0.000020354               0.000062810               0.999999999              -0.000024782               0.000068661               0.999999999              -0.000029682               0.000074615               0.999999999              -0.000035021               0.000080602               0.999999999              -0.000040749               0.000086973               0.999999999              -0.000046860               0.000093860               0.999999999               0.000008374               0.000053251               0.999999999               0.000003230               0.000047878               0.999999999               0.000000866               0.000046815               0.999999999              -0.000000711               0.000048150               0.999999999              -0.000002229               0.000051029               0.999999999              -0.000004026               0.000055048               0.999999999              -0.000006211               0.000059935               0.999999999              -0.000008852               0.000065508               0.999999999              -0.000011972               0.000071746               0.999999999              -0.000015601               0.000078601               0.999999999              -0.000019797               0.000086164               0.999999999              -0.000024526               0.000094376               0.999999999              -0.000029742               0.000102918               0.999999999              -0.000035378               0.000111584               0.999999999              -0.000041357               0.000120330               0.999999999              -0.000047703               0.000129631               0.999999999              -0.000054377               0.000139393               0.999999999               0.000007917               0.000070222               0.999999999               0.000004301               0.000063101               0.999999999               0.000002421               0.000062023               0.999999999               0.000000711               0.000064088               0.999999999              -0.000001325               0.000068198               0.999999999              -0.000003823               0.000073680               0.999999999              -0.000006850               0.000080276               0.999999999              -0.000010436               0.000087754               0.999999999              -0.000014507               0.000096048               0.999999999              -0.000019135               0.000105205               0.999999999              -0.000024312               0.000115250               0.999999999              -0.000029964               0.000125982               0.999999999              -0.000036034               0.000137026               0.999999999              -0.000042401               0.000148176               0.999999999              -0.000049078               0.000159535               0.999999999              -0.000056101               0.000171416               0.999999999              -0.000063414               0.000183654               0.999999999               0.000007407               0.000086509               0.999999999               0.000005589               0.000077778               0.999999999               0.000004095               0.000076892               0.999999999               0.000002101               0.000079901               0.999999999              -0.000000610               0.000085346               0.999999999              -0.000003979               0.000092402               0.999999999              -0.000007964               0.000100757               0.999999999              -0.000012501               0.000110112               0.999999999              -0.000017620               0.000120580               0.999999999              -0.000023295               0.000132067               0.999999999              -0.000029460               0.000144632               0.999999999              -0.000036044               0.000157736               0.999999999              -0.000042835               0.000171137               0.999999999              -0.000049903               0.000184666               0.999999999              -0.000057302               0.000198680               0.999999999              -0.000065070               0.000213268               0.999999999              -0.000073215               0.000228219               0.999999999               0.000006840               0.000101933               0.999999999               0.000006982               0.000091838               0.999999999               0.000005702               0.000091348               0.999999999               0.000003218               0.000095446               0.999999999              -0.000000275               0.000102277               0.999999999              -0.000004549               0.000111001               0.999999999              -0.000009443               0.000121196               0.999999999              -0.000014991               0.000132666               0.999999999              -0.000021138               0.000145402               0.999999999              -0.000027774               0.000159355               0.999999999              -0.000034916               0.000174287               0.999999999              -0.000042309               0.000189666               0.999999999              -0.000049869               0.000205330               0.999999999              -0.000057732               0.000221456               0.999999999              -0.000066001               0.000238356               0.999999999              -0.000074675               0.000255934               0.999999999              -0.000083784               0.000273971               0.999999999               0.000006232               0.000116305               0.999999999               0.000008330               0.000105236               0.999999999               0.000007059               0.000105290               0.999999999               0.000003927               0.000110507               0.999999999              -0.000000384               0.000118809               0.999999999              -0.000005538               0.000129347               0.999999999              -0.000011330               0.000141532               0.999999999              -0.000017745               0.000155243               0.999999999              -0.000024751               0.000170359               0.999999999              -0.000032367               0.000186859               0.999999999              -0.000040318               0.000204222               0.999999999              -0.000048441               0.000222043               0.999999999              -0.000056789               0.000240383               0.999999999              -0.000065523               0.000259624               0.999999999              -0.000074732               0.000279835               0.999999999              -0.000084366               0.000300807               0.999999999              -0.000094423               0.000322310               0.999999999               0.000005492               0.000129356               0.999999999               0.000009547               0.000117934               0.999999999               0.000008020               0.000118555               0.999999999               0.000004157               0.000124920               0.999999999              -0.000000974               0.000134817               0.999999999              -0.000006882               0.000147218               0.999999999              -0.000013430               0.000161548               0.999999999              -0.000020613               0.000177684               0.999999999              -0.000028488               0.000195454               0.999999999              -0.000036941               0.000214540               0.999999999              -0.000045527               0.000234555               0.999999999              -0.000054204               0.000255332               0.999999999              -0.000063246               0.000277089               0.999999999              -0.000072768               0.000300057               0.999999999              -0.000082703               0.000324277               0.999999999              -0.000092968               0.000349451               0.999999999              -0.000103551               0.000375244               0.999999999               0.000004506               0.000141548               0.999999999               0.000010160               0.000130964               0.999999999               0.000009407               0.000130398               0.999999999               0.000006090               0.000135404               0.999999999               0.000001502               0.000143856               0.999999999              -0.000003726               0.000154755               0.999999999              -0.000009438               0.000167601               0.999999999              -0.000015619               0.000182138               0.999999999              -0.000022402               0.000198208               0.999999999              -0.000029781               0.000215647               0.999999999              -0.000037358               0.000234236               0.999999999              -0.000044964               0.000253599               0.999999999              -0.000052622               0.000273944               0.999999999              -0.000060360               0.000295284               0.999999999              -0.000068481               0.000317988               0.999999999              -0.000077146               0.000341852               0.999999999              -0.000086254               0.000366811               0.999999999               0.000003620               0.000152580               0.999999999               0.000010171               0.000143337               0.999999999               0.000010199               0.000142236               0.999999999               0.000007572               0.000146145               0.999999999               0.000003603               0.000153297               0.999999999              -0.000000952               0.000162832               0.999999999              -0.000005824               0.000174289               0.999999999              -0.000011080               0.000187391               0.999999999              -0.000016812               0.000201924               0.999999999              -0.000023075               0.000217795               0.999999999              -0.000029564               0.000234829               0.999999999              -0.000036063               0.000252856               0.999999999              -0.000042416               0.000271810               0.999999999              -0.000048804               0.000291720               0.999999999              -0.000055444               0.000312721               0.999999999              -0.000062555               0.000334977               0.999999999              -0.000070100               0.000358491               0.999999999               0.000002787               0.000162184               0.999999999               0.000009592               0.000154806               0.999999999               0.000010304               0.000153665               0.999999999               0.000008378               0.000156786               0.999999999               0.000005125               0.000162923               0.999999999               0.000001303               0.000171325               0.999999999              -0.000002786               0.000181542               0.999999999              -0.000007117               0.000193404               0.999999999              -0.000011791               0.000206625               0.999999999              -0.000016874               0.000221083               0.999999999              -0.000022243               0.000236664               0.999999999              -0.000027575               0.000253346               0.999999999              -0.000032895               0.000270955               0.999999999              -0.000038218               0.000289536               0.999999999              -0.000043565               0.000309142               0.999999999              -0.000049124               0.000329848               0.999999999              -0.000054821               0.000351789               0.999999999               0.000002056               0.000170232               0.999999999               0.000008449               0.000164980               0.999999999               0.000009619               0.000164158               0.999999999               0.000008359               0.000166861               0.999999999               0.000005865               0.000172305               0.999999999               0.000002799               0.000179821               0.999999999              -0.000000446               0.000189096               0.999999999              -0.000003888               0.000199903               0.999999999              -0.000007535               0.000212064               0.999999999              -0.000011457               0.000225333               0.999999999              -0.000015600               0.000239654               0.999999999              -0.000019960               0.000254998               0.999999999              -0.000024254               0.000271382               0.999999999              -0.000028509               0.000288840               0.999999999              -0.000032772               0.000307408               0.999999999              -0.000036814               0.000327056               0.999999999              -0.000040607               0.000347831               0.999999999               0.000001438               0.000176625               0.999999999               0.000006813               0.000173433               0.999999999               0.000008117               0.000173172               0.999999999               0.000007413               0.000175766               0.999999999               0.000005652               0.000180785               0.999999999               0.000003374               0.000187717               0.999999999               0.000000966               0.000196314               0.999999999              -0.000001571               0.000206319               0.999999999              -0.000004255               0.000217564               0.999999999              -0.000007182               0.000229917               0.999999999              -0.000010236               0.000243258               0.999999999              -0.000013404               0.000257618               0.999999999              -0.000016658               0.000273081               0.999999999              -0.000019838               0.000289669               0.999999999              -0.000022914               0.000307481               0.999999999              -0.000025675               0.000326421               0.999999999              -0.000027845               0.000346391               0.999999999               0.000000890               0.000181253               0.999999999               0.000004782               0.000179767               0.999999999               0.000005883               0.000180164               0.999999999               0.000005560               0.000182817               0.999999999               0.000004450               0.000187601               0.999999999               0.000002999               0.000194226               0.999999999               0.000001360               0.000202371               0.999999999              -0.000000267               0.000211850               0.999999999              -0.000002107               0.000222429               0.999999999              -0.000004021               0.000234072               0.999999999              -0.000006001               0.000246818               0.999999999              -0.000007966               0.000260668               0.999999999              -0.000010140               0.000275600               0.999999999              -0.000012356               0.000291676               0.999999999              -0.000014279               0.000308978               0.999999999              -0.000015850               0.000327500               0.999999999              -0.000016853               0.000346991               0.999999999               0.000000422               0.000184099               0.999999999               0.000002475               0.000183712               0.999999999               0.000003080               0.000184575               0.999999999               0.000002987               0.000187349               0.999999999               0.000002464               0.000192060               0.999999999               0.000001731               0.000198509               0.999999999               0.000000953               0.000206431               0.999999999               0.000000103               0.000215611               0.999999999              -0.000000797               0.000225846               0.999999999              -0.000001797               0.000237139               0.999999999              -0.000002649               0.000249536               0.999999999              -0.000003650               0.000263062               0.999999999              -0.000004722               0.000277805               0.999999999              -0.000005860               0.000293809               0.999999999              -0.000006902               0.000310896               0.999999999              -0.000007459               0.000329091               0.999999999              -0.000007620               0.000348285               0.999999999              -0.000000000               0.000185047               0.999999999              -0.000000000               0.000185020               0.999999999              -0.000000000               0.000186069               0.999999999              -0.000000000               0.000188943               0.999999999              -0.000000000               0.000193612               0.999999999              -0.000000000               0.000200010               0.999999999               0.000000000               0.000207877               0.999999999               0.000000000               0.000216939               0.999999999               0.000000000               0.000227079               0.999999999               0.000000000               0.000238274               0.999999999               0.000000000               0.000250515               0.999999999               0.000000000               0.000263991               0.999999999              -0.000000000               0.000278719               0.999999999              -0.000000000               0.000294698               0.999999999              -0.000000000               0.000311834               0.999999999              -0.000000000               0.000329835               0.999999999              -0.000000000               0.000348754               0.999999999               0.000009062              -0.000000000               0.999999999               0.000001881               0.000000000               0.999999999              -0.000001423              -0.000000000               0.999999999              -0.000003058              -0.000000000               0.999999999              -0.000004047               0.000000000               0.999999999              -0.000004887               0.000000000               0.999999999              -0.000005883               0.000000000               0.999999999              -0.000007216              -0.000000000               0.999999999              -0.000008950              -0.000000000               0.999999999              -0.000011112               0.000000000               0.999999999              -0.000013756               0.000000000               0.999999999              -0.000016905               0.000000000               0.999999999              -0.000020542               0.000000000               0.999999999              -0.000024776              -0.000000000               0.999999999              -0.000029519              -0.000000000               0.999999999              -0.000034631              -0.000000000               0.999999999              -0.000040168              -0.000000000               0.999999999               0.000008990              -0.000017954               0.999999999               0.000002017              -0.000016190               0.999999999              -0.000001173              -0.000015739               0.999999999              -0.000002761              -0.000016066               0.999999999              -0.000003788              -0.000016947               0.999999999              -0.000004748              -0.000018232               0.999999999              -0.000005872              -0.000019825               0.999999999              -0.000007360              -0.000021695               0.999999999              -0.000009244              -0.000023778               0.999999999              -0.000011577              -0.000026065               0.999999999              -0.000014410              -0.000028581               0.999999999              -0.000017750              -0.000031398               0.999999999              -0.000021660              -0.000034335               0.999999999              -0.000026068              -0.000037400               0.999999999              -0.000030894              -0.000040465               0.999999999              -0.000036150              -0.000043720               0.999999999              -0.000041842              -0.000047242               0.999999999               0.000008752              -0.000035765               0.999999999               0.000002461              -0.000032205               0.999999999              -0.000000375              -0.000031370               0.999999999              -0.000001939              -0.000032132               0.999999999              -0.000003137              -0.000033945               0.999999999              -0.000004382              -0.000036569               0.999999999              -0.000005922              -0.000039797               0.999999999              -0.000007863              -0.000043536               0.999999999              -0.000010219              -0.000047657               0.999999999              -0.000013058              -0.000052255               0.999999999              -0.000016435              -0.000057285               0.999999999              -0.000020354              -0.000062810               0.999999999              -0.000024782              -0.000068661               0.999999999              -0.000029682              -0.000074615               0.999999999              -0.000035021              -0.000080602               0.999999999              -0.000040749              -0.000086973               0.999999999              -0.000046860              -0.000093860               0.999999999               0.000008374              -0.000053251               0.999999999               0.000003230              -0.000047878               0.999999999               0.000000866              -0.000046815               0.999999999              -0.000000711              -0.000048150               0.999999999              -0.000002229              -0.000051029               0.999999999              -0.000004026              -0.000055048               0.999999999              -0.000006211              -0.000059935               0.999999999              -0.000008852              -0.000065508               0.999999999              -0.000011972              -0.000071746               0.999999999              -0.000015601              -0.000078601               0.999999999              -0.000019797              -0.000086164               0.999999999              -0.000024526              -0.000094376               0.999999999              -0.000029742              -0.000102918               0.999999999              -0.000035378              -0.000111584               0.999999999              -0.000041357              -0.000120330               0.999999999              -0.000047703              -0.000129631               0.999999999              -0.000054377              -0.000139393               0.999999999               0.000007917              -0.000070222               0.999999999               0.000004301              -0.000063101               0.999999999               0.000002421              -0.000062023               0.999999999               0.000000711              -0.000064088               0.999999999              -0.000001325              -0.000068198               0.999999999              -0.000003823              -0.000073680               0.999999999              -0.000006850              -0.000080276               0.999999999              -0.000010436              -0.000087754               0.999999999              -0.000014507              -0.000096048               0.999999999              -0.000019135              -0.000105205               0.999999999              -0.000024312              -0.000115250               0.999999999              -0.000029964              -0.000125982               0.999999999              -0.000036034              -0.000137026               0.999999999              -0.000042401              -0.000148176               0.999999999              -0.000049078              -0.000159535               0.999999999              -0.000056101              -0.000171416               0.999999999              -0.000063414              -0.000183654               0.999999999               0.000007407              -0.000086509               0.999999999               0.000005589              -0.000077778               0.999999999               0.000004095              -0.000076892               0.999999999               0.000002101              -0.000079901               0.999999999              -0.000000610              -0.000085346               0.999999999              -0.000003979              -0.000092402               0.999999999              -0.000007964              -0.000100757               0.999999999              -0.000012501              -0.000110112               0.999999999              -0.000017620              -0.000120580               0.999999999              -0.000023295              -0.000132067               0.999999999              -0.000029460              -0.000144632               0.999999999              -0.000036044              -0.000157736               0.999999999              -0.000042835              -0.000171137               0.999999999              -0.000049903              -0.000184666               0.999999999              -0.000057302              -0.000198680               0.999999999              -0.000065070              -0.000213268               0.999999999              -0.000073215              -0.000228219               0.999999999               0.000006840              -0.000101933               0.999999999               0.000006982              -0.000091838               0.999999999               0.000005702              -0.000091348               0.999999999               0.000003218              -0.000095446               0.999999999              -0.000000275              -0.000102277               0.999999999              -0.000004549              -0.000111001               0.999999999              -0.000009443              -0.000121196               0.999999999              -0.000014991              -0.000132666               0.999999999              -0.000021138              -0.000145402               0.999999999              -0.000027774              -0.000159355               0.999999999              -0.000034916              -0.000174287               0.999999999              -0.000042309              -0.000189666               0.999999999              -0.000049869              -0.000205330               0.999999999              -0.000057732              -0.000221456               0.999999999              -0.000066001              -0.000238356               0.999999999              -0.000074675              -0.000255934               0.999999999              -0.000083784              -0.000273971               0.999999999               0.000006232              -0.000116305               0.999999999               0.000008330              -0.000105236               0.999999999               0.000007059              -0.000105290               0.999999999               0.000003927              -0.000110507               0.999999999              -0.000000384              -0.000118809               0.999999999              -0.000005538              -0.000129347               0.999999999              -0.000011330              -0.000141532               0.999999999              -0.000017745              -0.000155243               0.999999999              -0.000024751              -0.000170359               0.999999999              -0.000032367              -0.000186859               0.999999999              -0.000040318              -0.000204222               0.999999999              -0.000048441              -0.000222043               0.999999999              -0.000056789              -0.000240383               0.999999999              -0.000065523              -0.000259624               0.999999999              -0.000074732              -0.000279835               0.999999999              -0.000084366              -0.000300807               0.999999999              -0.000094423              -0.000322310               0.999999999               0.000005492              -0.000129356               0.999999999               0.000009547              -0.000117934               0.999999999               0.000008020              -0.000118555               0.999999999               0.000004157              -0.000124920               0.999999999              -0.000000974              -0.000134817               0.999999999              -0.000006882              -0.000147218               0.999999999              -0.000013430              -0.000161548               0.999999999              -0.000020613              -0.000177684               0.999999999              -0.000028488              -0.000195454               0.999999999              -0.000036941              -0.000214540               0.999999999              -0.000045527              -0.000234555               0.999999999              -0.000054204              -0.000255332               0.999999999              -0.000063246              -0.000277089               0.999999999              -0.000072768              -0.000300057               0.999999999              -0.000082703              -0.000324277               0.999999999              -0.000092968              -0.000349451               0.999999999              -0.000103551              -0.000375244               0.999999999               0.000004506              -0.000141548               0.999999999               0.000010160              -0.000130964               0.999999999               0.000009407              -0.000130398               0.999999999               0.000006090              -0.000135404               0.999999999               0.000001502              -0.000143856               0.999999999              -0.000003726              -0.000154755               0.999999999              -0.000009438              -0.000167601               0.999999999              -0.000015619              -0.000182138               0.999999999              -0.000022402              -0.000198208               0.999999999              -0.000029781              -0.000215647               0.999999999              -0.000037358              -0.000234236               0.999999999              -0.000044964              -0.000253599               0.999999999              -0.000052622              -0.000273944               0.999999999              -0.000060360              -0.000295284               0.999999999              -0.000068481              -0.000317988               0.999999999              -0.000077146              -0.000341852               0.999999999              -0.000086254              -0.000366811               0.999999999               0.000003620              -0.000152580               0.999999999               0.000010171              -0.000143337               0.999999999               0.000010199              -0.000142236               0.999999999               0.000007572              -0.000146145               0.999999999               0.000003603              -0.000153297               0.999999999              -0.000000952              -0.000162832               0.999999999              -0.000005824              -0.000174289               0.999999999              -0.000011080              -0.000187391               0.999999999              -0.000016812              -0.000201924               0.999999999              -0.000023075              -0.000217795               0.999999999              -0.000029564              -0.000234829               0.999999999              -0.000036063              -0.000252856               0.999999999              -0.000042416              -0.000271810               0.999999999              -0.000048804              -0.000291720               0.999999999              -0.000055444              -0.000312721               0.999999999              -0.000062555              -0.000334977               0.999999999              -0.000070100              -0.000358491               0.999999999               0.000002787              -0.000162184               0.999999999               0.000009592              -0.000154806               0.999999999               0.000010304              -0.000153665               0.999999999               0.000008378              -0.000156786               0.999999999               0.000005125              -0.000162923               0.999999999               0.000001303              -0.000171325               0.999999999              -0.000002786              -0.000181542               0.999999999              -0.000007117              -0.000193404               0.999999999              -0.000011791              -0.000206625               0.999999999              -0.000016874              -0.000221083               0.999999999              -0.000022243              -0.000236664               0.999999999              -0.000027575              -0.000253346               0.999999999              -0.000032895              -0.000270955               0.999999999              -0.000038218              -0.000289536               0.999999999              -0.000043565              -0.000309142               0.999999999              -0.000049124              -0.000329848               0.999999999              -0.000054821              -0.000351789               0.999999999               0.000002056              -0.000170232               0.999999999               0.000008449              -0.000164980               0.999999999               0.000009619              -0.000164158               0.999999999               0.000008359              -0.000166861               0.999999999               0.000005865              -0.000172305               0.999999999               0.000002799              -0.000179821               0.999999999              -0.000000446              -0.000189096               0.999999999              -0.000003888              -0.000199903               0.999999999              -0.000007535              -0.000212064               0.999999999              -0.000011457              -0.000225333               0.999999999              -0.000015600              -0.000239654               0.999999999              -0.000019960              -0.000254998               0.999999999              -0.000024254              -0.000271382               0.999999999              -0.000028509              -0.000288840               0.999999999              -0.000032772              -0.000307408               0.999999999              -0.000036814              -0.000327056               0.999999999              -0.000040607              -0.000347831               0.999999999               0.000001438              -0.000176625               0.999999999               0.000006813              -0.000173433               0.999999999               0.000008117              -0.000173172               0.999999999               0.000007413              -0.000175766               0.999999999               0.000005652              -0.000180785               0.999999999               0.000003374              -0.000187717               0.999999999               0.000000966              -0.000196314               0.999999999              -0.000001571              -0.000206319               0.999999999              -0.000004255              -0.000217564               0.999999999              -0.000007182              -0.000229917               0.999999999              -0.000010236              -0.000243258               0.999999999              -0.000013404              -0.000257618               0.999999999              -0.000016658              -0.000273081               0.999999999              -0.000019838              -0.000289669               0.999999999              -0.000022914              -0.000307481               0.999999999              -0.000025675              -0.000326421               0.999999999              -0.000027845              -0.000346391               0.999999999               0.000000890              -0.000181253               0.999999999               0.000004782              -0.000179767               0.999999999               0.000005883              -0.000180164               0.999999999               0.000005560              -0.000182817               0.999999999               0.000004450              -0.000187601               0.999999999               0.000002999              -0.000194226               0.999999999               0.000001360              -0.000202371               0.999999999              -0.000000267              -0.000211850               0.999999999              -0.000002107              -0.000222429               0.999999999              -0.000004021              -0.000234072               0.999999999              -0.000006001              -0.000246818               0.999999999              -0.000007966              -0.000260668               0.999999999              -0.000010140              -0.000275600               0.999999999              -0.000012356              -0.000291676               0.999999999              -0.000014279              -0.000308978               0.999999999              -0.000015850              -0.000327500               0.999999999              -0.000016853              -0.000346991               0.999999999               0.000000422              -0.000184099               0.999999999               0.000002475              -0.000183712               0.999999999               0.000003080              -0.000184575               0.999999999               0.000002987              -0.000187349               0.999999999               0.000002464              -0.000192060               0.999999999               0.000001731              -0.000198509               0.999999999               0.000000953              -0.000206431               0.999999999               0.000000103              -0.000215611               0.999999999              -0.000000797              -0.000225846               0.999999999              -0.000001797              -0.000237139               0.999999999              -0.000002649              -0.000249536               0.999999999              -0.000003650              -0.000263062               0.999999999              -0.000004722              -0.000277805               0.999999999              -0.000005860              -0.000293809               0.999999999              -0.000006902              -0.000310896               0.999999999              -0.000007459              -0.000329091               0.999999999              -0.000007620              -0.000348285               0.999999999              -0.000000000              -0.000185047               0.999999999               0.000000000              -0.000185020               0.999999999              -0.000000000              -0.000186069               0.999999999               0.000000000              -0.000188943               0.999999999              -0.000000000              -0.000193612               0.999999999              -0.000000000              -0.000200010               0.999999999               0.000000000              -0.000207877               0.999999999              -0.000000000              -0.000216939               0.999999999               0.000000000              -0.000227079               0.999999999               0.000000000              -0.000238274               0.999999999              -0.000000000              -0.000250515               0.999999999               0.000000000              -0.000263991               0.999999999               0.000000000              -0.000278719               0.999999999               0.000000000              -0.000294698               0.999999999              -0.000000000              -0.000311834               0.999999999               0.000000000              -0.000329835               0.999999999               0.000000000              -0.000348754               0.999999999              -0.000009062               0.000000000               0.999999999              -0.000001881              -0.000000000               0.999999999               0.000001423               0.000000000               0.999999999               0.000003058               0.000000000               0.999999999               0.000004047               0.000000000               0.999999999               0.000004887               0.000000000               0.999999999               0.000005883               0.000000000               0.999999999               0.000007216               0.000000000               0.999999999               0.000008950               0.000000000               0.999999999               0.000011112               0.000000000               0.999999999               0.000013756               0.000000000               0.999999999               0.000016905               0.000000000               0.999999999               0.000020542               0.000000000               0.999999999               0.000024776               0.000000000               0.999999999               0.000029519               0.000000000               0.999999999               0.000034631               0.000000000               0.999999999               0.000040168               0.000000000               0.999999999              -0.000008990              -0.000017954               0.999999999              -0.000002017              -0.000016190               0.999999999               0.000001173              -0.000015739               0.999999999               0.000002761              -0.000016066               0.999999999               0.000003788              -0.000016947               0.999999999               0.000004748              -0.000018232               0.999999999               0.000005872              -0.000019825               0.999999999               0.000007360              -0.000021695               0.999999999               0.000009244              -0.000023778               0.999999999               0.000011577              -0.000026065               0.999999999               0.000014410              -0.000028581               0.999999999               0.000017750              -0.000031398               0.999999999               0.000021660              -0.000034335               0.999999999               0.000026068              -0.000037400               0.999999999               0.000030894              -0.000040465               0.999999999               0.000036150              -0.000043720               0.999999999               0.000041842              -0.000047242               0.999999999              -0.000008752              -0.000035765               0.999999999              -0.000002461              -0.000032205               0.999999999               0.000000375              -0.000031370               0.999999999               0.000001939              -0.000032132               0.999999999               0.000003137              -0.000033945               0.999999999               0.000004382              -0.000036569               0.999999999               0.000005922              -0.000039797               0.999999999               0.000007863              -0.000043536               0.999999999               0.000010219              -0.000047657               0.999999999               0.000013058              -0.000052255               0.999999999               0.000016435              -0.000057285               0.999999999               0.000020354              -0.000062810               0.999999999               0.000024782              -0.000068661               0.999999999               0.000029682              -0.000074615               0.999999999               0.000035021              -0.000080602               0.999999999               0.000040749              -0.000086973               0.999999999               0.000046860              -0.000093860               0.999999999              -0.000008374              -0.000053251               0.999999999              -0.000003230              -0.000047878               0.999999999              -0.000000866              -0.000046815               0.999999999               0.000000711              -0.000048150               0.999999999               0.000002229              -0.000051029               0.999999999               0.000004026              -0.000055048               0.999999999               0.000006211              -0.000059935               0.999999999               0.000008852              -0.000065508               0.999999999               0.000011972              -0.000071746               0.999999999               0.000015601              -0.000078601               0.999999999               0.000019797              -0.000086164               0.999999999               0.000024526              -0.000094376               0.999999999               0.000029742              -0.000102918               0.999999999               0.000035378              -0.000111584               0.999999999               0.000041357              -0.000120330               0.999999999               0.000047703              -0.000129631               0.999999999               0.000054377              -0.000139393               0.999999999              -0.000007917              -0.000070222               0.999999999              -0.000004301              -0.000063101               0.999999999              -0.000002421              -0.000062023               0.999999999              -0.000000711              -0.000064088               0.999999999               0.000001325              -0.000068198               0.999999999               0.000003823              -0.000073680               0.999999999               0.000006850              -0.000080276               0.999999999               0.000010436              -0.000087754               0.999999999               0.000014507              -0.000096048               0.999999999               0.000019135              -0.000105205               0.999999999               0.000024312              -0.000115250               0.999999999               0.000029964              -0.000125982               0.999999999               0.000036034              -0.000137026               0.999999999               0.000042401              -0.000148176               0.999999999               0.000049078              -0.000159535               0.999999999               0.000056101              -0.000171416               0.999999999               0.000063414              -0.000183654               0.999999999              -0.000007407              -0.000086509               0.999999999              -0.000005589              -0.000077778               0.999999999              -0.000004095              -0.000076892               0.999999999              -0.000002101              -0.000079901               0.999999999               0.000000610              -0.000085346               0.999999999               0.000003979              -0.000092402               0.999999999               0.000007964              -0.000100757               0.999999999               0.000012501              -0.000110112               0.999999999               0.000017620              -0.000120580               0.999999999               0.000023295              -0.000132067               0.999999999               0.000029460              -0.000144632               0.999999999               0.000036044              -0.000157736               0.999999999               0.000042835              -0.000171137               0.999999999               0.000049903              -0.000184666               0.999999999               0.000057302              -0.000198680               0.999999999               0.000065070              -0.000213268               0.999999999               0.000073215              -0.000228219               0.999999999              -0.000006840              -0.000101933               0.999999999              -0.000006982              -0.000091838               0.999999999              -0.000005702              -0.000091348               0.999999999              -0.000003218              -0.000095446               0.999999999               0.000000275              -0.000102277               0.999999999               0.000004549              -0.000111001               0.999999999               0.000009443              -0.000121196               0.999999999               0.000014991              -0.000132666               0.999999999               0.000021138              -0.000145402               0.999999999               0.000027774              -0.000159355               0.999999999               0.000034916              -0.000174287               0.999999999               0.000042309              -0.000189666               0.999999999               0.000049869              -0.000205330               0.999999999               0.000057732              -0.000221456               0.999999999               0.000066001              -0.000238356               0.999999999               0.000074675              -0.000255934               0.999999999               0.000083784              -0.000273971               0.999999999              -0.000006232              -0.000116305               0.999999999              -0.000008330              -0.000105236               0.999999999              -0.000007059              -0.000105290               0.999999999              -0.000003927              -0.000110507               0.999999999               0.000000384              -0.000118809               0.999999999               0.000005538              -0.000129347               0.999999999               0.000011330              -0.000141532               0.999999999               0.000017745              -0.000155243               0.999999999               0.000024751              -0.000170359               0.999999999               0.000032367              -0.000186859               0.999999999               0.000040318              -0.000204222               0.999999999               0.000048441              -0.000222043               0.999999999               0.000056789              -0.000240383               0.999999999               0.000065523              -0.000259624               0.999999999               0.000074732              -0.000279835               0.999999999               0.000084366              -0.000300807               0.999999999               0.000094423              -0.000322310               0.999999999              -0.000005492              -0.000129356               0.999999999              -0.000009547              -0.000117934               0.999999999              -0.000008020              -0.000118555               0.999999999              -0.000004157              -0.000124920               0.999999999               0.000000974              -0.000134817               0.999999999               0.000006882              -0.000147218               0.999999999               0.000013430              -0.000161548               0.999999999               0.000020613              -0.000177684               0.999999999               0.000028488              -0.000195454               0.999999999               0.000036941              -0.000214540               0.999999999               0.000045527              -0.000234555               0.999999999               0.000054204              -0.000255332               0.999999999               0.000063246              -0.000277089               0.999999999               0.000072768              -0.000300057               0.999999999               0.000082703              -0.000324277               0.999999999               0.000092968              -0.000349451               0.999999999               0.000103551              -0.000375244               0.999999999              -0.000004506              -0.000141548               0.999999999              -0.000010160              -0.000130964               0.999999999              -0.000009407              -0.000130398               0.999999999              -0.000006090              -0.000135404               0.999999999              -0.000001502              -0.000143856               0.999999999               0.000003726              -0.000154755               0.999999999               0.000009438              -0.000167601               0.999999999               0.000015619              -0.000182138               0.999999999               0.000022402              -0.000198208               0.999999999               0.000029781              -0.000215647               0.999999999               0.000037358              -0.000234236               0.999999999               0.000044964              -0.000253599               0.999999999               0.000052622              -0.000273944               0.999999999               0.000060360              -0.000295284               0.999999999               0.000068481              -0.000317988               0.999999999               0.000077146              -0.000341852               0.999999999               0.000086254              -0.000366811               0.999999999              -0.000003620              -0.000152580               0.999999999              -0.000010171              -0.000143337               0.999999999              -0.000010199              -0.000142236               0.999999999              -0.000007572              -0.000146145               0.999999999              -0.000003603              -0.000153297               0.999999999               0.000000952              -0.000162832               0.999999999               0.000005824              -0.000174289               0.999999999               0.000011080              -0.000187391               0.999999999               0.000016812              -0.000201924               0.999999999               0.000023075              -0.000217795               0.999999999               0.000029564              -0.000234829               0.999999999               0.000036063              -0.000252856               0.999999999               0.000042416              -0.000271810               0.999999999               0.000048804              -0.000291720               0.999999999               0.000055444              -0.000312721               0.999999999               0.000062555              -0.000334977               0.999999999               0.000070100              -0.000358491               0.999999999              -0.000002787              -0.000162184               0.999999999              -0.000009592              -0.000154806               0.999999999              -0.000010304              -0.000153665               0.999999999              -0.000008378              -0.000156786               0.999999999              -0.000005125              -0.000162923               0.999999999              -0.000001303              -0.000171325               0.999999999               0.000002786              -0.000181542               0.999999999               0.000007117              -0.000193404               0.999999999               0.000011791              -0.000206625               0.999999999               0.000016874              -0.000221083               0.999999999               0.000022243              -0.000236664               0.999999999               0.000027575              -0.000253346               0.999999999               0.000032895              -0.000270955               0.999999999               0.000038218              -0.000289536               0.999999999               0.000043565              -0.000309142               0.999999999               0.000049124              -0.000329848               0.999999999               0.000054821              -0.000351789               0.999999999              -0.000002056              -0.000170232               0.999999999              -0.000008449              -0.000164980               0.999999999              -0.000009619              -0.000164158               0.999999999              -0.000008359              -0.000166861               0.999999999              -0.000005865              -0.000172305               0.999999999              -0.000002799              -0.000179821               0.999999999               0.000000446              -0.000189096               0.999999999               0.000003888              -0.000199903               0.999999999               0.000007535              -0.000212064               0.999999999               0.000011457              -0.000225333               0.999999999               0.000015600              -0.000239654               0.999999999               0.000019960              -0.000254998               0.999999999               0.000024254              -0.000271382               0.999999999               0.000028509              -0.000288840               0.999999999               0.000032772              -0.000307408               0.999999999               0.000036814              -0.000327056               0.999999999               0.000040607              -0.000347831               0.999999999              -0.000001438              -0.000176625               0.999999999              -0.000006813              -0.000173433               0.999999999              -0.000008117              -0.000173172               0.999999999              -0.000007413              -0.000175766               0.999999999              -0.000005652              -0.000180785               0.999999999              -0.000003374              -0.000187717               0.999999999              -0.000000966              -0.000196314               0.999999999               0.000001571              -0.000206319               0.999999999               0.000004255              -0.000217564               0.999999999               0.000007182              -0.000229917               0.999999999               0.000010236              -0.000243258               0.999999999               0.000013404              -0.000257618               0.999999999               0.000016658              -0.000273081               0.999999999               0.000019838              -0.000289669               0.999999999               0.000022914              -0.000307481               0.999999999               0.000025675              -0.000326421               0.999999999               0.000027845              -0.000346391               0.999999999              -0.000000890              -0.000181253               0.999999999              -0.000004782              -0.000179767               0.999999999              -0.000005883              -0.000180164               0.999999999              -0.000005560              -0.000182817               0.999999999              -0.000004450              -0.000187601               0.999999999              -0.000002999              -0.000194226               0.999999999              -0.000001360              -0.000202371               0.999999999               0.000000267              -0.000211850               0.999999999               0.000002107              -0.000222429               0.999999999               0.000004021              -0.000234072               0.999999999               0.000006001              -0.000246818               0.999999999               0.000007966              -0.000260668               0.999999999               0.000010140              -0.000275600               0.999999999               0.000012356              -0.000291676               0.999999999               0.000014279              -0.000308978               0.999999999               0.000015850              -0.000327500               0.999999999               0.000016853              -0.000346991               0.999999999              -0.000000422              -0.000184099               0.999999999              -0.000002475              -0.000183712               0.999999999              -0.000003080              -0.000184575               0.999999999              -0.000002987              -0.000187349               0.999999999              -0.000002464              -0.000192060               0.999999999              -0.000001731              -0.000198509               0.999999999              -0.000000953              -0.000206431               0.999999999              -0.000000103              -0.000215611               0.999999999               0.000000797              -0.000225846               0.999999999               0.000001797              -0.000237139               0.999999999               0.000002649              -0.000249536               0.999999999               0.000003650              -0.000263062               0.999999999               0.000004722              -0.000277805               0.999999999               0.000005860              -0.000293809               0.999999999               0.000006902              -0.000310896               0.999999999               0.000007459              -0.000329091               0.999999999               0.000007620              -0.000348285               0.999999999              -0.000000000              -0.000185047               0.999999999               0.000000000              -0.000185020               0.999999999              -0.000000000              -0.000186069               0.999999999               0.000000000              -0.000188943               0.999999999              -0.000000000              -0.000193612               0.999999999              -0.000000000              -0.000200010               0.999999999               0.000000000              -0.000207877               0.999999999              -0.000000000              -0.000216939               0.999999999               0.000000000              -0.000227079               0.999999999               0.000000000              -0.000238274               0.999999999              -0.000000000              -0.000250515               0.999999999               0.000000000              -0.000263991               0.999999999               0.000000000              -0.000278719               0.999999999               0.000000000              -0.000294698               0.999999999              -0.000000000              -0.000311834               0.999999999               0.000000000              -0.000329835               0.999999999               0.000000000              -0.000348754               0.999999999              -0.000009062               0.000000000               0.999999999              -0.000001881              -0.000000000               0.999999999               0.000001423               0.000000000               0.999999999               0.000003058               0.000000000               0.999999999               0.000004047               0.000000000               0.999999999               0.000004887               0.000000000               0.999999999               0.000005883               0.000000000               0.999999999               0.000007216               0.000000000               0.999999999               0.000008950               0.000000000               0.999999999               0.000011112               0.000000000               0.999999999               0.000013756               0.000000000               0.999999999               0.000016905               0.000000000               0.999999999               0.000020542               0.000000000               0.999999999               0.000024776               0.000000000               0.999999999               0.000029519               0.000000000               0.999999999               0.000034631               0.000000000               0.999999999               0.000040168               0.000000000               0.999999999              -0.000008990               0.000017954               0.999999999              -0.000002017               0.000016190               0.999999999               0.000001173               0.000015739               0.999999999               0.000002761               0.000016066               0.999999999               0.000003788               0.000016947               0.999999999               0.000004748               0.000018232               0.999999999               0.000005872               0.000019825               0.999999999               0.000007360               0.000021695               0.999999999               0.000009244               0.000023778               0.999999999               0.000011577               0.000026065               0.999999999               0.000014410               0.000028581               0.999999999               0.000017750               0.000031398               0.999999999               0.000021660               0.000034335               0.999999999               0.000026068               0.000037400               0.999999999               0.000030894               0.000040465               0.999999999               0.000036150               0.000043720               0.999999999               0.000041842               0.000047242               0.999999999              -0.000008752               0.000035765               0.999999999              -0.000002461               0.000032205               0.999999999               0.000000375               0.000031370               0.999999999               0.000001939               0.000032132               0.999999999               0.000003137               0.000033945               0.999999999               0.000004382               0.000036569               0.999999999               0.000005922               0.000039797               0.999999999               0.000007863               0.000043536               0.999999999               0.000010219               0.000047657               0.999999999               0.000013058               0.000052255               0.999999999               0.000016435               0.000057285               0.999999999               0.000020354               0.000062810               0.999999999               0.000024782               0.000068661               0.999999999               0.000029682               0.000074615               0.999999999               0.000035021               0.000080602               0.999999999               0.000040749               0.000086973               0.999999999               0.000046860               0.000093860               0.999999999              -0.000008374               0.000053251               0.999999999              -0.000003230               0.000047878               0.999999999              -0.000000866               0.000046815               0.999999999               0.000000711               0.000048150               0.999999999               0.000002229               0.000051029               0.999999999               0.000004026               0.000055048               0.999999999               0.000006211               0.000059935               0.999999999               0.000008852               0.000065508               0.999999999               0.000011972               0.000071746               0.999999999               0.000015601               0.000078601               0.999999999               0.000019797               0.000086164               0.999999999               0.000024526               0.000094376               0.999999999               0.000029742               0.000102918               0.999999999               0.000035378               0.000111584               0.999999999               0.000041357               0.000120330               0.999999999               0.000047703               0.000129631               0.999999999               0.000054377               0.000139393               0.999999999              -0.000007917               0.000070222               0.999999999              -0.000004301               0.000063101               0.999999999              -0.000002421               0.000062023               0.999999999              -0.000000711               0.000064088               0.999999999               0.000001325               0.000068198               0.999999999               0.000003823               0.000073680               0.999999999               0.000006850               0.000080276               0.999999999               0.000010436               0.000087754               0.999999999               0.000014507               0.000096048               0.999999999               0.000019135               0.000105205               0.999999999               0.000024312               0.000115250               0.999999999               0.000029964               0.000125982               0.999999999               0.000036034               0.000137026               0.999999999               0.000042401               0.000148176               0.999999999               0.000049078               0.000159535               0.999999999               0.000056101               0.000171416               0.999999999               0.000063414               0.000183654               0.999999999              -0.000007407               0.000086509               0.999999999              -0.000005589               0.000077778               0.999999999              -0.000004095               0.000076892               0.999999999              -0.000002101               0.000079901               0.999999999               0.000000610               0.000085346               0.999999999               0.000003979               0.000092402               0.999999999               0.000007964               0.000100757               0.999999999               0.000012501               0.000110112               0.999999999               0.000017620               0.000120580               0.999999999               0.000023295               0.000132067               0.999999999               0.000029460               0.000144632               0.999999999               0.000036044               0.000157736               0.999999999               0.000042835               0.000171137               0.999999999               0.000049903               0.000184666               0.999999999               0.000057302               0.000198680               0.999999999               0.000065070               0.000213268               0.999999999               0.000073215               0.000228219               0.999999999              -0.000006840               0.000101933               0.999999999              -0.000006982               0.000091838               0.999999999              -0.000005702               0.000091348               0.999999999              -0.000003218               0.000095446               0.999999999               0.000000275               0.000102277               0.999999999               0.000004549               0.000111001               0.999999999               0.000009443               0.000121196               0.999999999               0.000014991               0.000132666               0.999999999               0.000021138               0.000145402               0.999999999               0.000027774               0.000159355               0.999999999               0.000034916               0.000174287               0.999999999               0.000042309               0.000189666               0.999999999               0.000049869               0.000205330               0.999999999               0.000057732               0.000221456               0.999999999               0.000066001               0.000238356               0.999999999               0.000074675               0.000255934               0.999999999               0.000083784               0.000273971               0.999999999              -0.000006232               0.000116305               0.999999999              -0.000008330               0.000105236               0.999999999              -0.000007059               0.000105290               0.999999999              -0.000003927               0.000110507               0.999999999               0.000000384               0.000118809               0.999999999               0.000005538               0.000129347               0.999999999               0.000011330               0.000141532               0.999999999               0.000017745               0.000155243               0.999999999               0.000024751               0.000170359               0.999999999               0.000032367               0.000186859               0.999999999               0.000040318               0.000204222               0.999999999               0.000048441               0.000222043               0.999999999               0.000056789               0.000240383               0.999999999               0.000065523               0.000259624               0.999999999               0.000074732               0.000279835               0.999999999               0.000084366               0.000300807               0.999999999               0.000094423               0.000322310               0.999999999              -0.000005492               0.000129356               0.999999999              -0.000009547               0.000117934               0.999999999              -0.000008020               0.000118555               0.999999999              -0.000004157               0.000124920               0.999999999               0.000000974               0.000134817               0.999999999               0.000006882               0.000147218               0.999999999               0.000013430               0.000161548               0.999999999               0.000020613               0.000177684               0.999999999               0.000028488               0.000195454               0.999999999               0.000036941               0.000214540               0.999999999               0.000045527               0.000234555               0.999999999               0.000054204               0.000255332               0.999999999               0.000063246               0.000277089               0.999999999               0.000072768               0.000300057               0.999999999               0.000082703               0.000324277               0.999999999               0.000092968               0.000349451               0.999999999               0.000103551               0.000375244               0.999999999              -0.000004506               0.000141548               0.999999999              -0.000010160               0.000130964               0.999999999              -0.000009407               0.000130398               0.999999999              -0.000006090               0.000135404               0.999999999              -0.000001502               0.000143856               0.999999999               0.000003726               0.000154755               0.999999999               0.000009438               0.000167601               0.999999999               0.000015619               0.000182138               0.999999999               0.000022402               0.000198208               0.999999999               0.000029781               0.000215647               0.999999999               0.000037358               0.000234236               0.999999999               0.000044964               0.000253599               0.999999999               0.000052622               0.000273944               0.999999999               0.000060360               0.000295284               0.999999999               0.000068481               0.000317988               0.999999999               0.000077146               0.000341852               0.999999999               0.000086254               0.000366811               0.999999999              -0.000003620               0.000152580               0.999999999              -0.000010171               0.000143337               0.999999999              -0.000010199               0.000142236               0.999999999              -0.000007572               0.000146145               0.999999999              -0.000003603               0.000153297               0.999999999               0.000000952               0.000162832               0.999999999               0.000005824               0.000174289               0.999999999               0.000011080               0.000187391               0.999999999               0.000016812               0.000201924               0.999999999               0.000023075               0.000217795               0.999999999               0.000029564               0.000234829               0.999999999               0.000036063               0.000252856               0.999999999               0.000042416               0.000271810               0.999999999               0.000048804               0.000291720               0.999999999               0.000055444               0.000312721               0.999999999               0.000062555               0.000334977               0.999999999               0.000070100               0.000358491               0.999999999              -0.000002787               0.000162184               0.999999999              -0.000009592               0.000154806               0.999999999              -0.000010304               0.000153665               0.999999999              -0.000008378               0.000156786               0.999999999              -0.000005125               0.000162923               0.999999999              -0.000001303               0.000171325               0.999999999               0.000002786               0.000181542               0.999999999               0.000007117               0.000193404               0.999999999               0.000011791               0.000206625               0.999999999               0.000016874               0.000221083               0.999999999               0.000022243               0.000236664               0.999999999               0.000027575               0.000253346               0.999999999               0.000032895               0.000270955               0.999999999               0.000038218               0.000289536               0.999999999               0.000043565               0.000309142               0.999999999               0.000049124               0.000329848               0.999999999               0.000054821               0.000351789               0.999999999              -0.000002056               0.000170232               0.999999999              -0.000008449               0.000164980               0.999999999              -0.000009619               0.000164158               0.999999999              -0.000008359               0.000166861               0.999999999              -0.000005865               0.000172305               0.999999999              -0.000002799               0.000179821               0.999999999               0.000000446               0.000189096               0.999999999               0.000003888               0.000199903               0.999999999               0.000007535               0.000212064               0.999999999               0.000011457               0.000225333               0.999999999               0.000015600               0.000239654               0.999999999               0.000019960               0.000254998               0.999999999               0.000024254               0.000271382               0.999999999               0.000028509               0.000288840               0.999999999               0.000032772               0.000307408               0.999999999               0.000036814               0.000327056               0.999999999               0.000040607               0.000347831               0.999999999              -0.000001438               0.000176625               0.999999999              -0.000006813               0.000173433               0.999999999              -0.000008117               0.000173172               0.999999999              -0.000007413               0.000175766               0.999999999              -0.000005652               0.000180785               0.999999999              -0.000003374               0.000187717               0.999999999              -0.000000966               0.000196314               0.999999999               0.000001571               0.000206319               0.999999999               0.000004255               0.000217564               0.999999999               0.000007182               0.000229917               0.999999999               0.000010236               0.000243258               0.999999999               0.000013404               0.000257618               0.999999999               0.000016658               0.000273081               0.999999999               0.000019838               0.000289669               0.999999999               0.000022914               0.000307481               0.999999999               0.000025675               0.000326421               0.999999999               0.000027845               0.000346391               0.999999999              -0.000000890               0.000181253               0.999999999              -0.000004782               0.000179767               0.999999999              -0.000005883               0.000180164               0.999999999              -0.000005560               0.000182817               0.999999999              -0.000004450               0.000187601               0.999999999              -0.000002999               0.000194226               0.999999999              -0.000001360               0.000202371               0.999999999               0.000000267               0.000211850               0.999999999               0.000002107               0.000222429               0.999999999               0.000004021               0.000234072               0.999999999               0.000006001               0.000246818               0.999999999               0.000007966               0.000260668               0.999999999               0.000010140               0.000275600               0.999999999               0.000012356               0.000291676               0.999999999               0.000014279               0.000308978               0.999999999               0.000015850               0.000327500               0.999999999               0.000016853               0.000346991               0.999999999              -0.000000422               0.000184099               0.999999999              -0.000002475               0.000183712               0.999999999              -0.000003080               0.000184575               0.999999999              -0.000002987               0.000187349               0.999999999              -0.000002464               0.000192060               0.999999999              -0.000001731               0.000198509               0.999999999              -0.000000953               0.000206431               0.999999999              -0.000000103               0.000215611               0.999999999               0.000000797               0.000225846               0.999999999               0.000001797               0.000237139               0.999999999               0.000002649               0.000249536               0.999999999               0.000003650               0.000263062               0.999999999               0.000004722               0.000277805               0.999999999               0.000005860               0.000293809               0.999999999               0.000006902               0.000310896               0.999999999               0.000007459               0.000329091               0.999999999               0.000007620               0.000348285               0.999999999              -0.000000000               0.000185047               0.999999999              -0.000000000               0.000185020               0.999999999              -0.000000000               0.000186069               0.999999999              -0.000000000               0.000188943               0.999999999              -0.000000000               0.000193612               0.999999999              -0.000000000               0.000200010               0.999999999               0.000000000               0.000207877               0.999999999               0.000000000               0.000216939               0.999999999               0.000000000               0.000227079               0.999999999               0.000000000               0.000238274               0.999999999               0.000000000               0.000250515               0.999999999               0.000000000               0.000263991               0.999999999              -0.000000000               0.000278719               0.999999999              -0.000000000               0.000294698               0.999999999              -0.000000000               0.000311834               0.999999999              -0.000000000               0.000329835               0.999999999              -0.000000000               0.000348754               0.999999999 </DataArray>
<DataArray type="Float64"                                    Name="defo"                                                      NumberOfComponents=" 3" format="ascii">
              0.000009062              -0.000000000               0.999999999               0.000001881               0.000000000               0.999999999              -0.000001423              -0.000000000               0.999999999              -0.000003058              -0.000000000               0.999999999              -0.000004047               0.000000000               0.999999999              -0.000004887               0.000000000               0.999999999              -0.000005883               0.000000000               0.999999999              -0.000007216              -0.000000000               0.999999999              -0.000008950              -0.000000000               0.999999999              -0.000011112               0.000000000               0.999999999              -0.000013756               0.000000000               0.999999999              -0.000016905               0.000000000               0.999999999              -0.000020542               0.000000000               0.999999999              -0.000024776              -0.000000000               0.999999999              -0.000029519              -0.000000000               0.999999999              -0.000034631              -0.000000000               0.999999999              -0.000040168              -0.000000000               0.999999999               0.000008990               0.000017954               0.999999999               0.000002017               0.000016190               0.999999999              -0.000001173               0.000015739               0.999999999              -0.000002761               0.000016066               0.999999999              -0.000003788               0.000016947               0.999999999              -0.000004748               0.000018232               0.999999999              -0.000005872               0.000019825               0.999999999              -0.000007360               0.000021695               0.999999999              -0.000009244               0.000023778               0.999999999              -0.000011577               0.000026065               0.999999999              -0.000014410               0.000028581               0.999999999              -0.000017750               0.000031398               0.999999999              -0.000021660               0.000034335               0.999999999              -0.000026068               0.000037400               0.999999999              -0.000030894               0.000040465               0.999999999              -0.000036150               0.000043720               0.999999999              -0.000041842               0.000047242               0.999999999               0.000008752               0.000035765               0.999999999               0.000002461               0.000032205               0.999999999              -0.000000375               0.000031370               0.999999999              -0.000001939               0.000032132               0.999999999              -0.000003137               0.000033945               0.999999999              -0.000004382               0.000036569               0.999999999              -0.000005922               0.000039797               0.999999999              -0.000007863               0.000043536               0.999999999              -0.000010219               0.000047657               0.999999999              -0.000013058               0.000052255               0.999999999              -0.000016435               0.000057285               0.999999999              -0.000020354               0.000062810               0.999999999              -0.000024782               0.000068661               0.999999999              -0.000029682               0.000074615               0.999999999              -0.000035021               0.000080602               0.999999999              -0.000040749               0.000086973               0.999999999              -0.000046860               0.000093860               0.999999999               0.000008374               0.000053251               0.999999999               0.000003230               0.000047878               0.999999999               0.000000866               0.000046815               0.999999999              -0.000000711               0.000048150               0.999999999              -0.000002229               0.000051029               0.999999999              -0.000004026               0.000055048               0.999999999              -0.000006211               0.000059935               0.999999999              -0.000008852               0.000065508               0.999999999              -0.000011972               0.000071746               0.999999999              -0.000015601               0.000078601               0.999999999              -0.000019797               0.000086164               0.999999999              -0.000024526               0.000094376               0.999999999              -0.000029742               0.000102918               0.999999999              -0.000035378               0.000111584               0.999999999              -0.000041357               0.000120330               0.999999999              -0.000047703               0.000129631               0.999999999              -0.000054377               0.000139393               0.999999999               0.000007917               0.000070222               0.999999999               0.000004301               0.000063101               0.999999999               0.000002421               0.000062023               0.999999999               0.000000711               0.000064088               0.999999999              -0.000001325               0.000068198               0.999999999              -0.000003823               0.000073680               0.999999999              -0.000006850               0.000080276               0.999999999              -0.000010436               0.000087754               0.999999999              -0.000014507               0.000096048               0.999999999              -0.000019135               0.000105205               0.999999999              -0.000024312               0.000115250               0.999999999              -0.000029964               0.000125982               0.999999999              -0.000036034               0.000137026               0.999999999              -0.000042401               0.000148176               0.999999999              -0.000049078               0.000159535               0.999999999              -0.000056101               0.000171416               0.999999999              -0.000063414               0.000183654               0.999999999               0.000007407               0.000086509               0.999999999               0.000005589               0.000077778               0.999999999               0.000004095               0.000076892               0.999999999               0.000002101               0.000079901               0.999999999              -0.000000610               0.000085346               0.999999999              -0.000003979               0.000092402               0.999999999              -0.000007964               0.000100757               0.999999999              -0.000012501               0.000110112               0.999999999              -0.000017620               0.000120580               0.999999999              -0.000023295               0.000132067               0.999999999              -0.000029460               0.000144632               0.999999999              -0.000036044               0.000157736               0.999999999              -0.000042835               0.000171137               0.999999999              -0.000049903               0.000184666               0.999999999              -0.000057302               0.000198680               0.999999999              -0.000065070               0.000213268               0.999999999              -0.000073215               0.000228219               0.999999999               0.000006840               0.000101933               0.999999999               0.000006982               0.000091838               0.999999999               0.000005702               0.000091348               0.999999999               0.000003218               0.000095446               0.999999999              -0.000000275               0.000102277               0.999999999              -0.000004549               0.000111001               0.999999999              -0.000009443               0.000121196               0.999999999              -0.000014991               0.000132666               0.999999999              -0.000021138               0.000145402               0.999999999              -0.000027774               0.000159355               0.999999999              -0.000034916               0.000174287               0.999999999              -0.000042309               0.000189666               0.999999999              -0.000049869               0.000205330               0.999999999              -0.000057732               0.000221456               0.999999999              -0.000066001               0.000238356               0.999999999              -0.000074675               0.000255934               0.999999999              -0.000083784               0.000273971               0.999999999               0.000006232               0.000116305               0.999999999               0.000008330               0.000105236               0.999999999               0.000007059               0.000105290               0.999999999               0.000003927               0.000110507               0.999999999              -0.000000384               0.000118809               0.999999999              -0.000005538               0.000129347               0.999999999              -0.000011330               0.000141532               0.999999999              -0.000017745               0.000155243               0.999999999              -0.000024751               0.000170359               0.999999999              -0.000032367               0.000186859               0.999999999              -0.000040318               0.000204222               0.999999999              -0.000048441               0.000222043               0.999999999              -0.000056789               0.000240383               0.999999999              -0.000065523               0.000259624               0.999999999              -0.000074732               0.000279835               0.999999999              -0.000084366               0.000300807               0.999999999              -0.000094423               0.000322310               0.999999999               0.000005492               0.000129356               0.999999999               0.000009547               0.000117934               0.999999999               0.000008020               0.000118555               0.999999999               0.000004157               0.000124920               0.999999999              -0.000000974               0.000134817               0.999999999              -0.000006882               0.000147218               0.999999999              -0.000013430               0.000161548               0.999999999              -0.000020613               0.000177684               0.999999999              -0.000028488               0.000195454               0.999999999              -0.000036941               0.000214540               0.999999999              -0.000045527               0.000234555               0.999999999              -0.000054204               0.000255332               0.999999999              -0.000063246               0.000277089               0.999999999              -0.000072768               0.000300057               0.999999999              -0.000082703               0.000324277               0.999999999              -0.000092968               0.000349451               0.999999999              -0.000103551               0.000375244               0.999999999               0.000004506               0.000141548               0.999999999               0.000010160               0.000130964               0.999999999               0.000009407               0.000130398               0.999999999               0.000006090               0.000135404               0.999999999               0.000001502               0.000143856               0.999999999              -0.000003726               0.000154755               0.999999999              -0.000009438               0.000167601               0.999999999              -0.000015619               0.000182138               0.999999999              -0.000022402               0.000198208               0.999999999              -0.000029781               0.000215647               0.999999999              -0.000037358               0.000234236               0.999999999              -0.000044964               0.000253599               0.999999999              -0.000052622               0.000273944               0.999999999              -0.000060360               0.000295284               0.999999999              -0.000068481               0.000317988               0.999999999              -0.000077146               0.000341852               0.999999999              -0.000086254               0.000366811               0.999999999               0.000003620               0.000152580               0.999999999               0.000010171               0.000143337               0.999999999               0.000010199               0.000142236               0.999999999               0.000007572               0.000146145               0.999999999               0.000003603               0.000153297               0.999999999              -0.000000952               0.000162832               0.999999999              -0.000005824               0.000174289               0.999999999              -0.000011080               0.000187391               0.999999999              -0.000016812               0.000201924               0.999999999              -0.000023075               0.000217795               0.999999999              -0.000029564               0.000234829               0.999999999              -0.000036063               0.000252856               0.999999999              -0.000042416               0.000271810               0.999999999              -0.000048804               0.000291720               0.999999999              -0.000055444               0.000312721               0.999999999              -0.000062555               0.000334977               0.999999999              -0.000070100               0.000358491               0.999999999               0.000002787               0.000162184               0.999999999               0.000009592               0.000154806               0.999999999               0.000010304               0.000153665               0.999999999               0.000008378               0.000156786               0.999999999               0.000005125               0.000162923               0.999999999               0.000001303               0.000171325               0.999999999              -0.000002786               0.000181542               0.999999999              -0.000007117               0.000193404               0.999999999              -0.000011791               0.000206625               0.999999999              -0.000016874               0.000221083               0.999999999              -0.000022243               0.000236664               0.999999999              -0.000027575               0.000253346               0.999999999              -0.000032895               0.000270955               0.999999999              -0.000038218               0.000289536               0.999999999              -0.000043565               0.000309142               0.999999999              -0.000049124               0.000329848               0.999999999              -0.000054821               0.000351789               0.999999999               0.000002056               0.000170232               0.999999999               0.000008449               0.000164980               0.999999999               0.000009619               0.000164158               0.999999999               0.000008359               0.000166861               0.999999999               0.000005865               0.000172305               0.999999999               0.000002799               0.000179821               0.999999999              -0.000000446               0.000189096               0.999999999              -0.000003888               0.000199903               0.999999999              -0.000007535               0.000212064               0.999999999              -0.000011457               0.000225333               0.999999999              -0.000015600               0.000239654               0.999999999              -0.000019960               0.000254998               0.999999999              -0.000024254               0.000271382               0.999999999              -0.000028509               0.000288840               0.999999999              -0.000032772               0.000307408               0.999999999              -0.000036814               0.000327056               0.999999999              -0.000040607               0.000347831               0.999999999               0.000001438               0.000176625               0.999999999               0.000006813               0.000173433               0.999999999               0.000008117               0.000173172               0.999999999               0.000007413               0.000175766               0.999999999               0.000005652               0.000180785               0.999999999               0.000003374               0.000187717               0.999999999               0.000000966               0.000196314               0.999999999              -0.000001571               0.000206319               0.999999999              -0.000004255               0.000217564               0.999999999              -0.000007182               0.000229917               0.999999999              -0.000010236               0.000243258               0.999999999              -0.000013404               0.000257618               0.999999999              -0.000016658               0.000273081               0.999999999              -0.000019838               0.000289669               0.999999999              -0.000022914               0.000307481               0.999999999              -0.000025675               0.000326421               0.999999999              -0.000027845               0.000346391               0.999999999               0.000000890               0.000181253               0.999999999               0.000004782               0.000179767               0.999999999               0.000005883               0.000180164               0.999999999               0.000005560               0.000182817               0.999999999               0.000004450               0.000187601               0.999999999               0.000002999               0.000194226               0.999999999               0.000001360               0.000202371               0.999999999              -0.000000267               0.000211850               0.999999999              -0.000002107               0.000222429               0.999999999              -0.000004021               0.000234072               0.999999999              -0.000006001               0.000246818               0.999999999              -0.000007966               0.000260668               0.999999999              -0.000010140               0.000275600               0.999999999              -0.000012356               0.000291676               0.999999999              -0.000014279               0.000308978               0.999999999              -0.000015850               0.000327500               0.999999999              -0.000016853               0.000346991               0.999999999               0.000000422               0.000184099               0.999999999               0.000002475               0.000183712               0.999999999               0.000003080               0.000184575               0.999999999               0.000002987               0.000187349               0.999999999               0.000002464               0.000192060               0.999999999               0.000001731               0.000198509               0.999999999               0.000000953               0.000206431               0.999999999               0.000000103               0.000215611               0.999999999              -0.000000797               0.000225846               0.999999999              -0.000001797               0.000237139               0.999999999              -0.000002649               0.000249536               0.999999999              -0.000003650               0.000263062               0.999999999              -0.000004722               0.000277805               0.999999999              -0.000005860               0.000293809               0.999999999              -0.000006902               0.000310896               0.999999999              -0.000007459               0.000329091               0.999999999              -0.000007620               0.000348285               0.999999999              -0.000000000               0.000185047               0.999999999              -0.000000000               0.000185020               0.999999999              -0.000000000               0.000186069               0.999999999              -0.000000000               0.000188943               0.999999999              -0.000000000               0.000193612               0.999999999              -0.000000000               0.000200010               0.999999999               0.000000000               0.000207877               0.999999999               0.000000000               0.000216939               0.999999999               0.000000000               0.000227079               0.999999999               0.000000000               0.000238274               0.999999999               0.000000000               0.000250515               0.999999999               0.000000000               0.000263991               0.999999999              -0.000000000               0.000278719               0.999999999              -0.000000000               0.000294698               0.999999999              -0.000000000               0.000311834               0.999999999              -0.000000000               0.000329835               0.999999999              -0.000000000               0.000348754               0.999999999               0.000009062              -0.000000000               0.999999999               0.000001881               0.000000000               0.999999999              -0.000001423              -0.000000000               0.999999999              -0.000003058              -0.000000000               0.999999999              -0.000004047               0.000000000               0.999999999              -0.000004887               0.000000000               0.999999999              -0.000005883               0.000000000               0.999999999              -0.000007216              -0.000000000               0.999999999              -0.000008950              -0.000000000               0.999999999              -0.000011112               0.000000000               0.999999999              -0.000013756               0.000000000               0.999999999              -0.000016905               0.000000000               0.999999999              -0.000020542               0.000000000               0.999999999              -0.000024776              -0.000000000               0.999999999              -0.000029519              -0.000000000               0.999999999              -0.000034631              -0.000000000               0.999999999              -0.000040168              -0.000000000               0.999999999               0.000008990              -0.000017954               0.999999999               0.000002017              -0.000016190               0.999999999              -0.000001173              -0.000015739               0.999999999              -0.000002761              -0.000016066               0.999999999              -0.000003788              -0.000016947               0.999999999              -0.000004748              -0.000018232               0.999999999              -0.000005872              -0.000019825               0.999999999              -0.000007360              -0.000021695               0.999999999              -0.000009244              -0.000023778               0.999999999              -0.000011577              -0.000026065               0.999999999              -0.000014410              -0.000028581               0.999999999              -0.000017750              -0.000031398               0.999999999              -0.000021660              -0.000034335               0.999999999              -0.000026068              -0.000037400               0.999999999              -0.000030894              -0.000040465               0.999999999              -0.000036150              -0.000043720               0.999999999              -0.000041842              -0.000047242               0.999999999               0.000008752              -0.000035765               0.999999999               0.000002461              -0.000032205               0.999999999              -0.000000375              -0.000031370               0.999999999              -0.000001939              -0.000032132               0.999999999              -0.000003137              -0.000033945               0.999999999              -0.000004382              -0.000036569               0.999999999              -0.000005922              -0.000039797               0.999999999              -0.000007863              -0.000043536               0.999999999              -0.000010219              -0.000047657               0.999999999              -0.000013058              -0.000052255               0.999999999              -0.000016435              -0.000057285               0.999999999              -0.000020354              -0.000062810               0.999999999              -0.000024782              -0.000068661               0.999999999              -0.000029682              -0.000074615               0.999999999              -0.000035021              -0.000080602               0.999999999              -0.000040749              -0.000086973               0.999999999              -0.000046860              -0.000093860               0.999999999               0.000008374              -0.000053251               0.999999999               0.000003230              -0.000047878               0.999999999               0.000000866              -0.000046815               0.999999999              -0.000000711              -0.000048150               0.999999999              -0.000002229              -0.000051029               0.999999999              -0.000004026              -0.000055048               0.999999999              -0.000006211              -0.000059935               0.999999999              -0.000008852              -0.000065508               0.999999999              -0.000011972              -0.000071746               0.999999999              -0.000015601              -0.000078601               0.999999999              -0.000019797              -0.000086164               0.999999999              -0.000024526              -0.000094376               0.999999999              -0.000029742              -0.000102918               0.999999999              -0.000035378              -0.000111584               0.999999999              -0.000041357              -0.000120330               0.999999999              -0.000047703              -0.000129631               0.999999999              -0.000054377              -0.000139393               0.999999999               0.000007917              -0.000070222               0.999999999               0.000004301              -0.000063101               0.999999999               0.000002421              -0.000062023               0.999999999               0.000000711              -0.000064088               0.999999999              -0.000001325              -0.000068198               0.999999999              -0.000003823              -0.000073680               0.999999999              -0.000006850              -0.000080276               0.999999999              -0.000010436              -0.000087754               0.999999999              -0.000014507              -0.000096048               0.999999999              -0.000019135              -0.000105205               0.999999999              -0.000024312              -0.000115250               0.999999999              -0.000029964              -0.000125982               0.999999999              -0.000036034              -0.000137026               0.999999999              -0.000042401              -0.000148176               0.999999999              -0.000049078              -0.000159535               0.999999999              -0.000056101              -0.000171416               0.999999999              -0.000063414              -0.000183654               0.999999999               0.000007407              -0.000086509               0.999999999               0.000005589              -0.000077778               0.999999999               0.000004095              -0.000076892               0.999999999               0.000002101              -0.000079901               0.999999999              -0.000000610              -0.000085346               0.999999999              -0.000003979              -0.000092402               0.999999999              -0.000007964              -0.000100757               0.999999999              -0.000012501              -0.000110112               0.999999999              -0.000017620              -0.000120580               0.999999999              -0.000023295              -0.000132067               0.999999999              -0.000029460              -0.000144632               0.999999999              -0.000036044              -0.000157736               0.999999999              -0.000042835              -0.000171137               0.999999999              -0.000049903              -0.000184666               0.999999999              -0.000057302              -0.000198680               0.999999999              -0.000065070              -0.000213268               0.999999999              -0.000073215              -0.000228219               0.999999999               0.000006840              -0.000101933               0.999999999               0.000006982              -0.000091838               0.999999999               0.000005702              -0.000091348               0.999999999               0.000003218              -0.000095446               0.999999999              -0.000000275              -0.000102277               0.999999999              -0.000004549              -0.000111001               0.999999999              -0.000009443              -0.000121196               0.999999999              -0.000014991              -0.000132666               0.999999999              -0.000021138              -0.000145402               0.999999999              -0.000027774              -0.000159355               0.999999999              -0.000034916              -0.000174287               0.999999999              -0.000042309              -0.000189666               0.999999999              -0.000049869              -0.000205330               0.999999999              -0.000057732              -0.000221456               0.999999999              -0.000066001              -0.000238356               0.999999999              -0.000074675              -0.000255934               0.999999999              -0.000083784              -0.000273971               0.999999999               0.000006232              -0.000116305               0.999999999               0.000008330              -0.000105236               0.999999999               0.000007059              -0.000105290               0.999999999               0.000003927              -0.000110507               0.999999999              -0.000000384              -0.000118809               0.999999999              -0.000005538              -0.000129347               0.999999999              -0.000011330              -0.000141532               0.999999999              -0.000017745              -0.000155243               0.999999999              -0.000024751              -0.000170359               0.999999999              -0.000032367              -0.000186859               0.999999999              -0.000040318              -0.000204222               0.999999999              -0.000048441              -0.000222043               0.999999999              -0.000056789              -0.000240383               0.999999999              -0.000065523              -0.000259624               0.999999999              -0.000074732              -0.000279835               0.999999999              -0.000084366              -0.000300807               0.999999999              -0.000094423              -0.000322310               0.999999999               0.000005492              -0.000129356               0.999999999               0.000009547              -0.000117934               0.999999999               0.000008020              -0.000118555               0.999999999               0.000004157              -0.000124920               0.999999999              -0.000000974              -0.000134817               0.999999999              -0.000006882              -0.000147218               0.999999999              -0.000013430              -0.000161548               0.999999999              -0.000020613              -0.000177684               0.999999999              -0.000028488              -0.000195454               0.999999999              -0.000036941              -0.000214540               0.999999999              -0.000045527              -0.000234555               0.999999999              -0.000054204              -0.000255332               0.999999999              -0.000063246              -0.000277089               0.999999999              -0.000072768              -0.000300057               0.999999999              -0.000082703              -0.000324277               0.999999999              -0.000092968              -0.000349451               0.999999999              -0.000103551              -0.000375244               0.999999999               0.000004506              -0.000141548               0.999999999               0.000010160              -0.000130964               0.999999999               0.000009407              -0.000130398               0.999999999               0.000006090              -0.000135404               0.999999999               0.000001502              -0.000143856               0.999999999              -0.000003726              -0.000154755               0.999999999              -0.000009438              -0.000167601               0.999999999              -0.000015619              -0.000182138               0.999999999              -0.000022402              -0.000198208               0.999999999              -0.000029781              -0.000215647               0.999999999              -0.000037358              -0.000234236               0.999999999              -0.000044964              -0.000253599               0.999999999              -0.000052622              -0.000273944               0.999999999              -0.000060360              -0.000295284               0.999999999              -0.000068481              -0.000317988               0.999999999              -0.000077146              -0.000341852               0.999999999              -0.000086254              -0.000366811               0.999999999               0.000003620              -0.000152580               0.999999999               0.000010171              -0.000143337               0.999999999               0.000010199              -0.000142236               0.999999999               0.000007572              -0.000146145               0.999999999               0.000003603              -0.000153297               0.999999999              -0.000000952              -0.000162832               0.999999999              -0.000005824              -0.000174289               0.999999999              -0.000011080              -0.000187391               0.999999999              -0.000016812              -0.000201924               0.999999999              -0.000023075              -0.000217795               0.999999999              -0.000029564              -0.000234829               0.999999999              -0.000036063              -0.000252856               0.999999999              -0.000042416              -0.000271810               0.999999999              -0.000048804              -0.000291720               0.999999999              -0.000055444              -0.000312721               0.999999999              -0.000062555              -0.000334977               0.999999999              -0.000070100              -0.000358491               0.999999999               0.000002787              -0.000162184               0.999999999               0.000009592              -0.000154806               0.999999999               0.000010304              -0.000153665               0.999999999               0.000008378              -0.000156786               0.999999999               0.000005125              -0.000162923               0.999999999               0.000001303              -0.000171325               0.999999999              -0.000002786              -0.000181542               0.999999999              -0.000007117              -0.000193404               0.999999999              -0.000011791              -0.000206625               0.999999999              -0.000016874              -0.000221083               0.999999999              -0.000022243              -0.000236664               0.999999999              -0.000027575              -0.000253346               0.999999999              -0.000032895              -0.000270955               0.999999999              -0.000038218              -0.000289536               0.999999999              -0.000043565              -0.000309142               0.999999999              -0.000049124              -0.000329848               0.999999999              -0.000054821              -0.000351789               0.999999999               0.000002056              -0.000170232               0.999999999               0.000008449              -0.000164980               0.999999999               0.000009619              -0.000164158               0.999999999               0.000008359              -0.000166861               0.999999999               0.000005865              -0.000172305               0.999999999               0.000002799              -0.000179821               0.999999999              -0.000000446              -0.000189096               0.999999999              -0.000003888              -0.000199903               0.999999999              -0.000007535              -0.000212064               0.999999999              -0.000011457              -0.000225333               0.999999999              -0.000015600              -0.000239654               0.999999999              -0.000019960              -0.000254998               0.999999999              -0.000024254              -0.000271382               0.999999999              -0.000028509              -0.000288840               0.999999999              -0.000032772              -0.000307408               0.999999999              -0.000036814              -0.000327056               0.999999999              -0.000040607              -0.000347831               0.999999999               0.000001438              -0.000176625               0.999999999               0.000006813              -0.000173433               0.999999999               0.000008117              -0.000173172               0.999999999               0.000007413              -0.000175766               0.999999999               0.000005652              -0.000180785               0.999999999               0.000003374              -0.000187717               0.999999999               0.000000966              -0.000196314               0.999999999              -0.000001571              -0.000206319               0.999999999              -0.000004255              -0.000217564               0.999999999              -0.000007182              -0.000229917               0.999999999              -0.000010236              -0.000243258               0.999999999              -0.000013404              -0.000257618               0.999999999              -0.000016658              -0.000273081               0.999999999              -0.000019838              -0.000289669               0.999999999              -0.000022914              -0.000307481               0.999999999              -0.000025675              -0.000326421               0.999999999              -0.000027845              -0.000346391               0.999999999               0.000000890              -0.000181253               0.999999999               0.000004782              -0.000179767               0.999999999               0.000005883              -0.000180164               0.999999999               0.000005560              -0.000182817               0.999999999               0.000004450              -0.000187601               0.999999999               0.000002999              -0.000194226               0.999999999               0.000001360              -0.000202371               0.999999999              -0.000000267              -0.000211850               0.999999999              -0.000002107              -0.000222429               0.999999999              -0.000004021              -0.000234072               0.999999999              -0.000006001              -0.000246818               0.999999999              -0.000007966              -0.000260668               0.999999999              -0.000010140              -0.000275600               0.999999999              -0.000012356              -0.000291676               0.999999999              -0.000014279              -0.000308978               0.999999999              -0.000015850              -0.000327500               0.999999999              -0.000016853              -0.000346991               0.999999999               0.000000422              -0.000184099               0.999999999               0.000002475              -0.000183712               0.999999999               0.000003080              -0.000184575               0.999999999               0.000002987              -0.000187349               0.999999999               0.000002464              -0.000192060               0.999999999               0.000001731              -0.000198509               0.999999999               0.000000953              -0.000206431               0.999999999               0.000000103              -0.000215611               0.999999999              -0.000000797              -0.000225846               0.999999999              -0.000001797              -0.000237139               0.999999999              -0.000002649              -0.000249536               0.999999999              -0.000003650              -0.000263062               0.999999999              -0.000004722              -0.000277805               0.999999999              -0.000005860              -0.000293809               0.999999999              -0.000006902              -0.000310896               0.999999999              -0.000007459              -0.000329091               0.999999999              -0.000007620              -0.000348285               0.999999999              -0.000000000              -0.000185047               0.999999999               0.000000000              -0.000185020               0.999999999              -0.000000000              -0.000186069               0.999999999               0.000000000              -0.000188943               0.999999999              -0.000000000              -0.000193612               0.999999999              -0.000000000              -0.000200010               0.999999999               0.000000000              -0.000207877               0.999999999              -0.000000000              -0.000216939               0.999999999               0.000000000              -0.000227079               0.999999999               0.000000000              -0.000238274               0.999999999              -0.000000000              -0.000250515               0.999999999               0.000000000              -0.000263991               0.999999999               0.000000000              -0.000278719               0.999999999               0.000000000              -0.000294698               0.999999999              -0.000000000              -0.000311834               0.999999999               0.000000000              -0.000329835               0.999999999               0.000000000              -0.000348754               0.999999999              -0.000009062               0.000000000               0.999999999              -0.000001881              -0.000000000               0.999999999               0.000001423               0.000000000               0.999999999               0.000003058               0.000000000               0.999999999               0.000004047               0.000000000               0.999999999               0.000004887               0.000000000               0.999999999               0.000005883               0.000000000               0.999999999               0.000007216               0.000000000               0.999999999               0.000008950               0.000000000               0.999999999               0.000011112               0.000000000               0.999999999               0.000013756               0.000000000               0.999999999               0.000016905               0.000000000               0.999999999               0.000020542               0.000000000               0.999999999               0.000024776               0.000000000               0.999999999               0.000029519               0.000000000               0.999999999               0.000034631               0.000000000               0.999999999               0.000040168               0.000000000               0.999999999              -0.000008990              -0.000017954               0.999999999              -0.000002017              -0.000016190               0.999999999               0.000001173              -0.000015739               0.999999999               0.000002761              -0.000016066               0.999999999               0.000003788              -0.000016947               0.999999999               0.000004748              -0.000018232               0.999999999               0.000005872              -0.000019825               0.999999999               0.000007360              -0.000021695               0.999999999               0.000009244              -0.000023778               0.999999999               0.000011577              -0.000026065               0.999999999               0.000014410              -0.000028581               0.999999999               0.000017750              -0.000031398               0.999999999               0.000021660              -0.000034335               0.999999999               0.000026068              -0.000037400               0.999999999               0.000030894              -0.000040465               0.999999999               0.000036150              -0.000043720               0.999999999               0.000041842              -0.000047242               0.999999999              -0.000008752              -0.000035765               0.999999999              -0.000002461              -0.000032205               0.999999999               0.000000375              -0.000031370               0.999999999               0.000001939              -0.000032132               0.999999999               0.000003137              -0.000033945               0.999999999               0.000004382              -0.000036569               0.999999999               0.000005922              -0.000039797               0.999999999               0.000007863              -0.000043536               0.999999999               0.000010219              -0.000047657               0.999999999               0.000013058              -0.000052255               0.999999999               0.000016435              -0.000057285               0.999999999               0.000020354              -0.000062810               0.999999999               0.000024782              -0.000068661               0.999999999               0.000029682              -0.000074615               0.999999999               0.000035021              -0.000080602               0.999999999               0.000040749              -0.000086973               0.999999999               0.000046860              -0.000093860               0.999999999              -0.000008374              -0.000053251               0.999999999              -0.000003230              -0.000047878               0.999999999              -0.000000866              -0.000046815               0.999999999               0.000000711              -0.000048150               0.999999999               0.000002229              -0.000051029               0.999999999               0.000004026              -0.000055048               0.999999999               0.000006211              -0.000059935               0.999999999               0.000008852              -0.000065508               0.999999999               0.000011972              -0.000071746               0.999999999               0.000015601              -0.000078601               0.999999999               0.000019797              -0.000086164               0.999999999               0.000024526              -0.000094376               0.999999999               0.000029742              -0.000102918               0.999999999               0.000035378              -0.000111584               0.999999999               0.000041357              -0.000120330               0.999999999               0.000047703              -0.000129631               0.999999999               0.000054377              -0.000139393               0.999999999              -0.000007917              -0.000070222               0.999999999              -0.000004301              -0.000063101               0.999999999              -0.000002421              -0.000062023               0.999999999              -0.000000711              -0.000064088               0.999999999               0.000001325              -0.000068198               0.999999999               0.000003823              -0.000073680               0.999999999               0.000006850              -0.000080276               0.999999999               0.000010436              -0.000087754               0.999999999               0.000014507              -0.000096048               0.999999999               0.000019135              -0.000105205               0.999999999               0.000024312              -0.000115250               0.999999999               0.000029964              -0.000125982               0.999999999               0.000036034              -0.000137026               0.999999999               0.000042401              -0.000148176               0.999999999               0.000049078              -0.000159535               0.999999999               0.000056101              -0.000171416               0.999999999               0.000063414              -0.000183654               0.999999999              -0.000007407              -0.000086509               0.999999999              -0.000005589              -0.000077778               0.999999999              -0.000004095              -0.000076892               0.999999999              -0.000002101              -0.000079901               0.999999999               0.000000610              -0.000085346               0.999999999               0.000003979              -0.000092402               0.999999999               0.000007964              -0.000100757               0.999999999               0.000012501              -0.000110112               0.999999999               0.000017620              -0.000120580               0.999999999               0.000023295              -0.000132067               0.999999999               0.000029460              -0.000144632               0.999999999               0.000036044              -0.000157736               0.999999999               0.000042835              -0.000171137               0.999999999               0.000049903              -0.000184666               0.999999999               0.000057302              -0.000198680               0.999999999               0.000065070              -0.000213268               0.999999999               0.000073215              -0.000228219               0.999999999              -0.000006840              -0.000101933               0.999999999              -0.000006982              -0.000091838               0.999999999              -0.000005702              -0.000091348               0.999999999              -0.000003218              -0.000095446               0.999999999               0.000000275              -0.000102277               0.999999999               0.000004549              -0.000111001               0.999999999               0.000009443              -0.000121196               0.999999999               0.000014991              -0.000132666               0.999999999               0.000021138              -0.000145402               0.999999999               0.000027774              -0.000159355               0.999999999               0.000034916              -0.000174287               0.999999999               0.000042309              -0.000189666               0.999999999               0.000049869              -0.000205330               0.999999999               0.000057732              -0.000221456               0.999999999               0.000066001              -0.000238356               0.999999999               0.000074675              -0.000255934               0.999999999               0.000083784              -0.000273971               0.999999999              -0.000006232              -0.000116305               0.999999999              -0.000008330              -0.000105236               0.999999999              -0.000007059              -0.000105290               0.999999999              -0.000003927              -0.000110507               0.999999999               0.000000384              -0.000118809               0.999999999               0.000005538              -0.000129347               0.999999999               0.000011330              -0.000141532               0.999999999               0.000017745              -0.000155243               0.999999999               0.000024751              -0.000170359               0.999999999               0.000032367              -0.000186859               0.999999999               0.000040318              -0.000204222               0.999999999               0.000048441              -0.000222043               0.999999999               0.000056789              -0.000240383               0.999999999               0.000065523              -0.000259624               0.999999999               0.000074732              -0.000279835               0.999999999               0.000084366              -0.000300807               0.999999999               0.000094423              -0.000322310               0.999999999              -0.000005492              -0.000129356               0.999999999              -0.000009547              -0.000117934               0.999999999              -0.000008020              -0.000118555               0.999999999              -0.000004157              -0.000124920               0.999999999               0.000000974              -0.000134817               0.999999999               0.000006882              -0.000147218               0.999999999               0.000013430              -0.000161548               0.999999999               0.000020613              -0.000177684               0.999999999               0.000028488              -0.000195454               0.999999999               0.000036941              -0.000214540               0.999999999               0.000045527              -0.000234555               0.999999999               0.000054204              -0.000255332               0.999999999               0.000063246              -0.000277089               0.999999999               0.000072768              -0.000300057               0.999999999               0.000082703              -0.000324277               0.999999999               0.000092968              -0.000349451               0.999999999               0.000103551              -0.000375244               0.999999999              -0.000004506              -0.000141548               0.999999999              -0.000010160              -0.000130964               0.999999999              -0.000009407              -0.000130398               0.999999999              -0.000006090              -0.000135404               0.999999999              -0.000001502              -0.000143856               0.999999999               0.000003726              -0.000154755               0.999999999               0.000009438              -0.000167601               0.999999999               0.000015619              -0.000182138               0.999999999               0.000022402              -0.000198208               0.999999999               0.000029781              -0.000215647               0.999999999               0.000037358              -0.000234236               0.999999999               0.000044964              -0.000253599               0.999999999               0.000052622              -0.000273944               0.999999999               0.000060360              -0.000295284               0.999999999               0.000068481              -0.000317988               0.999999999               0.000077146              -0.000341852               0.999999999               0.000086254              -0.000366811               0.999999999              -0.000003620              -0.000152580               0.999999999              -0.000010171              -0.000143337               0.999999999              -0.000010199              -0.000142236               0.999999999              -0.000007572              -0.000146145               0.999999999              -0.000003603              -0.000153297               0.999999999               0.000000952              -0.000162832               0.999999999               0.000005824              -0.000174289               0.999999999               0.000011080              -0.000187391               0.999999999               0.000016812              -0.000201924               0.999999999               0.000023075              -0.000217795               0.999999999               0.000029564              -0.000234829               0.999999999               0.000036063              -0.000252856               0.999999999               0.000042416              -0.000271810               0.999999999               0.000048804              -0.000291720               0.999999999               0.000055444              -0.000312721               0.999999999               0.000062555              -0.000334977               0.999999999               0.000070100              -0.000358491               0.999999999              -0.000002787              -0.000162184               0.999999999              -0.000009592              -0.000154806               0.999999999              -0.000010304              -0.000153665               0.999999999              -0.000008378              -0.000156786               0.999999999              -0.000005125              -0.000162923               0.999999999              -0.000001303              -0.000171325               0.999999999               0.000002786              -0.000181542               0.999999999               0.000007117              -0.000193404               0.999999999               0.000011791              -0.000206625               0.999999999               0.000016874              -0.000221083               0.999999999               0.000022243              -0.000236664               0.999999999               0.000027575              -0.000253346               0.999999999               0.000032895              -0.000270955               0.999999999               0.000038218              -0.000289536               0.999999999               0.000043565              -0.000309142               0.999999999               0.000049124              -0.000329848               0.999999999               0.000054821              -0.000351789               0.999999999              -0.000002056              -0.000170232               0.999999999              -0.000008449              -0.000164980               0.999999999              -0.000009619              -0.000164158               0.999999999              -0.000008359              -0.000166861               0.999999999              -0.000005865              -0.000172305               0.999999999              -0.000002799              -0.000179821               0.999999999               0.000000446              -0.000189096               0.999999999               0.000003888              -0.000199903               0.999999999               0.000007535              -0.000212064               0.999999999               0.000011457              -0.000225333               0.999999999               0.000015600              -0.000239654               0.999999999               0.000019960              -0.000254998               0.999999999               0.000024254              -0.000271382               0.999999999               0.000028509              -0.000288840               0.999999999               0.000032772              -0.000307408               0.999999999               0.000036814              -0.000327056               0.999999999               0.000040607              -0.000347831               0.999999999              -0.000001438              -0.000176625               0.999999999              -0.000006813              -0.000173433               0.999999999              -0.000008117              -0.000173172               0.999999999              -0.000007413              -0.000175766               0.999999999              -0.000005652              -0.000180785               0.999999999              -0.000003374              -0.000187717               0.999999999              -0.000000966              -0.000196314               0.999999999               0.000001571              -0.000206319               0.999999999               0.000004255              -0.000217564               0.999999999               0.000007182              -0.000229917               0.999999999               0.000010236              -0.000243258               0.999999999               0.000013404              -0.000257618               0.999999999               0.000016658              -0.000273081               0.999999999               0.000019838              -0.000289669               0.999999999               0.000022914              -0.000307481               0.999999999               0.000025675              -0.000326421               0.999999999               0.000027845              -0.000346391               0.999999999              -0.000000890              -0.000181253               0.999999999              -0.000004782              -0.000179767               0.999999999              -0.000005883              -0.000180164               0.999999999              -0.000005560              -0.000182817               0.999999999              -0.000004450              -0.000187601               0.999999999              -0.000002999              -0.000194226               0.999999999              -0.000001360              -0.000202371               0.999999999               0.000000267              -0.000211850               0.999999999               0.000002107              -0.000222429               0.999999999               0.000004021              -0.000234072               0.999999999               0.000006001              -0.000246818               0.999999999               0.000007966              -0.000260668               0.999999999               0.000010140              -0.000275600               0.999999999               0.000012356              -0.000291676               0.999999999               0.000014279              -0.000308978               0.999999999               0.000015850              -0.000327500               0.999999999               0.000016853              -0.000346991               0.999999999              -0.000000422              -0.000184099               0.999999999              -0.000002475              -0.000183712               0.999999999              -0.000003080              -0.000184575               0.999999999              -0.000002987              -0.000187349               0.999999999              -0.000002464              -0.000192060               0.999999999              -0.000001731              -0.000198509               0.999999999              -0.000000953              -0.000206431               0.999999999              -0.000000103              -0.000215611               0.999999999               0.000000797              -0.000225846               0.999999999               0.000001797              -0.000237139               0.999999999               0.000002649              -0.000249536               0.999999999               0.000003650              -0.000263062               0.999999999               0.000004722              -0.000277805               0.999999999               0.000005860              -0.000293809               0.999999999               0.000006902              -0.000310896               0.999999999               0.000007459              -0.000329091               0.999999999               0.000007620              -0.000348285               0.999999999              -0.000000000              -0.000185047               0.999999999               0.000000000              -0.000185020               0.999999999              -0.000000000              -0.000186069               0.999999999               0.000000000              -0.000188943               0.999999999              -0.000000000              -0.000193612               0.999999999              -0.000000000              -0.000200010               0.999999999               0.000000000              -0.000207877               0.999999999              -0.000000000              -0.000216939               0.999999999               0.000000000              -0.000227079               0.999999999               0.000000000              -0.000238274               0.999999999              -0.000000000              -0.000250515               0.999999999               0.000000000              -0.000263991               0.999999999               0.000000000              -0.000278719               0.999999999               0.000000000              -0.000294698               0.999999999              -0.000000000              -0.000311834               0.999999999               0.000000000              -0.000329835               0.999999999               0.000000000              -0.000348754               0.999999999              -0.000009062               0.000000000               0.999999999              -0.000001881              -0.000000000               0.999999999               0.000001423               0.000000000               0.999999999               0.000003058               0.000000000               0.999999999               0.000004047               0.000000000               0.999999999               0.000004887               0.000000000               0.999999999               0.000005883               0.000000000               0.999999999               0.000007216               0.000000000               0.999999999               0.000008950               0.000000000               0.999999999               0.000011112               0.000000000               0.999999999               0.000013756               0.000000000               0.999999999               0.000016905               0.000000000               0.999999999               0.000020542               0.000000000               0.999999999               0.000024776               0.000000000               0.999999999               0.000029519               0.000000000               0.999999999               0.000034631               0.000000000               0.999999999               0.000040168               0.000000000               0.999999999              -0.000008990               0.000017954               0.999999999              -0.000002017               0.000016190               0.999999999               0.000001173               0.000015739               0.999999999               0.000002761               0.000016066               0.999999999               0.000003788               0.000016947               0.999999999               0.000004748               0.000018232               0.999999999               0.000005872               0.000019825               0.999999999               0.000007360               0.000021695               0.999999999               0.000009244               0.000023778               0.999999999               0.000011577               0.000026065               0.999999999               0.000014410               0.000028581               0.999999999               0.000017750               0.000031398               0.999999999               0.000021660               0.000034335               0.999999999               0.000026068               0.000037400               0.999999999               0.000030894               0.000040465               0.999999999               0.000036150               0.000043720               0.999999999               0.000041842               0.000047242               0.999999999              -0.000008752               0.000035765               0.999999999              -0.000002461               0.000032205               0.999999999               0.000000375               0.000031370               0.999999999               0.000001939               0.000032132               0.999999999               0.000003137               0.000033945               0.999999999               0.000004382               0.000036569               0.999999999               0.000005922               0.000039797               0.999999999               0.000007863               0.000043536               0.999999999               0.000010219               0.000047657               0.999999999               0.000013058               0.000052255               0.999999999               0.000016435               0.000057285               0.999999999               0.000020354               0.000062810               0.999999999               0.000024782               0.000068661               0.999999999               0.000029682               0.000074615               0.999999999               0.000035021               0.000080602               0.999999999               0.000040749               0.000086973               0.999999999               0.000046860               0.000093860               0.999999999              -0.000008374               0.000053251               0.999999999              -0.000003230               0.000047878               0.999999999              -0.000000866               0.000046815               0.999999999               0.000000711               0.000048150               0.999999999               0.000002229               0.000051029               0.999999999               0.000004026               0.000055048               0.999999999               0.000006211               0.000059935               0.999999999               0.000008852               0.000065508               0.999999999               0.000011972               0.000071746               0.999999999               0.000015601               0.000078601               0.999999999               0.000019797               0.000086164               0.999999999               0.000024526               0.000094376               0.999999999               0.000029742               0.000102918               0.999999999               0.000035378               0.000111584               0.999999999               0.000041357               0.000120330               0.999999999               0.000047703               0.000129631               0.999999999               0.000054377               0.000139393               0.999999999              -0.000007917               0.000070222               0.999999999              -0.000004301               0.000063101               0.999999999              -0.000002421               0.000062023               0.999999999              -0.000000711               0.000064088               0.999999999               0.000001325               0.000068198               0.999999999               0.000003823               0.000073680               0.999999999               0.000006850               0.000080276               0.999999999               0.000010436               0.000087754               0.999999999               0.000014507               0.000096048               0.999999999               0.000019135               0.000105205               0.999999999               0.000024312               0.000115250               0.999999999               0.000029964               0.000125982               0.999999999               0.000036034               0.000137026               0.999999999               0.000042401               0.000148176               0.999999999               0.000049078               0.000159535               0.999999999               0.000056101               0.000171416               0.999999999               0.000063414               0.000183654               0.999999999              -0.000007407               0.000086509               0.999999999              -0.000005589               0.000077778               0.999999999              -0.000004095               0.000076892               0.999999999              -0.000002101               0.000079901               0.999999999               0.000000610               0.000085346               0.999999999               0.000003979               0.000092402               0.999999999               0.000007964               0.000100757               0.999999999               0.000012501               0.000110112               0.999999999               0.000017620               0.000120580               0.999999999               0.000023295               0.000132067               0.999999999               0.000029460               0.000144632               0.999999999               0.000036044               0.000157736               0.999999999               0.000042835               0.000171137               0.999999999               0.000049903               0.000184666               0.999999999               0.000057302               0.000198680               0.999999999               0.000065070               0.000213268               0.999999999               0.000073215               0.000228219               0.999999999              -0.000006840               0.000101933               0.999999999              -0.000006982               0.000091838               0.999999999              -0.000005702               0.000091348               0.999999999              -0.000003218               0.000095446               0.999999999               0.000000275               0.000102277               0.999999999               0.000004549               0.000111001               0.999999999               0.000009443               0.000121196               0.999999999               0.000014991               0.000132666               0.999999999               0.000021138               0.000145402               0.999999999               0.000027774               0.000159355               0.999999999               0.000034916               0.000174287               0.999999999               0.000042309               0.000189666               0.999999999               0.000049869               0.000205330               0.999999999               0.000057732               0.000221456               0.999999999               0.000066001               0.000238356               0.999999999               0.000074675               0.000255934               0.999999999               0.000083784               0.000273971               0.999999999              -0.000006232               0.000116305               0.999999999              -0.000008330               0.000105236               0.999999999              -0.000007059               0.000105290               0.999999999              -0.000003927               0.000110507               0.999999999               0.000000384               0.000118809               0.999999999               0.000005538               0.000129347               0.999999999               0.000011330               0.000141532               0.999999999               0.000017745               0.000155243               0.999999999               0.000024751               0.000170359               0.999999999               0.000032367               0.000186859               0.999999999               0.000040318               0.000204222               0.999999999               0.000048441               0.000222043               0.999999999               0.000056789               0.000240383               0.999999999               0.000065523               0.000259624               0.999999999               0.000074732               0.000279835               0.999999999               0.000084366               0.000300807               0.999999999               0.000094423               0.000322310               0.999999999              -0.000005492               0.000129356               0.999999999              -0.000009547               0.000117934               0.999999999              -0.000008020               0.000118555               0.999999999              -0.000004157               0.000124920               0.999999999               0.000000974               0.000134817               0.999999999               0.000006882               0.000147218               0.999999999               0.000013430               0.000161548               0.999999999               0.000020613               0.000177684               0.999999999               0.000028488               0.000195454               0.999999999               0.000036941               0.000214540               0.999999999               0.000045527               0.000234555               0.999999999               0.000054204               0.000255332               0.999999999               0.000063246               0.000277089               0.999999999               0.000072768               0.000300057               0.999999999               0.000082703               0.000324277               0.999999999               0.000092968               0.000349451               0.999999999               0.000103551               0.000375244               0.999999999              -0.000004506               0.000141548               0.999999999              -0.000010160               0.000130964               0.999999999              -0.000009407               0.000130398               0.999999999              -0.000006090               0.000135404               0.999999999              -0.000001502               0.000143856               0.999999999               0.000003726               0.000154755               0.999999999               0.000009438               0.000167601               0.999999999               0.000015619               0.000182138               0.999999999               0.000022402               0.000198208               0.999999999               0.000029781               0.000215647               0.999999999               0.000037358               0.000234236               0.999999999               0.000044964               0.000253599               0.999999999               0.000052622               0.000273944               0.999999999               0.000060360               0.000295284               0.999999999               0.000068481               0.000317988               0.999999999               0.000077146               0.000341852               0.999999999               0.000086254               0.000366811               0.999999999              -0.000003620               0.000152580               0.999999999              -0.000010171               0.000143337               0.999999999              -0.000010199               0.000142236               0.999999999              -0.000007572               0.000146145               0.999999999              -0.000003603               0.000153297               0.999999999               0.000000952               0.000162832               0.999999999               0.000005824               0.000174289               0.999999999               0.000011080               0.000187391               0.999999999               0.000016812               0.000201924               0.999999999               0.000023075               0.000217795               0.999999999               0.000029564               0.000234829               0.999999999               0.000036063               0.000252856               0.999999999               0.000042416               0.000271810               0.999999999               0.000048804               0.000291720               0.999999999               0.000055444               0.000312721               0.999999999               0.000062555               0.000334977               0.999999999               0.000070100               0.000358491               0.999999999              -0.000002787               0.000162184               0.999999999              -0.000009592               0.000154806               0.999999999              -0.000010304               0.000153665               0.999999999              -0.000008378               0.000156786               0.999999999              -0.000005125               0.000162923               0.999999999              -0.000001303               0.000171325               0.999999999               0.000002786               0.000181542               0.999999999               0.000007117               0.000193404               0.999999999               0.000011791               0.000206625               0.999999999               0.000016874               0.000221083               0.999999999               0.000022243               0.000236664               0.999999999               0.000027575               0.000253346               0.999999999               0.000032895               0.000270955               0.999999999               0.000038218               0.000289536               0.999999999               0.000043565               0.000309142               0.999999999               0.000049124               0.000329848               0.999999999               0.000054821               0.000351789               0.999999999              -0.000002056               0.000170232               0.999999999              -0.000008449               0.000164980               0.999999999              -0.000009619               0.000164158               0.999999999              -0.000008359               0.000166861               0.999999999              -0.000005865               0.000172305               0.999999999              -0.000002799               0.000179821               0.999999999               0.000000446               0.000189096               0.999999999               0.000003888               0.000199903               0.999999999               0.000007535               0.000212064               0.999999999               0.000011457               0.000225333               0.999999999               0.000015600               0.000239654               0.999999999               0.000019960               0.000254998               0.999999999               0.000024254               0.000271382               0.999999999               0.000028509               0.000288840               0.999999999               0.000032772               0.000307408               0.999999999               0.000036814               0.000327056               0.999999999               0.000040607               0.000347831               0.999999999              -0.000001438               0.000176625               0.999999999              -0.000006813               0.000173433               0.999999999              -0.000008117               0.000173172               0.999999999              -0.000007413               0.000175766               0.999999999              -0.000005652               0.000180785               0.999999999              -0.000003374               0.000187717               0.999999999              -0.000000966               0.000196314               0.999999999               0.000001571               0.000206319               0.999999999               0.000004255               0.000217564               0.999999999               0.000007182               0.000229917               0.999999999               0.000010236               0.000243258               0.999999999               0.000013404               0.000257618               0.999999999               0.000016658               0.000273081               0.999999999               0.000019838               0.000289669               0.999999999               0.000022914               0.000307481               0.999999999               0.000025675               0.000326421               0.999999999               0.000027845               0.000346391               0.999999999              -0.000000890               0.000181253               0.999999999              -0.000004782               0.000179767               0.999999999              -0.000005883               0.000180164               0.999999999              -0.000005560               0.000182817               0.999999999              -0.000004450               0.000187601               0.999999999              -0.000002999               0.000194226               0.999999999              -0.000001360               0.000202371               0.999999999               0.000000267               0.000211850               0.999999999               0.000002107               0.000222429               0.999999999               0.000004021               0.000234072               0.999999999               0.000006001               0.000246818               0.999999999               0.000007966               0.000260668               0.999999999               0.000010140               0.000275600               0.999999999               0.000012356               0.000291676               0.999999999               0.000014279               0.000308978               0.999999999               0.000015850               0.000327500               0.999999999               0.000016853               0.000346991               0.999999999              -0.000000422               0.000184099               0.999999999              -0.000002475               0.000183712               0.999999999              -0.000003080               0.000184575               0.999999999              -0.000002987               0.000187349               0.999999999              -0.000002464               0.000192060               0.999999999              -0.000001731               0.000198509               0.999999999              -0.000000953               0.000206431               0.999999999              -0.000000103               0.000215611               0.999999999               0.000000797               0.000225846               0.999999999               0.000001797               0.000237139               0.999999999               0.000002649               0.000249536               0.999999999               0.000003650               0.000263062               0.999999999               0.000004722               0.000277805               0.999999999               0.000005860               0.000293809               0.999999999               0.000006902               0.000310896               0.999999999               0.000007459               0.000329091               0.999999999               0.000007620               0.000348285               0.999999999              -0.000000000               0.000185047               0.999999999              -0.000000000               0.000185020               0.999999999              -0.000000000               0.000186069               0.999999999              -0.000000000               0.000188943               0.999999999              -0.000000000               0.000193612               0.999999999              -0.000000000               0.000200010               0.999999999               0.000000000               0.000207877               0.999999999               0.000000000               0.000216939               0.999999999               0.000000000               0.000227079               0.999999999               0.000000000               0.000238274               0.999999999               0.000000000               0.000250515               0.999999999               0.000000000               0.000263991               0.999999999              -0.000000000               0.000278719               0.999999999              -0.000000000               0.000294698               0.999999999              -0.000000000               0.000311834               0.999999999              -0.000000000               0.000329835               0.999999999              -0.000000000               0.000348754               0.999999999 </DataArray>
<DataArray type="Float64"                                    Name="stress"                                                      NumberOfComponents="10" format="ascii">
              0.000303178               0.003383526               0.000000000              -0.000309248               0.001230914               0.000921665               0.000000000               0.000000000               0.000000000               0.000000000               0.000353023               0.002824678               0.000000000              -0.000220701               0.001015117               0.000794416               0.000000000               0.000000000               0.000000000               0.000000000               0.000509776               0.002368742               0.000000000              -0.000104926               0.000824548               0.000719622               0.000000000               0.000000000               0.000000000               0.000000000               0.000552725               0.002114115               0.000000000              -0.000056992               0.000723695               0.000666703               0.000000000               0.000000000               0.000000000               0.000000000               0.000545684               0.001967309              -0.000000000              -0.000041282               0.000669524               0.000628242               0.000000000               0.000000000               0.000000000               0.000000000               0.000515240               0.001882511              -0.000000000              -0.000042099               0.000641531               0.000599432               0.000000000               0.000000000               0.000000000               0.000000000               0.000470043               0.001834261               0.000000000              -0.000053016               0.000629086               0.000576070               0.000000000               0.000000000               0.000000000               0.000000000               0.000419438               0.001810950              -0.000000000              -0.000069079               0.000626671               0.000557591               0.000000000               0.000000000               0.000000000               0.000000000               0.000369290               0.001804463              -0.000000000              -0.000087074               0.000630506               0.000543432               0.000000000               0.000000000               0.000000000               0.000000000               0.000317773               0.001809634               0.000000000              -0.000107039               0.000638885               0.000531846               0.000000000               0.000000000               0.000000000               0.000000000               0.000265909               0.001825940               0.000000000              -0.000128526               0.000651483               0.000522956               0.000000000               0.000000000               0.000000000               0.000000000               0.000216123               0.001853157               0.000000000              -0.000150598               0.000667912               0.000517314               0.000000000               0.000000000               0.000000000               0.000000000               0.000163461               0.001882055              -0.000000000              -0.000173959               0.000685331               0.000511373               0.000000000               0.000000000               0.000000000               0.000000000               0.000113053               0.001911558              -0.000000000              -0.000196549               0.000702696               0.000506147               0.000000000               0.000000000               0.000000000               0.000000000               0.000072949               0.001941951              -0.000000000              -0.000215388               0.000719107               0.000503719               0.000000000               0.000000000               0.000000000               0.000000000               0.000037169               0.001976905              -0.000000000              -0.000233174               0.000736686               0.000503512               0.000000000               0.000000000               0.000000000               0.000000000               0.000022460               0.002006042               0.000000000              -0.000242332               0.000749451               0.000507119               0.000000000               0.000000000               0.000000000               0.000000000               0.000322476               0.003332829              -0.000265908              -0.000295675               0.001209490               0.000913815               0.000000000               0.000000000               0.000000000               0.000000000               0.000360545               0.002787641              -0.000180860              -0.000213250               0.001000288               0.000787037               0.000000000               0.000000000               0.000000000               0.000000000               0.000504597               0.002348891              -0.000091585              -0.000104387               0.000817751               0.000713364               0.000000000               0.000000000               0.000000000               0.000000000               0.000541276               0.002105400              -0.000048478              -0.000060196               0.000721858               0.000661662               0.000000000               0.000000000               0.000000000               0.000000000               0.000530282               0.001963891              -0.000026895              -0.000046630               0.000670167               0.000623537               0.000000000               0.000000000               0.000000000               0.000000000               0.000499092               0.001882616              -0.000016576              -0.000048167               0.000643588               0.000595421               0.000000000               0.000000000               0.000000000               0.000000000               0.000455455               0.001836757              -0.000011793              -0.000058799               0.000631846               0.000573047               0.000000000               0.000000000               0.000000000               0.000000000               0.000407025               0.001813892              -0.000009800              -0.000074102               0.000629325               0.000555223               0.000000000               0.000000000               0.000000000               0.000000000               0.000358427               0.001806642              -0.000008653              -0.000091420               0.000632681               0.000541261               0.000000000               0.000000000               0.000000000               0.000000000               0.000307751               0.001812055              -0.000007173              -0.000111100               0.000641046               0.000529946               0.000000000               0.000000000               0.000000000               0.000000000               0.000256820               0.001827817              -0.000004278              -0.000132169               0.000653323               0.000521153               0.000000000               0.000000000               0.000000000               0.000000000               0.000206034               0.001852114              -0.000003330              -0.000154251               0.000668782               0.000514531               0.000000000               0.000000000               0.000000000               0.000000000               0.000156198               0.001879917              -0.000005607              -0.000176415               0.000685438               0.000509023               0.000000000               0.000000000               0.000000000               0.000000000               0.000112125               0.001907616              -0.000009024              -0.000196405               0.000701334               0.000504929               0.000000000               0.000000000               0.000000000               0.000000000               0.000073166               0.001934821              -0.000009261              -0.000214415               0.000716405               0.000501991               0.000000000               0.000000000               0.000000000               0.000000000               0.000036022               0.001966244              -0.000003779              -0.000232272               0.000732832               0.000500560               0.000000000               0.000000000               0.000000000               0.000000000               0.000021314               0.001993347              -0.000000959              -0.000241175               0.000744834               0.000503659               0.000000000               0.000000000               0.000000000               0.000000000               0.000378619               0.003184305              -0.000506575              -0.000256056               0.001146776               0.000890721               0.000000000               0.000000000               0.000000000               0.000000000               0.000382179               0.002680970              -0.000343441              -0.000191804               0.000957582               0.000765779               0.000000000               0.000000000               0.000000000               0.000000000               0.000486771               0.002292053              -0.000174771              -0.000103967               0.000798666               0.000694699               0.000000000               0.000000000               0.000000000               0.000000000               0.000504575               0.002078030              -0.000096412              -0.000070538               0.000716182               0.000645644               0.000000000               0.000000000               0.000000000               0.000000000               0.000487812               0.001953819              -0.000057710              -0.000061298               0.000671699               0.000610401               0.000000000               0.000000000               0.000000000               0.000000000               0.000455453               0.001881432              -0.000038591              -0.000064384               0.000648599               0.000584215               0.000000000               0.000000000               0.000000000               0.000000000               0.000414433               0.001839818              -0.000029623              -0.000074565               0.000638122               0.000563557               0.000000000               0.000000000               0.000000000               0.000000000               0.000371416               0.001818201              -0.000025502              -0.000087994               0.000635392               0.000547398               0.000000000               0.000000000               0.000000000               0.000000000               0.000328020               0.001812480              -0.000022277              -0.000103552               0.000638672               0.000535119               0.000000000               0.000000000               0.000000000               0.000000000               0.000280606               0.001817765              -0.000017913              -0.000121993               0.000646580               0.000524587               0.000000000               0.000000000               0.000000000               0.000000000               0.000232515               0.001833015              -0.000012570              -0.000141933               0.000658310               0.000516377               0.000000000               0.000000000               0.000000000               0.000000000               0.000186530               0.001854192              -0.000009583              -0.000161825               0.000671999               0.000510174               0.000000000               0.000000000               0.000000000               0.000000000               0.000143322               0.001876490              -0.000012695              -0.000180815               0.000685762               0.000504947               0.000000000               0.000000000               0.000000000               0.000000000               0.000103532               0.001896583              -0.000019166              -0.000198248               0.000698271               0.000500023               0.000000000               0.000000000               0.000000000               0.000000000               0.000067003               0.001916819              -0.000018088              -0.000214476               0.000710425               0.000495949               0.000000000               0.000000000               0.000000000               0.000000000               0.000033021               0.001941003              -0.000006917              -0.000230242               0.000723742               0.000493500               0.000000000               0.000000000               0.000000000               0.000000000               0.000019103               0.001960461              -0.000001140              -0.000237893               0.000732778               0.000494885               0.000000000               0.000000000               0.000000000               0.000000000               0.000457940               0.002951266              -0.000699297              -0.000197181               0.001049472               0.000852292               0.000000000               0.000000000               0.000000000               0.000000000               0.000409433               0.002518179              -0.000475046              -0.000161235               0.000893130               0.000731895               0.000000000               0.000000000               0.000000000               0.000000000               0.000456845               0.002208248              -0.000246850              -0.000104714               0.000770980               0.000666266               0.000000000               0.000000000               0.000000000               0.000000000               0.000449843               0.002036601              -0.000143767              -0.000085884               0.000707488               0.000621604               0.000000000               0.000000000               0.000000000               0.000000000               0.000425520               0.001937927              -0.000094036              -0.000082671               0.000673526               0.000590855               0.000000000               0.000000000               0.000000000               0.000000000               0.000393411               0.001877943              -0.000068664              -0.000087214               0.000655046               0.000567832               0.000000000               0.000000000               0.000000000               0.000000000               0.000358154               0.001843124              -0.000055796              -0.000096083               0.000646396               0.000550313               0.000000000               0.000000000               0.000000000               0.000000000               0.000322325               0.001825410              -0.000048124              -0.000107304               0.000644232               0.000536928               0.000000000               0.000000000               0.000000000               0.000000000               0.000285597               0.001821678              -0.000041173              -0.000120610               0.000647423               0.000526813               0.000000000               0.000000000               0.000000000               0.000000000               0.000244490               0.001827575              -0.000032592              -0.000136763               0.000654773               0.000518010               0.000000000               0.000000000               0.000000000               0.000000000               0.000202822               0.001841823              -0.000022961              -0.000154169               0.000665324               0.000511155               0.000000000               0.000000000               0.000000000               0.000000000               0.000163321               0.001857564              -0.000018604              -0.000170950               0.000676165               0.000505215               0.000000000               0.000000000               0.000000000               0.000000000               0.000126564               0.001870272              -0.000021901              -0.000186322               0.000685525               0.000499203               0.000000000               0.000000000               0.000000000               0.000000000               0.000093597               0.001881731              -0.000027068              -0.000200117               0.000693943               0.000493826               0.000000000               0.000000000               0.000000000               0.000000000               0.000061368               0.001894404              -0.000021647              -0.000213787               0.000702724               0.000488937               0.000000000               0.000000000               0.000000000               0.000000000               0.000029124               0.001906651              -0.000007478              -0.000227409               0.000711347               0.000483938               0.000000000               0.000000000               0.000000000               0.000000000               0.000014960               0.001914760              -0.000001442              -0.000233735               0.000716159               0.000482424               0.000000000               0.000000000               0.000000000               0.000000000               0.000541664               0.002657905              -0.000831906              -0.000129115               0.000928997               0.000799883               0.000000000               0.000000000               0.000000000               0.000000000               0.000434022               0.002317871              -0.000570006              -0.000126976               0.000814941               0.000687965               0.000000000               0.000000000               0.000000000               0.000000000               0.000417519               0.002106789              -0.000306846              -0.000106779               0.000737849               0.000631070               0.000000000               0.000000000               0.000000000               0.000000000               0.000386803               0.001986850              -0.000191081              -0.000103305               0.000696712               0.000593407               0.000000000               0.000000000               0.000000000               0.000000000               0.000357400               0.001916865              -0.000135365              -0.000105583               0.000674143               0.000568560               0.000000000               0.000000000               0.000000000               0.000000000               0.000328287               0.001872875              -0.000105503              -0.000111001               0.000661286               0.000550285               0.000000000               0.000000000               0.000000000               0.000000000               0.000297703               0.001846326              -0.000087702              -0.000119152               0.000655153               0.000536001               0.000000000               0.000000000               0.000000000               0.000000000               0.000267870               0.001832915              -0.000074546              -0.000128663               0.000653853               0.000525190               0.000000000               0.000000000               0.000000000               0.000000000               0.000238007               0.001832832              -0.000061672              -0.000139851               0.000657555               0.000517704               0.000000000               0.000000000               0.000000000               0.000000000               0.000204806               0.001841870              -0.000046875              -0.000153431               0.000665094               0.000511663               0.000000000               0.000000000               0.000000000               0.000000000               0.000172309               0.001855437              -0.000033587              -0.000167313               0.000674244               0.000506931               0.000000000               0.000000000               0.000000000               0.000000000               0.000141301               0.001863728              -0.000027728              -0.000179978               0.000681229               0.000501251               0.000000000               0.000000000               0.000000000               0.000000000               0.000112576               0.001868077              -0.000028502              -0.000191293               0.000686450               0.000495157               0.000000000               0.000000000               0.000000000               0.000000000               0.000084696               0.001872382              -0.000028454              -0.000202286               0.000691550               0.000489264               0.000000000               0.000000000               0.000000000               0.000000000               0.000054861               0.001881096              -0.000019491              -0.000214564               0.000698547               0.000483983               0.000000000               0.000000000               0.000000000               0.000000000               0.000024684               0.001888891              -0.000007116              -0.000226854               0.000705242               0.000478388               0.000000000               0.000000000               0.000000000               0.000000000               0.000012331               0.001894656              -0.000003413              -0.000232207               0.000708948               0.000476741               0.000000000               0.000000000               0.000000000               0.000000000               0.000614613               0.002330680              -0.000903120              -0.000060856               0.000797171               0.000736315               0.000000000               0.000000000               0.000000000               0.000000000               0.000451175               0.002098365              -0.000629411              -0.000093105               0.000730483               0.000637378               0.000000000               0.000000000               0.000000000               0.000000000               0.000375006               0.001996562              -0.000355695              -0.000108943               0.000701828               0.000592885               0.000000000               0.000000000               0.000000000               0.000000000               0.000327692               0.001930473              -0.000237584              -0.000118425               0.000682959               0.000564535               0.000000000               0.000000000               0.000000000               0.000000000               0.000294380               0.001886725              -0.000178243              -0.000125448               0.000670718               0.000545270               0.000000000               0.000000000               0.000000000               0.000000000               0.000269330               0.001860433              -0.000143830              -0.000131555               0.000663990               0.000532435               0.000000000               0.000000000               0.000000000               0.000000000               0.000244781               0.001845554              -0.000120202              -0.000138901               0.000661479               0.000522578               0.000000000               0.000000000               0.000000000               0.000000000               0.000219858               0.001842392              -0.000100105              -0.000147852               0.000663408               0.000515557               0.000000000               0.000000000               0.000000000               0.000000000               0.000195058               0.001850664              -0.000079897              -0.000158186               0.000669610               0.000511425               0.000000000               0.000000000               0.000000000               0.000000000               0.000169268               0.001864249              -0.000058564              -0.000169555               0.000677929               0.000508373               0.000000000               0.000000000               0.000000000               0.000000000               0.000144375               0.001874294              -0.000042888              -0.000180146               0.000684807               0.000504661               0.000000000               0.000000000               0.000000000               0.000000000               0.000124541               0.001876517              -0.000035903              -0.000187861               0.000688120               0.000500259               0.000000000               0.000000000               0.000000000               0.000000000               0.000104566               0.001876374              -0.000032752              -0.000195334               0.000690563               0.000495229               0.000000000               0.000000000               0.000000000               0.000000000               0.000079095               0.001881635              -0.000026458              -0.000205543               0.000695720               0.000490177               0.000000000               0.000000000               0.000000000               0.000000000               0.000051831               0.001895577              -0.000014179              -0.000217510               0.000704356               0.000486846               0.000000000               0.000000000               0.000000000               0.000000000               0.000023384               0.001910878              -0.000004768              -0.000230090               0.000713650               0.000483559               0.000000000               0.000000000               0.000000000               0.000000000               0.000012678               0.001923380              -0.000004139              -0.000235668               0.000719676               0.000484008               0.000000000               0.000000000               0.000000000               0.000000000               0.000666354               0.001994267              -0.000917341               0.000000598               0.000664549               0.000665148               0.000000000               0.000000000               0.000000000               0.000000000               0.000461163               0.001878118              -0.000657733              -0.000061829               0.000646643               0.000584813               0.000000000               0.000000000               0.000000000               0.000000000               0.000335705               0.001884543              -0.000395525              -0.000109679               0.000664734               0.000555056               0.000000000               0.000000000               0.000000000               0.000000000               0.000279718               0.001865611              -0.000280845              -0.000128307               0.000664633               0.000536326               0.000000000               0.000000000               0.000000000               0.000000000               0.000247294               0.001848557              -0.000218025              -0.000138334               0.000662291               0.000523957               0.000000000               0.000000000               0.000000000               0.000000000               0.000227675               0.001843279              -0.000177815              -0.000145031               0.000662764               0.000517733               0.000000000               0.000000000               0.000000000               0.000000000               0.000206903               0.001844475              -0.000147217              -0.000152970               0.000665809               0.000512839               0.000000000               0.000000000               0.000000000               0.000000000               0.000183291               0.001855048              -0.000120089              -0.000163146               0.000672725               0.000509579               0.000000000               0.000000000               0.000000000               0.000000000               0.000160948               0.001871433              -0.000092449              -0.000173573               0.000681662               0.000508089               0.000000000               0.000000000               0.000000000               0.000000000               0.000140007               0.001889050              -0.000068251              -0.000183628               0.000690886               0.000507258               0.000000000               0.000000000               0.000000000               0.000000000               0.000121791               0.001896810              -0.000052460              -0.000191429               0.000696073               0.000504644               0.000000000               0.000000000               0.000000000               0.000000000               0.000110537               0.001900559              -0.000044397              -0.000196118               0.000698886               0.000502768               0.000000000               0.000000000               0.000000000               0.000000000               0.000096144               0.001908566              -0.000036590              -0.000202516               0.000703688               0.000501172               0.000000000               0.000000000               0.000000000               0.000000000               0.000074333               0.001928259              -0.000024334              -0.000213157               0.000713799               0.000500642               0.000000000               0.000000000               0.000000000               0.000000000               0.000050787               0.001955114              -0.000010782              -0.000225344               0.000726813               0.000501469               0.000000000               0.000000000               0.000000000               0.000000000               0.000025756               0.001982024              -0.000003414              -0.000238094               0.000740033               0.000501939               0.000000000               0.000000000               0.000000000               0.000000000               0.000016628               0.002002013              -0.000004361              -0.000244016               0.000748670               0.000504654               0.000000000               0.000000000               0.000000000               0.000000000               0.000694696               0.001668352              -0.000882273               0.000051965               0.000538790               0.000590755               0.000000000               0.000000000               0.000000000               0.000000000               0.000464586               0.001669147              -0.000660172              -0.000034424               0.000567851               0.000533427               0.000000000               0.000000000               0.000000000               0.000000000               0.000305166               0.001771700              -0.000427654              -0.000107025               0.000626236               0.000519211               0.000000000               0.000000000               0.000000000               0.000000000               0.000248454               0.001795378              -0.000317394              -0.000131252               0.000642204               0.000510952               0.000000000               0.000000000               0.000000000               0.000000000               0.000221842               0.001808571              -0.000250093              -0.000142880               0.000650478               0.000507597               0.000000000               0.000000000               0.000000000               0.000000000               0.000204209               0.001823464              -0.000202672              -0.000151354               0.000658267               0.000506912               0.000000000               0.000000000               0.000000000               0.000000000               0.000185345               0.001841805              -0.000165003              -0.000160721               0.000667502               0.000506782               0.000000000               0.000000000               0.000000000               0.000000000               0.000161862               0.001866053              -0.000131268              -0.000172558               0.000679531               0.000506973               0.000000000               0.000000000               0.000000000               0.000000000               0.000136897               0.001891833              -0.000100024              -0.000185142               0.000692319               0.000507176               0.000000000               0.000000000               0.000000000               0.000000000               0.000119469               0.001913384              -0.000074604              -0.000194372               0.000702579               0.000508207               0.000000000               0.000000000               0.000000000               0.000000000               0.000110144               0.001929542              -0.000058251              -0.000199888               0.000709804               0.000509915               0.000000000               0.000000000               0.000000000               0.000000000               0.000101347               0.001949783              -0.000047567              -0.000205717               0.000718494               0.000512776               0.000000000               0.000000000               0.000000000               0.000000000               0.000087336               0.001982070              -0.000034909              -0.000215007               0.000732353               0.000517345               0.000000000               0.000000000               0.000000000               0.000000000               0.000067534               0.002024897              -0.000018757              -0.000227786               0.000750888               0.000523101               0.000000000               0.000000000               0.000000000               0.000000000               0.000046914               0.002072162              -0.000005722              -0.000241427               0.000771190               0.000529763               0.000000000               0.000000000               0.000000000               0.000000000               0.000025347               0.002118657              -0.000000334              -0.000255326               0.000791321               0.000535994               0.000000000               0.000000000               0.000000000               0.000000000               0.000016986               0.002150292              -0.000002543              -0.000262416               0.000804229               0.000541813               0.000000000               0.000000000               0.000000000               0.000000000               0.000709057               0.001380110              -0.000813144               0.000093381               0.000428905               0.000522286               0.000000000               0.000000000               0.000000000               0.000000000               0.000471722               0.001478544              -0.000647903              -0.000007923               0.000495484               0.000487561               0.000000000               0.000000000               0.000000000               0.000000000               0.000294343               0.001664933              -0.000460908              -0.000097738               0.000587551               0.000489813               0.000000000               0.000000000               0.000000000               0.000000000               0.000240883               0.001732707              -0.000354313              -0.000126257               0.000619649               0.000493392               0.000000000               0.000000000               0.000000000               0.000000000               0.000220520               0.001773143              -0.000281619              -0.000138948               0.000637358               0.000498410               0.000000000               0.000000000               0.000000000               0.000000000               0.000203403               0.001803145              -0.000225492              -0.000149117               0.000650748               0.000501631               0.000000000               0.000000000               0.000000000               0.000000000               0.000183684               0.001836553              -0.000180511              -0.000160687               0.000665741               0.000505053               0.000000000               0.000000000               0.000000000               0.000000000               0.000160039               0.001875156              -0.000142951              -0.000174379               0.000683172               0.000508793               0.000000000               0.000000000               0.000000000               0.000000000               0.000136392               0.001911922              -0.000112653              -0.000187843               0.000699915               0.000512072               0.000000000               0.000000000               0.000000000               0.000000000               0.000122385               0.001941845              -0.000085894              -0.000196836               0.000712887               0.000516051               0.000000000               0.000000000               0.000000000               0.000000000               0.000117202               0.001969614              -0.000063496              -0.000202250               0.000723948               0.000521698               0.000000000               0.000000000               0.000000000               0.000000000               0.000108685               0.002007062              -0.000045837              -0.000210125               0.000739056               0.000528930               0.000000000               0.000000000               0.000000000               0.000000000               0.000093515               0.002062796              -0.000028982              -0.000222781               0.000761852               0.000539071               0.000000000               0.000000000               0.000000000               0.000000000               0.000074322               0.002130121              -0.000010279              -0.000238394               0.000789498               0.000551104               0.000000000               0.000000000               0.000000000               0.000000000               0.000058651               0.002202444               0.000003209              -0.000253311               0.000818578               0.000565267               0.000000000               0.000000000               0.000000000               0.000000000               0.000046984               0.002270427               0.000007302              -0.000266184               0.000845529               0.000579345               0.000000000               0.000000000               0.000000000               0.000000000               0.000041864               0.002309587               0.000005402              -0.000272999               0.000860854               0.000587856               0.000000000               0.000000000               0.000000000               0.000000000               0.000701704               0.001097058              -0.000727251               0.000126005               0.000323680               0.000449685               0.000000000               0.000000000               0.000000000               0.000000000               0.000487255               0.001253680              -0.000629349               0.000026010               0.000409219               0.000435228               0.000000000               0.000000000               0.000000000               0.000000000               0.000311062               0.001504911              -0.000501422              -0.000071466               0.000525454               0.000453988               0.000000000               0.000000000               0.000000000               0.000000000               0.000254884               0.001619216              -0.000402335              -0.000106821               0.000575340               0.000468520               0.000000000               0.000000000               0.000000000               0.000000000               0.000233585               0.001684594              -0.000325257              -0.000122980               0.000602519               0.000479539               0.000000000               0.000000000               0.000000000               0.000000000               0.000218646               0.001733720              -0.000261670              -0.000134723               0.000622808               0.000488086               0.000000000               0.000000000               0.000000000               0.000000000               0.000200631               0.001782047              -0.000210442              -0.000147519               0.000643183               0.000495664               0.000000000               0.000000000               0.000000000               0.000000000               0.000179765               0.001831828              -0.000170562              -0.000161566               0.000664459               0.000502892               0.000000000               0.000000000               0.000000000               0.000000000               0.000158166               0.001880154              -0.000139902              -0.000175707               0.000685281               0.000509574               0.000000000               0.000000000               0.000000000               0.000000000               0.000142651               0.001926823              -0.000111049              -0.000187358               0.000704721               0.000517362               0.000000000               0.000000000               0.000000000               0.000000000               0.000132508               0.001965607              -0.000082237              -0.000196010               0.000720532               0.000524523               0.000000000               0.000000000               0.000000000               0.000000000               0.000124811               0.002011950              -0.000056939              -0.000204689               0.000738873               0.000534184               0.000000000               0.000000000               0.000000000               0.000000000               0.000113651               0.002074078              -0.000033072              -0.000216640               0.000763566               0.000546926               0.000000000               0.000000000               0.000000000               0.000000000               0.000101702               0.002154858              -0.000013282              -0.000231218               0.000795351               0.000564133               0.000000000               0.000000000               0.000000000               0.000000000               0.000093793               0.002246899              -0.000002379              -0.000245689               0.000830855               0.000585166               0.000000000               0.000000000               0.000000000               0.000000000               0.000092147               0.002338651               0.000000575              -0.000257776               0.000865468               0.000607692               0.000000000               0.000000000               0.000000000               0.000000000               0.000089141               0.002383899               0.000002118              -0.000264559               0.000882811               0.000618252               0.000000000               0.000000000               0.000000000               0.000000000               0.000663939               0.000825403              -0.000625196               0.000145800               0.000226531               0.000372331               0.000000000               0.000000000               0.000000000               0.000000000               0.000504359               0.001028286              -0.000595728               0.000060598               0.000322559               0.000383157               0.000000000               0.000000000               0.000000000               0.000000000               0.000347986               0.001325110              -0.000530324              -0.000035144               0.000453414               0.000418269               0.000000000               0.000000000               0.000000000               0.000000000               0.000287121               0.001478553              -0.000446928              -0.000077149               0.000518562               0.000441413               0.000000000               0.000000000               0.000000000               0.000000000               0.000260206               0.001572610              -0.000371291              -0.000098999               0.000557198               0.000458199               0.000000000               0.000000000               0.000000000               0.000000000               0.000246064               0.001646041              -0.000303983              -0.000113481               0.000586502               0.000473021               0.000000000               0.000000000               0.000000000               0.000000000               0.000231369               0.001712139              -0.000248260              -0.000127254               0.000613125               0.000485871               0.000000000               0.000000000               0.000000000               0.000000000               0.000212896               0.001774334              -0.000205830              -0.000141956               0.000638757               0.000496802               0.000000000               0.000000000               0.000000000               0.000000000               0.000191070               0.001832791              -0.000173081              -0.000157447               0.000663407               0.000505959               0.000000000               0.000000000               0.000000000               0.000000000               0.000171236               0.001888501              -0.000141855              -0.000171849               0.000686777               0.000514928               0.000000000               0.000000000               0.000000000               0.000000000               0.000157885               0.001939959              -0.000108510              -0.000183287               0.000707742               0.000524455               0.000000000               0.000000000               0.000000000               0.000000000               0.000149412               0.001995136              -0.000076332              -0.000193362               0.000729493               0.000536131               0.000000000               0.000000000               0.000000000               0.000000000               0.000144659               0.002058046              -0.000048529              -0.000203008               0.000753678               0.000550670               0.000000000               0.000000000               0.000000000               0.000000000               0.000144391               0.002136683              -0.000029068              -0.000212938               0.000783200               0.000570262               0.000000000               0.000000000               0.000000000               0.000000000               0.000144151               0.002229306              -0.000016832              -0.000224606               0.000817963               0.000593357               0.000000000               0.000000000               0.000000000               0.000000000               0.000142980               0.002330923              -0.000008277              -0.000237747               0.000856216               0.000618468               0.000000000               0.000000000               0.000000000               0.000000000               0.000133480               0.002376082              -0.000000320              -0.000246955               0.000874338               0.000627383               0.000000000               0.000000000               0.000000000               0.000000000               0.000597321               0.000584526              -0.000506788               0.000150928               0.000144530               0.000295458               0.000000000               0.000000000               0.000000000               0.000000000               0.000509494               0.000812485              -0.000536415               0.000089498               0.000240992               0.000330491               0.000000000               0.000000000               0.000000000               0.000000000               0.000390820               0.001123637              -0.000527928               0.000006102               0.000372508               0.000378610               0.000000000               0.000000000               0.000000000               0.000000000               0.000332731               0.001308979              -0.000467061              -0.000038849               0.000449272               0.000410423               0.000000000               0.000000000               0.000000000               0.000000000               0.000300690               0.001435111              -0.000399764              -0.000066630               0.000500576               0.000433945               0.000000000               0.000000000               0.000000000               0.000000000               0.000282346               0.001532791              -0.000334696              -0.000085719               0.000539498               0.000453779               0.000000000               0.000000000               0.000000000               0.000000000               0.000267772               0.001620443              -0.000278217              -0.000102141               0.000574189               0.000472048               0.000000000               0.000000000               0.000000000               0.000000000               0.000250574               0.001699686              -0.000233559              -0.000118495               0.000606055               0.000487559               0.000000000               0.000000000               0.000000000               0.000000000               0.000227770               0.001768469              -0.000198956              -0.000135644               0.000634698               0.000499054               0.000000000               0.000000000               0.000000000               0.000000000               0.000203376               0.001830781              -0.000167403              -0.000152581               0.000661115               0.000508533               0.000000000               0.000000000               0.000000000               0.000000000               0.000186781               0.001894484              -0.000133749              -0.000166767               0.000687077               0.000520310               0.000000000               0.000000000               0.000000000               0.000000000               0.000180752               0.001960571              -0.000100870              -0.000177289               0.000712614               0.000535325               0.000000000               0.000000000               0.000000000               0.000000000               0.000181911               0.002032517              -0.000073699              -0.000185848               0.000739448               0.000553600               0.000000000               0.000000000               0.000000000               0.000000000               0.000188142               0.002118356              -0.000052525              -0.000194241               0.000770858               0.000576618               0.000000000               0.000000000               0.000000000               0.000000000               0.000193507               0.002215454              -0.000036321              -0.000204366               0.000806599               0.000602233               0.000000000               0.000000000               0.000000000               0.000000000               0.000190636               0.002320782              -0.000019583              -0.000218609               0.000846456               0.000627847               0.000000000               0.000000000               0.000000000               0.000000000               0.000175534               0.002367248              -0.000005884              -0.000230080               0.000865768               0.000635688               0.000000000               0.000000000               0.000000000               0.000000000               0.000507533               0.000390303              -0.000383331               0.000141535               0.000082921               0.000224456               0.000000000               0.000000000               0.000000000               0.000000000               0.000501275               0.000613986              -0.000453614               0.000111229               0.000167583               0.000278812               0.000000000               0.000000000               0.000000000               0.000000000               0.000437392               0.000915226              -0.000489059               0.000049618               0.000288533               0.000338151               0.000000000               0.000000000               0.000000000               0.000000000               0.000389705               0.001124693              -0.000452468               0.000005552               0.000373043               0.000378595               0.000000000               0.000000000               0.000000000               0.000000000               0.000354427               0.001277707              -0.000398580              -0.000026804               0.000434832               0.000408029               0.000000000               0.000000000               0.000000000               0.000000000               0.000330388               0.001399193              -0.000340904              -0.000051004               0.000483394               0.000432390               0.000000000               0.000000000               0.000000000               0.000000000               0.000311663               0.001507166              -0.000288367              -0.000071522               0.000526224               0.000454702               0.000000000               0.000000000               0.000000000               0.000000000               0.000293241               0.001602489              -0.000244846              -0.000090346               0.000564273               0.000473927               0.000000000               0.000000000               0.000000000               0.000000000               0.000271584               0.001683167              -0.000209993              -0.000108552               0.000597234               0.000488682               0.000000000               0.000000000               0.000000000               0.000000000               0.000248704               0.001754282              -0.000180112              -0.000126021               0.000626762               0.000500741               0.000000000               0.000000000               0.000000000               0.000000000               0.000229972               0.001826595              -0.000151707              -0.000142085               0.000656221               0.000514136               0.000000000               0.000000000               0.000000000               0.000000000               0.000222427               0.001906474              -0.000123395              -0.000154899               0.000687118               0.000532219               0.000000000               0.000000000               0.000000000               0.000000000               0.000225287               0.001998207              -0.000096933              -0.000165293               0.000721160               0.000555867               0.000000000               0.000000000               0.000000000               0.000000000               0.000234003               0.002102638              -0.000075497              -0.000175078               0.000759232               0.000584154               0.000000000               0.000000000               0.000000000               0.000000000               0.000243302               0.002213616              -0.000054544              -0.000185463               0.000799686               0.000614223               0.000000000               0.000000000               0.000000000               0.000000000               0.000244495               0.002325275              -0.000028777              -0.000198973               0.000841408               0.000642435               0.000000000               0.000000000               0.000000000               0.000000000               0.000231258               0.002374334              -0.000011343              -0.000210069               0.000861460               0.000651390               0.000000000               0.000000000               0.000000000               0.000000000               0.000410754               0.000245737              -0.000266454               0.000123314               0.000040807               0.000164121               0.000000000               0.000000000               0.000000000               0.000000000               0.000483250               0.000444944              -0.000352667               0.000125599               0.000106447               0.000232046               0.000000000               0.000000000               0.000000000               0.000000000               0.000482342               0.000721243              -0.000412108               0.000090722               0.000210171               0.000300893               0.000000000               0.000000000               0.000000000               0.000000000               0.000451731               0.000942222              -0.000395989               0.000051621               0.000296864               0.000348485               0.000000000               0.000000000               0.000000000               0.000000000               0.000416331               0.001115507              -0.000357044               0.000016685               0.000366270               0.000382955               0.000000000               0.000000000               0.000000000               0.000000000               0.000385679               0.001257778              -0.000311410              -0.000012593               0.000423453               0.000410860               0.000000000               0.000000000               0.000000000               0.000000000               0.000363024               0.001381725              -0.000267288              -0.000036582               0.000472764               0.000436183               0.000000000               0.000000000               0.000000000               0.000000000               0.000340280               0.001487532              -0.000229854              -0.000058336               0.000515285               0.000456948               0.000000000               0.000000000               0.000000000               0.000000000               0.000320195               0.001580581              -0.000199474              -0.000077499               0.000552688               0.000475189               0.000000000               0.000000000               0.000000000               0.000000000               0.000300379               0.001666333              -0.000173271              -0.000095649               0.000587322               0.000491672               0.000000000               0.000000000               0.000000000               0.000000000               0.000282994               0.001754088              -0.000149607              -0.000113138               0.000622403               0.000509265               0.000000000               0.000000000               0.000000000               0.000000000               0.000271426               0.001852009              -0.000129155              -0.000129716               0.000660569               0.000530853               0.000000000               0.000000000               0.000000000               0.000000000               0.000273987               0.001962945              -0.000109799              -0.000142623               0.000701849               0.000559227               0.000000000               0.000000000               0.000000000               0.000000000               0.000286148               0.002086866              -0.000089735              -0.000153552               0.000746799               0.000593247               0.000000000               0.000000000               0.000000000               0.000000000               0.000297697               0.002214250              -0.000066574              -0.000165145               0.000793124               0.000627980               0.000000000               0.000000000               0.000000000               0.000000000               0.000305071               0.002332810              -0.000036425              -0.000177199               0.000836662               0.000659463               0.000000000               0.000000000               0.000000000               0.000000000               0.000299326               0.002384080              -0.000017097              -0.000185762               0.000856606               0.000670844               0.000000000               0.000000000               0.000000000               0.000000000               0.000323191               0.000148928              -0.000164287               0.000102580               0.000015449               0.000118028               0.000000000               0.000000000               0.000000000               0.000000000               0.000462538               0.000317961              -0.000240188               0.000133705               0.000061418               0.000195123               0.000000000               0.000000000               0.000000000               0.000000000               0.000519596               0.000562030              -0.000298704               0.000124594               0.000145810               0.000270404               0.000000000               0.000000000               0.000000000               0.000000000               0.000506821               0.000782676              -0.000295568               0.000092222               0.000230149               0.000322371               0.000000000               0.000000000               0.000000000               0.000000000               0.000474638               0.000971403              -0.000270952               0.000056563               0.000304943               0.000361507               0.000000000               0.000000000               0.000000000               0.000000000               0.000440382               0.001129123              -0.000240146               0.000024002               0.000368370               0.000392372               0.000000000               0.000000000               0.000000000               0.000000000               0.000411413               0.001263461              -0.000208519              -0.000003653               0.000422367               0.000418714               0.000000000               0.000000000               0.000000000               0.000000000               0.000386060               0.001377494              -0.000182033              -0.000027414               0.000468298               0.000440884               0.000000000               0.000000000               0.000000000               0.000000000               0.000363391               0.001479475              -0.000160438              -0.000048663               0.000509374               0.000460712               0.000000000               0.000000000               0.000000000               0.000000000               0.000345052               0.001583463              -0.000139386              -0.000068538               0.000550662               0.000482124               0.000000000               0.000000000               0.000000000               0.000000000               0.000329993               0.001692951              -0.000120896              -0.000087871               0.000593602               0.000505730               0.000000000               0.000000000               0.000000000               0.000000000               0.000323056               0.001809090              -0.000109157              -0.000104990               0.000638021               0.000533031               0.000000000               0.000000000               0.000000000               0.000000000               0.000325213               0.001934065              -0.000100644              -0.000119803               0.000684616               0.000564813               0.000000000               0.000000000               0.000000000               0.000000000               0.000337966               0.002069461              -0.000086353              -0.000131945               0.000733795               0.000601850               0.000000000               0.000000000               0.000000000               0.000000000               0.000355408               0.002208254              -0.000064195              -0.000142754               0.000783662               0.000640908               0.000000000               0.000000000               0.000000000               0.000000000               0.000369475               0.002333743              -0.000035929              -0.000153165               0.000828961               0.000675797               0.000000000               0.000000000               0.000000000               0.000000000               0.000371610               0.002387730              -0.000019296              -0.000159112               0.000848939               0.000689827               0.000000000               0.000000000               0.000000000               0.000000000               0.000259750               0.000091442              -0.000077130               0.000085975               0.000001822               0.000087797               0.000000000               0.000000000               0.000000000               0.000000000               0.000446123               0.000237128              -0.000121075               0.000137654               0.000033157               0.000170811               0.000000000               0.000000000               0.000000000               0.000000000               0.000543173               0.000456277              -0.000156518               0.000146654               0.000103206               0.000249860               0.000000000               0.000000000               0.000000000               0.000000000               0.000545613               0.000674481              -0.000158257               0.000120293               0.000184727               0.000305020               0.000000000               0.000000000               0.000000000               0.000000000               0.000516463               0.000870075              -0.000147070               0.000084913               0.000261718               0.000346631               0.000000000               0.000000000               0.000000000               0.000000000               0.000481142               0.001037761              -0.000131022               0.000050708               0.000329014               0.000379722               0.000000000               0.000000000               0.000000000               0.000000000               0.000447447               0.001178764              -0.000115042               0.000020447               0.000386102               0.000406549               0.000000000               0.000000000               0.000000000               0.000000000               0.000418683               0.001298245              -0.000101377              -0.000005275               0.000434502               0.000429228               0.000000000               0.000000000               0.000000000               0.000000000               0.000392479               0.001408009              -0.000090542              -0.000028822               0.000478939               0.000450117               0.000000000               0.000000000               0.000000000               0.000000000               0.000374475               0.001522888              -0.000078110              -0.000049933               0.000524268               0.000474336               0.000000000               0.000000000               0.000000000               0.000000000               0.000365588               0.001646288              -0.000067753              -0.000068691               0.000571654               0.000502963               0.000000000               0.000000000               0.000000000               0.000000000               0.000365425               0.001779575              -0.000063666              -0.000085412               0.000621657               0.000536244               0.000000000               0.000000000               0.000000000               0.000000000               0.000369669               0.001920977              -0.000061054              -0.000101496               0.000674151               0.000572655               0.000000000               0.000000000               0.000000000               0.000000000               0.000377630               0.002059392              -0.000055771              -0.000115812               0.000725061               0.000609249               0.000000000               0.000000000               0.000000000               0.000000000               0.000393545               0.002191386              -0.000041125              -0.000126344               0.000772569               0.000646226               0.000000000               0.000000000               0.000000000               0.000000000               0.000418966               0.002317914              -0.000019904              -0.000132627               0.000816839               0.000684213               0.000000000               0.000000000               0.000000000               0.000000000               0.000434267               0.002377829              -0.000008900              -0.000134378               0.000837395               0.000703016               0.000000000               0.000000000               0.000000000               0.000000000               0.000236495               0.000070827              -0.000000000               0.000079831              -0.000003002               0.000076830               0.000000000               0.000000000               0.000000000               0.000000000               0.000440375               0.000209188              -0.000000000               0.000138991               0.000023398               0.000162389               0.000000000               0.000000000               0.000000000               0.000000000               0.000551214               0.000420818              -0.000000000               0.000154101               0.000088904               0.000243005               0.000000000               0.000000000               0.000000000               0.000000000               0.000560017               0.000636685              -0.000000000               0.000130420               0.000168753               0.000299172               0.000000000               0.000000000               0.000000000               0.000000000               0.000531969               0.000832894              -0.000000000               0.000095376               0.000245837               0.000341212               0.000000000               0.000000000               0.000000000               0.000000000               0.000495699               0.001004839               0.000000000               0.000060282               0.000314849               0.000375131               0.000000000               0.000000000               0.000000000               0.000000000               0.000461642               0.001147904               0.000000000               0.000029627               0.000372755               0.000402382               0.000000000               0.000000000               0.000000000               0.000000000               0.000429859               0.001268871               0.000000000               0.000002588               0.000422090               0.000424678               0.000000000               0.000000000               0.000000000               0.000000000               0.000403136               0.001382690              -0.000000000              -0.000021660               0.000468112               0.000446452               0.000000000               0.000000000               0.000000000               0.000000000               0.000383698               0.001498793               0.000000000              -0.000043462               0.000514080               0.000470618               0.000000000               0.000000000               0.000000000               0.000000000               0.000380582               0.001628910               0.000000000              -0.000060895               0.000563263               0.000502368               0.000000000               0.000000000               0.000000000               0.000000000               0.000382629               0.001770981               0.000000000              -0.000077886               0.000616283               0.000538397               0.000000000               0.000000000               0.000000000               0.000000000               0.000387226               0.001917198              -0.000000000              -0.000094440               0.000670540               0.000576100               0.000000000               0.000000000               0.000000000               0.000000000               0.000392945               0.002057444              -0.000000000              -0.000109826               0.000722417               0.000612591               0.000000000               0.000000000               0.000000000               0.000000000               0.000404184               0.002181613              -0.000000000              -0.000121132               0.000767574               0.000646442               0.000000000               0.000000000               0.000000000               0.000000000               0.000435270               0.002301409               0.000000000              -0.000124449               0.000808612               0.000684163               0.000000000               0.000000000               0.000000000               0.000000000               0.000459431               0.002363073               0.000000000              -0.000123097               0.000828716               0.000705618               0.000000000               0.000000000               0.000000000               0.000000000               0.000000000               0.000000000               0.000000000               0.000000000               0.000000000               0.000000000               0.000000000               0.000000000               0.000000000               0.000000000               0.000000000               0.000000000               0.000000000               0.000000000               0.000000000               0.000000000               0.000000000               0.000000000               0.000000000               0.000000000               0.000000000               0.000000000               0.000000000               0.000000000               0.000000000               0.000000000               0.000000000               0.000000000               0.000000000               0.000000000               0.000000000               0.000000000               0.000000000               0.000000000               0.000000000               0.000000000               0.000000000               0.000000000               0.000000000               0.000000000               0.000000000               0.000000000               0.000000000               0.000000000               0.000000000               0.000000000               0.000000000               0.000000000               0.000000000               0.000000000               0.000000000               0.000000000               0.000000000               0.000000000               0.000000000               0.000000000               0.000000000               0.000000000               0.000000000               0.000000000               0.000000000               0.000000000               0.000000000               0.000000000               0.000000000               0.000000000               0.000000000               0.000000000               0.000000000               0.000000000               0.000000000               0.000000000               0.000000000               0.000000000               0.000000000               0.000000000               0.000000000               0.000000000               0.000000000               0.000000000               0.000000000               0.000000000               0.000000000               0.000000000               0.000000000               0.000000000               0.000000000               0.000000000               0.000000000               0.000000000               0.000000000               0.000000000               0.000000000               0.000000000               0.000000000               0.000000000               0.000000000               0.000000000               0.000000000               0.000000000               0.000000000               0.000000000               0.000000000               0.000000000               0.000000000               0.000000000               0.000000000               0.000000000               0.000000000               0.000000000               0.000000000               0.000000000               0.000000000               0.000000000               0.000000000               0.000000000               0.000000000               0.000000000               0.000000000               0.000000000               0.000000000               0.000000000               0.000000000               0.000000000               0.000000000               0.000000000               0.000000000               0.000000000               0.000000000               0.000000000               0.000000000               0.000000000               0.000000000               0.000000000               0.000000000               0.000000000               0.000000000               0.000000000               0.000000000               0.000000000               0.000000000               0.000000000               0.000000000               0.000000000               0.000000000               0.000000000               0.000000000               0.000000000               0.000000000               0.000000000               0.000000000               0.000000000               0.000000000               0.000000000               0.000000000               0.000000000               0.000000000               0.000000000               0.000000000               0.000000000               0.000000000               0.000000000               0.000000000               0.000000000               0.000000000               0.000000000               0.000000000               0.000000000               0.000000000               0.000000000               0.000322476               0.003332829               0.000265908              -0.000295675               0.001209490               0.000913815               0.000000000               0.000000000               0.000000000               0.000000000               0.000360545               0.002787641               0.000180860              -0.000213250               0.001000288               0.000787037               0.000000000               0.000000000               0.000000000               0.000000000               0.000504597               0.002348891               0.000091585              -0.000104387               0.000817751               0.000713364               0.000000000               0.000000000               0.000000000               0.000000000               0.000541276               0.002105400               0.000048478              -0.000060196               0.000721858               0.000661662               0.000000000               0.000000000               0.000000000               0.000000000               0.000530282               0.001963891               0.000026895              -0.000046630               0.000670167               0.000623537               0.000000000               0.000000000               0.000000000               0.000000000               0.000499092               0.001882616               0.000016576              -0.000048167               0.000643588               0.000595421               0.000000000               0.000000000               0.000000000               0.000000000               0.000455455               0.001836757               0.000011793              -0.000058799               0.000631846               0.000573047               0.000000000               0.000000000               0.000000000               0.000000000               0.000407025               0.001813892               0.000009800              -0.000074102               0.000629325               0.000555223               0.000000000               0.000000000               0.000000000               0.000000000               0.000358427               0.001806642               0.000008653              -0.000091420               0.000632681               0.000541261               0.000000000               0.000000000               0.000000000               0.000000000               0.000307751               0.001812055               0.000007173              -0.000111100               0.000641046               0.000529946               0.000000000               0.000000000               0.000000000               0.000000000               0.000256820               0.001827817               0.000004278              -0.000132169               0.000653323               0.000521153               0.000000000               0.000000000               0.000000000               0.000000000               0.000206034               0.001852114               0.000003330              -0.000154251               0.000668782               0.000514531               0.000000000               0.000000000               0.000000000               0.000000000               0.000156198               0.001879917               0.000005607              -0.000176415               0.000685438               0.000509023               0.000000000               0.000000000               0.000000000               0.000000000               0.000112125               0.001907616               0.000009024              -0.000196405               0.000701334               0.000504929               0.000000000               0.000000000               0.000000000               0.000000000               0.000073166               0.001934821               0.000009261              -0.000214415               0.000716405               0.000501991               0.000000000               0.000000000               0.000000000               0.000000000               0.000036022               0.001966244               0.000003779              -0.000232272               0.000732832               0.000500560               0.000000000               0.000000000               0.000000000               0.000000000               0.000021314               0.001993347               0.000000959              -0.000241175               0.000744834               0.000503659               0.000000000               0.000000000               0.000000000               0.000000000               0.000378619               0.003184305               0.000506575              -0.000256056               0.001146776               0.000890721               0.000000000               0.000000000               0.000000000               0.000000000               0.000382179               0.002680970               0.000343441              -0.000191804               0.000957582               0.000765779               0.000000000               0.000000000               0.000000000               0.000000000               0.000486771               0.002292053               0.000174771              -0.000103967               0.000798666               0.000694699               0.000000000               0.000000000               0.000000000               0.000000000               0.000504575               0.002078030               0.000096412              -0.000070538               0.000716182               0.000645644               0.000000000               0.000000000               0.000000000               0.000000000               0.000487812               0.001953819               0.000057710              -0.000061298               0.000671699               0.000610401               0.000000000               0.000000000               0.000000000               0.000000000               0.000455453               0.001881432               0.000038591              -0.000064384               0.000648599               0.000584215               0.000000000               0.000000000               0.000000000               0.000000000               0.000414433               0.001839818               0.000029623              -0.000074565               0.000638122               0.000563557               0.000000000               0.000000000               0.000000000               0.000000000               0.000371416               0.001818201               0.000025502              -0.000087994               0.000635392               0.000547398               0.000000000               0.000000000               0.000000000               0.000000000               0.000328020               0.001812480               0.000022277              -0.000103552               0.000638672               0.000535119               0.000000000               0.000000000               0.000000000               0.000000000               0.000280606               0.001817765               0.000017913              -0.000121993               0.000646580               0.000524587               0.000000000               0.000000000               0.000000000               0.000000000               0.000232515               0.001833015               0.000012570              -0.000141933               0.000658310               0.000516377               0.000000000               0.000000000               0.000000000               0.000000000               0.000186530               0.001854192               0.000009583              -0.000161825               0.000671999               0.000510174               0.000000000               0.000000000               0.000000000               0.000000000               0.000143322               0.001876490               0.000012695              -0.000180815               0.000685762               0.000504947               0.000000000               0.000000000               0.000000000               0.000000000               0.000103532               0.001896583               0.000019166              -0.000198248               0.000698271               0.000500023               0.000000000               0.000000000               0.000000000               0.000000000               0.000067003               0.001916819               0.000018088              -0.000214476               0.000710425               0.000495949               0.000000000               0.000000000               0.000000000               0.000000000               0.000033021               0.001941003               0.000006917              -0.000230242               0.000723742               0.000493500               0.000000000               0.000000000               0.000000000               0.000000000               0.000019103               0.001960461               0.000001140              -0.000237893               0.000732778               0.000494885               0.000000000               0.000000000               0.000000000               0.000000000               0.000457940               0.002951266               0.000699297              -0.000197181               0.001049472               0.000852292               0.000000000               0.000000000               0.000000000               0.000000000               0.000409433               0.002518179               0.000475046              -0.000161235               0.000893130               0.000731895               0.000000000               0.000000000               0.000000000               0.000000000               0.000456845               0.002208248               0.000246850              -0.000104714               0.000770980               0.000666266               0.000000000               0.000000000               0.000000000               0.000000000               0.000449843               0.002036601               0.000143767              -0.000085884               0.000707488               0.000621604               0.000000000               0.000000000               0.000000000               0.000000000               0.000425520               0.001937927               0.000094036              -0.000082671               0.000673526               0.000590855               0.000000000               0.000000000               0.000000000               0.000000000               0.000393411               0.001877943               0.000068664              -0.000087214               0.000655046               0.000567832               0.000000000               0.000000000               0.000000000               0.000000000               0.000358154               0.001843124               0.000055796              -0.000096083               0.000646396               0.000550313               0.000000000               0.000000000               0.000000000               0.000000000               0.000322325               0.001825410               0.000048124              -0.000107304               0.000644232               0.000536928               0.000000000               0.000000000               0.000000000               0.000000000               0.000285597               0.001821678               0.000041173              -0.000120610               0.000647423               0.000526813               0.000000000               0.000000000               0.000000000               0.000000000               0.000244490               0.001827575               0.000032592              -0.000136763               0.000654773               0.000518010               0.000000000               0.000000000               0.000000000               0.000000000               0.000202822               0.001841823               0.000022961              -0.000154169               0.000665324               0.000511155               0.000000000               0.000000000               0.000000000               0.000000000               0.000163321               0.001857564               0.000018604              -0.000170950               0.000676165               0.000505215               0.000000000               0.000000000               0.000000000               0.000000000               0.000126564               0.001870272               0.000021901              -0.000186322               0.000685525               0.000499203               0.000000000               0.000000000               0.000000000               0.000000000               0.000093597               0.001881731               0.000027068              -0.000200117               0.000693943               0.000493826               0.000000000               0.000000000               0.000000000               0.000000000               0.000061368               0.001894404               0.000021647              -0.000213787               0.000702724               0.000488937               0.000000000               0.000000000               0.000000000               0.000000000               0.000029124               0.001906651               0.000007478              -0.000227409               0.000711347               0.000483938               0.000000000               0.000000000               0.000000000               0.000000000               0.000014960               0.001914760               0.000001442              -0.000233735               0.000716159               0.000482424               0.000000000               0.000000000               0.000000000               0.000000000               0.000541664               0.002657905               0.000831906              -0.000129115               0.000928997               0.000799883               0.000000000               0.000000000               0.000000000               0.000000000               0.000434022               0.002317871               0.000570006              -0.000126976               0.000814941               0.000687965               0.000000000               0.000000000               0.000000000               0.000000000               0.000417519               0.002106789               0.000306846              -0.000106779               0.000737849               0.000631070               0.000000000               0.000000000               0.000000000               0.000000000               0.000386803               0.001986850               0.000191081              -0.000103305               0.000696712               0.000593407               0.000000000               0.000000000               0.000000000               0.000000000               0.000357400               0.001916865               0.000135365              -0.000105583               0.000674143               0.000568560               0.000000000               0.000000000               0.000000000               0.000000000               0.000328287               0.001872875               0.000105503              -0.000111001               0.000661286               0.000550285               0.000000000               0.000000000               0.000000000               0.000000000               0.000297703               0.001846326               0.000087702              -0.000119152               0.000655153               0.000536001               0.000000000               0.000000000               0.000000000               0.000000000               0.000267870               0.001832915               0.000074546              -0.000128663               0.000653853               0.000525190               0.000000000               0.000000000               0.000000000               0.000000000               0.000238007               0.001832832               0.000061672              -0.000139851               0.000657555               0.000517704               0.000000000               0.000000000               0.000000000               0.000000000               0.000204806               0.001841870               0.000046875              -0.000153431               0.000665094               0.000511663               0.000000000               0.000000000               0.000000000               0.000000000               0.000172309               0.001855437               0.000033587              -0.000167313               0.000674244               0.000506931               0.000000000               0.000000000               0.000000000               0.000000000               0.000141301               0.001863728               0.000027728              -0.000179978               0.000681229               0.000501251               0.000000000               0.000000000               0.000000000               0.000000000               0.000112576               0.001868077               0.000028502              -0.000191293               0.000686450               0.000495157               0.000000000               0.000000000               0.000000000               0.000000000               0.000084696               0.001872382               0.000028454              -0.000202286               0.000691550               0.000489264               0.000000000               0.000000000               0.000000000               0.000000000               0.000054861               0.001881096               0.000019491              -0.000214564               0.000698547               0.000483983               0.000000000               0.000000000               0.000000000               0.000000000               0.000024684               0.001888891               0.000007116              -0.000226854               0.000705242               0.000478388               0.000000000               0.000000000               0.000000000               0.000000000               0.000012331               0.001894656               0.000003413              -0.000232207               0.000708948               0.000476741               0.000000000               0.000000000               0.000000000               0.000000000               0.000614613               0.002330680               0.000903120              -0.000060856               0.000797171               0.000736315               0.000000000               0.000000000               0.000000000               0.000000000               0.000451175               0.002098365               0.000629411              -0.000093105               0.000730483               0.000637378               0.000000000               0.000000000               0.000000000               0.000000000               0.000375006               0.001996562               0.000355695              -0.000108943               0.000701828               0.000592885               0.000000000               0.000000000               0.000000000               0.000000000               0.000327692               0.001930473               0.000237584              -0.000118425               0.000682959               0.000564535               0.000000000               0.000000000               0.000000000               0.000000000               0.000294380               0.001886725               0.000178243              -0.000125448               0.000670718               0.000545270               0.000000000               0.000000000               0.000000000               0.000000000               0.000269330               0.001860433               0.000143830              -0.000131555               0.000663990               0.000532435               0.000000000               0.000000000               0.000000000               0.000000000               0.000244781               0.001845554               0.000120202              -0.000138901               0.000661479               0.000522578               0.000000000               0.000000000               0.000000000               0.000000000               0.000219858               0.001842392               0.000100105              -0.000147852               0.000663408               0.000515557               0.000000000               0.000000000               0.000000000               0.000000000               0.000195058               0.001850664               0.000079897              -0.000158186               0.000669610               0.000511425               0.000000000               0.000000000               0.000000000               0.000000000               0.000169268               0.001864249               0.000058564              -0.000169555               0.000677929               0.000508373               0.000000000               0.000000000               0.000000000               0.000000000               0.000144375               0.001874294               0.000042888              -0.000180146               0.000684807               0.000504661               0.000000000               0.000000000               0.000000000               0.000000000               0.000124541               0.001876517               0.000035903              -0.000187861               0.000688120               0.000500259               0.000000000               0.000000000               0.000000000               0.000000000               0.000104566               0.001876374               0.000032752              -0.000195334               0.000690563               0.000495229               0.000000000               0.000000000               0.000000000               0.000000000               0.000079095               0.001881635               0.000026458              -0.000205543               0.000695720               0.000490177               0.000000000               0.000000000               0.000000000               0.000000000               0.000051831               0.001895577               0.000014179              -0.000217510               0.000704356               0.000486846               0.000000000               0.000000000               0.000000000               0.000000000               0.000023384               0.001910878               0.000004768              -0.000230090               0.000713650               0.000483559               0.000000000               0.000000000               0.000000000               0.000000000               0.000012678               0.001923380               0.000004139              -0.000235668               0.000719676               0.000484008               0.000000000               0.000000000               0.000000000               0.000000000               0.000666354               0.001994267               0.000917341               0.000000598               0.000664549               0.000665148               0.000000000               0.000000000               0.000000000               0.000000000               0.000461163               0.001878118               0.000657733              -0.000061829               0.000646643               0.000584813               0.000000000               0.000000000               0.000000000               0.000000000               0.000335705               0.001884543               0.000395525              -0.000109679               0.000664734               0.000555056               0.000000000               0.000000000               0.000000000               0.000000000               0.000279718               0.001865611               0.000280845              -0.000128307               0.000664633               0.000536326               0.000000000               0.000000000               0.000000000               0.000000000               0.000247294               0.001848557               0.000218025              -0.000138334               0.000662291               0.000523957               0.000000000               0.000000000               0.000000000               0.000000000               0.000227675               0.001843279               0.000177815              -0.000145031               0.000662764               0.000517733               0.000000000               0.000000000               0.000000000               0.000000000               0.000206903               0.001844475               0.000147217              -0.000152970               0.000665809               0.000512839               0.000000000               0.000000000               0.000000000               0.000000000               0.000183291               0.001855048               0.000120089              -0.000163146               0.000672725               0.000509579               0.000000000               0.000000000               0.000000000               0.000000000               0.000160948               0.001871433               0.000092449              -0.000173573               0.000681662               0.000508089               0.000000000               0.000000000               0.000000000               0.000000000               0.000140007               0.001889050               0.000068251              -0.000183628               0.000690886               0.000507258               0.000000000               0.000000000               0.000000000               0.000000000               0.000121791               0.001896810               0.000052460              -0.000191429               0.000696073               0.000504644               0.000000000               0.000000000               0.000000000               0.000000000               0.000110537               0.001900559               0.000044397              -0.000196118               0.000698886               0.000502768               0.000000000               0.000000000               0.000000000               0.000000000               0.000096144               0.001908566               0.000036590              -0.000202516               0.000703688               0.000501172               0.000000000               0.000000000               0.000000000               0.000000000               0.000074333               0.001928259               0.000024334              -0.000213157               0.000713799               0.000500642               0.000000000               0.000000000               0.000000000               0.000000000               0.000050787               0.001955114               0.000010782              -0.000225344               0.000726813               0.000501469               0.000000000               0.000000000               0.000000000               0.000000000               0.000025756               0.001982024               0.000003414              -0.000238094               0.000740033               0.000501939               0.000000000               0.000000000               0.000000000               0.000000000               0.000016628               0.002002013               0.000004361              -0.000244016               0.000748670               0.000504654               0.000000000               0.000000000               0.000000000               0.000000000               0.000694696               0.001668352               0.000882273               0.000051965               0.000538790               0.000590755               0.000000000               0.000000000               0.000000000               0.000000000               0.000464586               0.001669147               0.000660172              -0.000034424               0.000567851               0.000533427               0.000000000               0.000000000               0.000000000               0.000000000               0.000305166               0.001771700               0.000427654              -0.000107025               0.000626236               0.000519211               0.000000000               0.000000000               0.000000000               0.000000000               0.000248454               0.001795378               0.000317394              -0.000131252               0.000642204               0.000510952               0.000000000               0.000000000               0.000000000               0.000000000               0.000221842               0.001808571               0.000250093              -0.000142880               0.000650478               0.000507597               0.000000000               0.000000000               0.000000000               0.000000000               0.000204209               0.001823464               0.000202672              -0.000151354               0.000658267               0.000506912               0.000000000               0.000000000               0.000000000               0.000000000               0.000185345               0.001841805               0.000165003              -0.000160721               0.000667502               0.000506782               0.000000000               0.000000000               0.000000000               0.000000000               0.000161862               0.001866053               0.000131268              -0.000172558               0.000679531               0.000506973               0.000000000               0.000000000               0.000000000               0.000000000               0.000136897               0.001891833               0.000100024              -0.000185142               0.000692319               0.000507176               0.000000000               0.000000000               0.000000000               0.000000000               0.000119469               0.001913384               0.000074604              -0.000194372               0.000702579               0.000508207               0.000000000               0.000000000               0.000000000               0.000000000               0.000110144               0.001929542               0.000058251              -0.000199888               0.000709804               0.000509915               0.000000000               0.000000000               0.000000000               0.000000000               0.000101347               0.001949783               0.000047567              -0.000205717               0.000718494               0.000512776               0.000000000               0.000000000               0.000000000               0.000000000               0.000087336               0.001982070               0.000034909              -0.000215007               0.000732353               0.000517345               0.000000000               0.000000000               0.000000000               0.000000000               0.000067534               0.002024897               0.000018757              -0.000227786               0.000750888               0.000523101               0.000000000               0.000000000               0.000000000               0.000000000               0.000046914               0.002072162               0.000005722              -0.000241427               0.000771190               0.000529763               0.000000000               0.000000000               0.000000000               0.000000000               0.000025347               0.002118657               0.000000334              -0.000255326               0.000791321               0.000535994               0.000000000               0.000000000               0.000000000               0.000000000               0.000016986               0.002150292               0.000002543              -0.000262416               0.000804229               0.000541813               0.000000000               0.000000000               0.000000000               0.000000000               0.000709057               0.001380110               0.000813144               0.000093381               0.000428905               0.000522286               0.000000000               0.000000000               0.000000000               0.000000000               0.000471722               0.001478544               0.000647903              -0.000007923               0.000495484               0.000487561               0.000000000               0.000000000               0.000000000               0.000000000               0.000294343               0.001664933               0.000460908              -0.000097738               0.000587551               0.000489813               0.000000000               0.000000000               0.000000000               0.000000000               0.000240883               0.001732707               0.000354313              -0.000126257               0.000619649               0.000493392               0.000000000               0.000000000               0.000000000               0.000000000               0.000220520               0.001773143               0.000281619              -0.000138948               0.000637358               0.000498410               0.000000000               0.000000000               0.000000000               0.000000000               0.000203403               0.001803145               0.000225492              -0.000149117               0.000650748               0.000501631               0.000000000               0.000000000               0.000000000               0.000000000               0.000183684               0.001836553               0.000180511              -0.000160687               0.000665741               0.000505053               0.000000000               0.000000000               0.000000000               0.000000000               0.000160039               0.001875156               0.000142951              -0.000174379               0.000683172               0.000508793               0.000000000               0.000000000               0.000000000               0.000000000               0.000136392               0.001911922               0.000112653              -0.000187843               0.000699915               0.000512072               0.000000000               0.000000000               0.000000000               0.000000000               0.000122385               0.001941845               0.000085894              -0.000196836               0.000712887               0.000516051               0.000000000               0.000000000               0.000000000               0.000000000               0.000117202               0.001969614               0.000063496              -0.000202250               0.000723948               0.000521698               0.000000000               0.000000000               0.000000000               0.000000000               0.000108685               0.002007062               0.000045837              -0.000210125               0.000739056               0.000528930               0.000000000               0.000000000               0.000000000               0.000000000               0.000093515               0.002062796               0.000028982              -0.000222781               0.000761852               0.000539071               0.000000000               0.000000000               0.000000000               0.000000000               0.000074322               0.002130121               0.000010279              -0.000238394               0.000789498               0.000551104               0.000000000               0.000000000               0.000000000               0.000000000               0.000058651               0.002202444              -0.000003209              -0.000253311               0.000818578               0.000565267               0.000000000               0.000000000               0.000000000               0.000000000               0.000046984               0.002270427              -0.000007302              -0.000266184               0.000845529               0.000579345               0.000000000               0.000000000               0.000000000               0.000000000               0.000041864               0.002309587              -0.000005402              -0.000272999               0.000860854               0.000587856               0.000000000               0.000000000               0.000000000               0.000000000               0.000701704               0.001097058               0.000727251               0.000126005               0.000323680               0.000449685               0.000000000               0.000000000               0.000000000               0.000000000               0.000487255               0.001253680               0.000629349               0.000026010               0.000409219               0.000435228               0.000000000               0.000000000               0.000000000               0.000000000               0.000311062               0.001504911               0.000501422              -0.000071466               0.000525454               0.000453988               0.000000000               0.000000000               0.000000000               0.000000000               0.000254884               0.001619216               0.000402335              -0.000106821               0.000575340               0.000468520               0.000000000               0.000000000               0.000000000               0.000000000               0.000233585               0.001684594               0.000325257              -0.000122980               0.000602519               0.000479539               0.000000000               0.000000000               0.000000000               0.000000000               0.000218646               0.001733720               0.000261670              -0.000134723               0.000622808               0.000488086               0.000000000               0.000000000               0.000000000               0.000000000               0.000200631               0.001782047               0.000210442              -0.000147519               0.000643183               0.000495664               0.000000000               0.000000000               0.000000000               0.000000000               0.000179765               0.001831828               0.000170562              -0.000161566               0.000664459               0.000502892               0.000000000               0.000000000               0.000000000               0.000000000               0.000158166               0.001880154               0.000139902              -0.000175707               0.000685281               0.000509574               0.000000000               0.000000000               0.000000000               0.000000000               0.000142651               0.001926823               0.000111049              -0.000187358               0.000704721               0.000517362               0.000000000               0.000000000               0.000000000               0.000000000               0.000132508               0.001965607               0.000082237              -0.000196010               0.000720532               0.000524523               0.000000000               0.000000000               0.000000000               0.000000000               0.000124811               0.002011950               0.000056939              -0.000204689               0.000738873               0.000534184               0.000000000               0.000000000               0.000000000               0.000000000               0.000113651               0.002074078               0.000033072              -0.000216640               0.000763566               0.000546926               0.000000000               0.000000000               0.000000000               0.000000000               0.000101702               0.002154858               0.000013282              -0.000231218               0.000795351               0.000564133               0.000000000               0.000000000               0.000000000               0.000000000               0.000093793               0.002246899               0.000002379              -0.000245689               0.000830855               0.000585166               0.000000000               0.000000000               0.000000000               0.000000000               0.000092147               0.002338651              -0.000000575              -0.000257776               0.000865468               0.000607692               0.000000000               0.000000000               0.000000000               0.000000000               0.000089141               0.002383899              -0.000002118              -0.000264559               0.000882811               0.000618252               0.000000000               0.000000000               0.000000000               0.000000000               0.000663939               0.000825403               0.000625196               0.000145800               0.000226531               0.000372331               0.000000000               0.000000000               0.000000000               0.000000000               0.000504359               0.001028286               0.000595728               0.000060598               0.000322559               0.000383157               0.000000000               0.000000000               0.000000000               0.000000000               0.000347986               0.001325110               0.000530324              -0.000035144               0.000453414               0.000418269               0.000000000               0.000000000               0.000000000               0.000000000               0.000287121               0.001478553               0.000446928              -0.000077149               0.000518562               0.000441413               0.000000000               0.000000000               0.000000000               0.000000000               0.000260206               0.001572610               0.000371291              -0.000098999               0.000557198               0.000458199               0.000000000               0.000000000               0.000000000               0.000000000               0.000246064               0.001646041               0.000303983              -0.000113481               0.000586502               0.000473021               0.000000000               0.000000000               0.000000000               0.000000000               0.000231369               0.001712139               0.000248260              -0.000127254               0.000613125               0.000485871               0.000000000               0.000000000               0.000000000               0.000000000               0.000212896               0.001774334               0.000205830              -0.000141956               0.000638757               0.000496802               0.000000000               0.000000000               0.000000000               0.000000000               0.000191070               0.001832791               0.000173081              -0.000157447               0.000663407               0.000505959               0.000000000               0.000000000               0.000000000               0.000000000               0.000171236               0.001888501               0.000141855              -0.000171849               0.000686777               0.000514928               0.000000000               0.000000000               0.000000000               0.000000000               0.000157885               0.001939959               0.000108510              -0.000183287               0.000707742               0.000524455               0.000000000               0.000000000               0.000000000               0.000000000               0.000149412               0.001995136               0.000076332              -0.000193362               0.000729493               0.000536131               0.000000000               0.000000000               0.000000000               0.000000000               0.000144659               0.002058046               0.000048529              -0.000203008               0.000753678               0.000550670               0.000000000               0.000000000               0.000000000               0.000000000               0.000144391               0.002136683               0.000029068              -0.000212938               0.000783200               0.000570262               0.000000000               0.000000000               0.000000000               0.000000000               0.000144151               0.002229306               0.000016832              -0.000224606               0.000817963               0.000593357               0.000000000               0.000000000               0.000000000               0.000000000               0.000142980               0.002330923               0.000008277              -0.000237747               0.000856216               0.000618468               0.000000000               0.000000000               0.000000000               0.000000000               0.000133480               0.002376082               0.000000320              -0.000246955               0.000874338               0.000627383               0.000000000               0.000000000               0.000000000               0.000000000               0.000597321               0.000584526               0.000506788               0.000150928               0.000144530               0.000295458               0.000000000               0.000000000               0.000000000               0.000000000               0.000509494               0.000812485               0.000536415               0.000089498               0.000240992               0.000330491               0.000000000               0.000000000               0.000000000               0.000000000               0.000390820               0.001123637               0.000527928               0.000006102               0.000372508               0.000378610               0.000000000               0.000000000               0.000000000               0.000000000               0.000332731               0.001308979               0.000467061              -0.000038849               0.000449272               0.000410423               0.000000000               0.000000000               0.000000000               0.000000000               0.000300690               0.001435111               0.000399764              -0.000066630               0.000500576               0.000433945               0.000000000               0.000000000               0.000000000               0.000000000               0.000282346               0.001532791               0.000334696              -0.000085719               0.000539498               0.000453779               0.000000000               0.000000000               0.000000000               0.000000000               0.000267772               0.001620443               0.000278217              -0.000102141               0.000574189               0.000472048               0.000000000               0.000000000               0.000000000               0.000000000               0.000250574               0.001699686               0.000233559              -0.000118495               0.000606055               0.000487559               0.000000000               0.000000000               0.000000000               0.000000000               0.000227770               0.001768469               0.000198956              -0.000135644               0.000634698               0.000499054               0.000000000               0.000000000               0.000000000               0.000000000               0.000203376               0.001830781               0.000167403              -0.000152581               0.000661115               0.000508533               0.000000000               0.000000000               0.000000000               0.000000000               0.000186781               0.001894484               0.000133749              -0.000166767               0.000687077               0.000520310               0.000000000               0.000000000               0.000000000               0.000000000               0.000180752               0.001960571               0.000100870              -0.000177289               0.000712614               0.000535325               0.000000000               0.000000000               0.000000000               0.000000000               0.000181911               0.002032517               0.000073699              -0.000185848               0.000739448               0.000553600               0.000000000               0.000000000               0.000000000               0.000000000               0.000188142               0.002118356               0.000052525              -0.000194241               0.000770858               0.000576618               0.000000000               0.000000000               0.000000000               0.000000000               0.000193507               0.002215454               0.000036321              -0.000204366               0.000806599               0.000602233               0.000000000               0.000000000               0.000000000               0.000000000               0.000190636               0.002320782               0.000019583              -0.000218609               0.000846456               0.000627847               0.000000000               0.000000000               0.000000000               0.000000000               0.000175534               0.002367248               0.000005884              -0.000230080               0.000865768               0.000635688               0.000000000               0.000000000               0.000000000               0.000000000               0.000507533               0.000390303               0.000383331               0.000141535               0.000082921               0.000224456               0.000000000               0.000000000               0.000000000               0.000000000               0.000501275               0.000613986               0.000453614               0.000111229               0.000167583               0.000278812               0.000000000               0.000000000               0.000000000               0.000000000               0.000437392               0.000915226               0.000489059               0.000049618               0.000288533               0.000338151               0.000000000               0.000000000               0.000000000               0.000000000               0.000389705               0.001124693               0.000452468               0.000005552               0.000373043               0.000378595               0.000000000               0.000000000               0.000000000               0.000000000               0.000354427               0.001277707               0.000398580              -0.000026804               0.000434832               0.000408029               0.000000000               0.000000000               0.000000000               0.000000000               0.000330388               0.001399193               0.000340904              -0.000051004               0.000483394               0.000432390               0.000000000               0.000000000               0.000000000               0.000000000               0.000311663               0.001507166               0.000288367              -0.000071522               0.000526224               0.000454702               0.000000000               0.000000000               0.000000000               0.000000000               0.000293241               0.001602489               0.000244846              -0.000090346               0.000564273               0.000473927               0.000000000               0.000000000               0.000000000               0.000000000               0.000271584               0.001683167               0.000209993              -0.000108552               0.000597234               0.000488682               0.000000000               0.000000000               0.000000000               0.000000000               0.000248704               0.001754282               0.000180112              -0.000126021               0.000626762               0.000500741               0.000000000               0.000000000               0.000000000               0.000000000               0.000229972               0.001826595               0.000151707              -0.000142085               0.000656221               0.000514136               0.000000000               0.000000000               0.000000000               0.000000000               0.000222427               0.001906474               0.000123395              -0.000154899               0.000687118               0.000532219               0.000000000               0.000000000               0.000000000               0.000000000               0.000225287               0.001998207               0.000096933              -0.000165293               0.000721160               0.000555867               0.000000000               0.000000000               0.000000000               0.000000000               0.000234003               0.002102638               0.000075497              -0.000175078               0.000759232               0.000584154               0.000000000               0.000000000               0.000000000               0.000000000               0.000243302               0.002213616               0.000054544              -0.000185463               0.000799686               0.000614223               0.000000000               0.000000000               0.000000000               0.000000000               0.000244495               0.002325275               0.000028777              -0.000198973               0.000841408               0.000642435               0.000000000               0.000000000               0.000000000               0.000000000               0.000231258               0.002374334               0.000011343              -0.000210069               0.000861460               0.000651390               0.000000000               0.000000000               0.000000000               0.000000000               0.000410754               0.000245737               0.000266454               0.000123314               0.000040807               0.000164121               0.000000000               0.000000000               0.000000000               0.000000000               0.000483250               0.000444944               0.000352667               0.000125599               0.000106447               0.000232046               0.000000000               0.000000000               0.000000000               0.000000000               0.000482342               0.000721243               0.000412108               0.000090722               0.000210171               0.000300893               0.000000000               0.000000000               0.000000000               0.000000000               0.000451731               0.000942222               0.000395989               0.000051621               0.000296864               0.000348485               0.000000000               0.000000000               0.000000000               0.000000000               0.000416331               0.001115507               0.000357044               0.000016685               0.000366270               0.000382955               0.000000000               0.000000000               0.000000000               0.000000000               0.000385679               0.001257778               0.000311410              -0.000012593               0.000423453               0.000410860               0.000000000               0.000000000               0.000000000               0.000000000               0.000363024               0.001381725               0.000267288              -0.000036582               0.000472764               0.000436183               0.000000000               0.000000000               0.000000000               0.000000000               0.000340280               0.001487532               0.000229854              -0.000058336               0.000515285               0.000456948               0.000000000               0.000000000               0.000000000               0.000000000               0.000320195               0.001580581               0.000199474              -0.000077499               0.000552688               0.000475189               0.000000000               0.000000000               0.000000000               0.000000000               0.000300379               0.001666333               0.000173271              -0.000095649               0.000587322               0.000491672               0.000000000               0.000000000               0.000000000               0.000000000               0.000282994               0.001754088               0.000149607              -0.000113138               0.000622403               0.000509265               0.000000000               0.000000000               0.000000000               0.000000000               0.000271426               0.001852009               0.000129155              -0.000129716               0.000660569               0.000530853               0.000000000               0.000000000               0.000000000               0.000000000               0.000273987               0.001962945               0.000109799              -0.000142623               0.000701849               0.000559227               0.000000000               0.000000000               0.000000000               0.000000000               0.000286148               0.002086866               0.000089735              -0.000153552               0.000746799               0.000593247               0.000000000               0.000000000               0.000000000               0.000000000               0.000297697               0.002214250               0.000066574              -0.000165145               0.000793124               0.000627980               0.000000000               0.000000000               0.000000000               0.000000000               0.000305071               0.002332810               0.000036425              -0.000177199               0.000836662               0.000659463               0.000000000               0.000000000               0.000000000               0.000000000               0.000299326               0.002384080               0.000017097              -0.000185762               0.000856606               0.000670844               0.000000000               0.000000000               0.000000000               0.000000000               0.000323191               0.000148928               0.000164287               0.000102580               0.000015449               0.000118028               0.000000000               0.000000000               0.000000000               0.000000000               0.000462538               0.000317961               0.000240188               0.000133705               0.000061418               0.000195123               0.000000000               0.000000000               0.000000000               0.000000000               0.000519596               0.000562030               0.000298704               0.000124594               0.000145810               0.000270404               0.000000000               0.000000000               0.000000000               0.000000000               0.000506821               0.000782676               0.000295568               0.000092222               0.000230149               0.000322371               0.000000000               0.000000000               0.000000000               0.000000000               0.000474638               0.000971403               0.000270952               0.000056563               0.000304943               0.000361507               0.000000000               0.000000000               0.000000000               0.000000000               0.000440382               0.001129123               0.000240146               0.000024002               0.000368370               0.000392372               0.000000000               0.000000000               0.000000000               0.000000000               0.000411413               0.001263461               0.000208519              -0.000003653               0.000422367               0.000418714               0.000000000               0.000000000               0.000000000               0.000000000               0.000386060               0.001377494               0.000182033              -0.000027414               0.000468298               0.000440884               0.000000000               0.000000000               0.000000000               0.000000000               0.000363391               0.001479475               0.000160438              -0.000048663               0.000509374               0.000460712               0.000000000               0.000000000               0.000000000               0.000000000               0.000345052               0.001583463               0.000139386              -0.000068538               0.000550662               0.000482124               0.000000000               0.000000000               0.000000000               0.000000000               0.000329993               0.001692951               0.000120896              -0.000087871               0.000593602               0.000505730               0.000000000               0.000000000               0.000000000               0.000000000               0.000323056               0.001809090               0.000109157              -0.000104990               0.000638021               0.000533031               0.000000000               0.000000000               0.000000000               0.000000000               0.000325213               0.001934065               0.000100644              -0.000119803               0.000684616               0.000564813               0.000000000               0.000000000               0.000000000               0.000000000               0.000337966               0.002069461               0.000086353              -0.000131945               0.000733795               0.000601850               0.000000000               0.000000000               0.000000000               0.000000000               0.000355408               0.002208254               0.000064195              -0.000142754               0.000783662               0.000640908               0.000000000               0.000000000               0.000000000               0.000000000               0.000369475               0.002333743               0.000035929              -0.000153165               0.000828961               0.000675797               0.000000000               0.000000000               0.000000000               0.000000000               0.000371610               0.002387730               0.000019296              -0.000159112               0.000848939               0.000689827               0.000000000               0.000000000               0.000000000               0.000000000               0.000259750               0.000091442               0.000077130               0.000085975               0.000001822               0.000087797               0.000000000               0.000000000               0.000000000               0.000000000               0.000446123               0.000237128               0.000121075               0.000137654               0.000033157               0.000170811               0.000000000               0.000000000               0.000000000               0.000000000               0.000543173               0.000456277               0.000156518               0.000146654               0.000103206               0.000249860               0.000000000               0.000000000               0.000000000               0.000000000               0.000545613               0.000674481               0.000158257               0.000120293               0.000184727               0.000305020               0.000000000               0.000000000               0.000000000               0.000000000               0.000516463               0.000870075               0.000147070               0.000084913               0.000261718               0.000346631               0.000000000               0.000000000               0.000000000               0.000000000               0.000481142               0.001037761               0.000131022               0.000050708               0.000329014               0.000379722               0.000000000               0.000000000               0.000000000               0.000000000               0.000447447               0.001178764               0.000115042               0.000020447               0.000386102               0.000406549               0.000000000               0.000000000               0.000000000               0.000000000               0.000418683               0.001298245               0.000101377              -0.000005275               0.000434502               0.000429228               0.000000000               0.000000000               0.000000000               0.000000000               0.000392479               0.001408009               0.000090542              -0.000028822               0.000478939               0.000450117               0.000000000               0.000000000               0.000000000               0.000000000               0.000374475               0.001522888               0.000078110              -0.000049933               0.000524268               0.000474336               0.000000000               0.000000000               0.000000000               0.000000000               0.000365588               0.001646288               0.000067753              -0.000068691               0.000571654               0.000502963               0.000000000               0.000000000               0.000000000               0.000000000               0.000365425               0.001779575               0.000063666              -0.000085412               0.000621657               0.000536244               0.000000000               0.000000000               0.000000000               0.000000000               0.000369669               0.001920977               0.000061054              -0.000101496               0.000674151               0.000572655               0.000000000               0.000000000               0.000000000               0.000000000               0.000377630               0.002059392               0.000055771              -0.000115812               0.000725061               0.000609249               0.000000000               0.000000000               0.000000000               0.000000000               0.000393545               0.002191386               0.000041125              -0.000126344               0.000772569               0.000646226               0.000000000               0.000000000               0.000000000               0.000000000               0.000418966               0.002317914               0.000019904              -0.000132627               0.000816839               0.000684213               0.000000000               0.000000000               0.000000000               0.000000000               0.000434267               0.002377829               0.000008900              -0.000134378               0.000837395               0.000703016               0.000000000               0.000000000               0.000000000               0.000000000               0.000236495               0.000070827              -0.000000000               0.000079831              -0.000003002               0.000076830               0.000000000               0.000000000               0.000000000               0.000000000               0.000440375               0.000209188               0.000000000               0.000138991               0.000023398               0.000162389               0.000000000               0.000000000               0.000000000               0.000000000               0.000551214               0.000420818               0.000000000               0.000154101               0.000088904               0.000243005               0.000000000               0.000000000               0.000000000               0.000000000               0.000560017               0.000636685              -0.000000000               0.000130420               0.000168753               0.000299172               0.000000000               0.000000000               0.000000000               0.000000000               0.000531969               0.000832894               0.000000000               0.000095376               0.000245837               0.000341212               0.000000000               0.000000000               0.000000000               0.000000000               0.000495699               0.001004839               0.000000000               0.000060282               0.000314849               0.000375131               0.000000000               0.000000000               0.000000000               0.000000000               0.000461642               0.001147904               0.000000000               0.000029627               0.000372755               0.000402382               0.000000000               0.000000000               0.000000000               0.000000000               0.000429859               0.001268871               0.000000000               0.000002588               0.000422090               0.000424678               0.000000000               0.000000000               0.000000000               0.000000000               0.000403136               0.001382690              -0.000000000              -0.000021660               0.000468112               0.000446452               0.000000000               0.000000000               0.000000000               0.000000000               0.000383698               0.001498793              -0.000000000              -0.000043462               0.000514080               0.000470618               0.000000000               0.000000000               0.000000000               0.000000000               0.000380582               0.001628910              -0.000000000              -0.000060895               0.000563263               0.000502368               0.000000000               0.000000000               0.000000000               0.000000000               0.000382629               0.001770981              -0.000000000              -0.000077886               0.000616283               0.000538397               0.000000000               0.000000000               0.000000000               0.000000000               0.000387226               0.001917198              -0.000000000              -0.000094440               0.000670540               0.000576100               0.000000000               0.000000000               0.000000000               0.000000000               0.000392945               0.002057444               0.000000000              -0.000109826               0.000722417               0.000612591               0.000000000               0.000000000               0.000000000               0.000000000               0.000404184               0.002181613              -0.000000000              -0.000121132               0.000767574               0.000646442               0.000000000               0.000000000               0.000000000               0.000000000               0.000435270               0.002301409              -0.000000000              -0.000124449               0.000808612               0.000684163               0.000000000               0.000000000               0.000000000               0.000000000               0.000459431               0.002363073               0.000000000              -0.000123097               0.000828716               0.000705618               0.000000000               0.000000000               0.000000000               0.000000000               0.000303178               0.003383526               0.000000000              -0.000309248               0.001230914               0.000921665               0.000000000               0.000000000               0.000000000               0.000000000               0.000353023               0.002824678              -0.000000000              -0.000220701               0.001015117               0.000794416               0.000000000               0.000000000               0.000000000               0.000000000               0.000509776               0.002368742              -0.000000000              -0.000104926               0.000824548               0.000719622               0.000000000               0.000000000               0.000000000               0.000000000               0.000552725               0.002114115              -0.000000000              -0.000056992               0.000723695               0.000666703               0.000000000               0.000000000               0.000000000               0.000000000               0.000545684               0.001967309              -0.000000000              -0.000041282               0.000669524               0.000628242               0.000000000               0.000000000               0.000000000               0.000000000               0.000515240               0.001882511               0.000000000              -0.000042099               0.000641531               0.000599432               0.000000000               0.000000000               0.000000000               0.000000000               0.000470043               0.001834261               0.000000000              -0.000053016               0.000629086               0.000576070               0.000000000               0.000000000               0.000000000               0.000000000               0.000419438               0.001810950              -0.000000000              -0.000069079               0.000626671               0.000557591               0.000000000               0.000000000               0.000000000               0.000000000               0.000369290               0.001804463              -0.000000000              -0.000087074               0.000630506               0.000543432               0.000000000               0.000000000               0.000000000               0.000000000               0.000317773               0.001809634               0.000000000              -0.000107039               0.000638885               0.000531846               0.000000000               0.000000000               0.000000000               0.000000000               0.000265909               0.001825940               0.000000000              -0.000128526               0.000651483               0.000522956               0.000000000               0.000000000               0.000000000               0.000000000               0.000216123               0.001853157               0.000000000              -0.000150598               0.000667912               0.000517314               0.000000000               0.000000000               0.000000000               0.000000000               0.000163461               0.001882055               0.000000000              -0.000173959               0.000685331               0.000511373               0.000000000               0.000000000               0.000000000               0.000000000               0.000113053               0.001911558               0.000000000              -0.000196549               0.000702696               0.000506147               0.000000000               0.000000000               0.000000000               0.000000000               0.000072949               0.001941951               0.000000000              -0.000215388               0.000719107               0.000503719               0.000000000               0.000000000               0.000000000               0.000000000               0.000037169               0.001976905               0.000000000              -0.000233174               0.000736686               0.000503512               0.000000000               0.000000000               0.000000000               0.000000000               0.000022460               0.002006042               0.000000000              -0.000242332               0.000749451               0.000507119               0.000000000               0.000000000               0.000000000               0.000000000               0.000322476               0.003332829              -0.000265908              -0.000295675               0.001209490               0.000913815               0.000000000               0.000000000               0.000000000               0.000000000               0.000360545               0.002787641              -0.000180860              -0.000213250               0.001000288               0.000787037               0.000000000               0.000000000               0.000000000               0.000000000               0.000504597               0.002348891              -0.000091585              -0.000104387               0.000817751               0.000713364               0.000000000               0.000000000               0.000000000               0.000000000               0.000541276               0.002105400              -0.000048478              -0.000060196               0.000721858               0.000661662               0.000000000               0.000000000               0.000000000               0.000000000               0.000530282               0.001963891              -0.000026895              -0.000046630               0.000670167               0.000623537               0.000000000               0.000000000               0.000000000               0.000000000               0.000499092               0.001882616              -0.000016576              -0.000048167               0.000643588               0.000595421               0.000000000               0.000000000               0.000000000               0.000000000               0.000455455               0.001836757              -0.000011793              -0.000058799               0.000631846               0.000573047               0.000000000               0.000000000               0.000000000               0.000000000               0.000407025               0.001813892              -0.000009800              -0.000074102               0.000629325               0.000555223               0.000000000               0.000000000               0.000000000               0.000000000               0.000358427               0.001806642              -0.000008653              -0.000091420               0.000632681               0.000541261               0.000000000               0.000000000               0.000000000               0.000000000               0.000307751               0.001812055              -0.000007173              -0.000111100               0.000641046               0.000529946               0.000000000               0.000000000               0.000000000               0.000000000               0.000256820               0.001827817              -0.000004278              -0.000132169               0.000653323               0.000521153               0.000000000               0.000000000               0.000000000               0.000000000               0.000206034               0.001852114              -0.000003330              -0.000154251               0.000668782               0.000514531               0.000000000               0.000000000               0.000000000               0.000000000               0.000156198               0.001879917              -0.000005607              -0.000176415               0.000685438               0.000509023               0.000000000               0.000000000               0.000000000               0.000000000               0.000112125               0.001907616              -0.000009024              -0.000196405               0.000701334               0.000504929               0.000000000               0.000000000               0.000000000               0.000000000               0.000073166               0.001934821              -0.000009261              -0.000214415               0.000716405               0.000501991               0.000000000               0.000000000               0.000000000               0.000000000               0.000036022               0.001966244              -0.000003779              -0.000232272               0.000732832               0.000500560               0.000000000               0.000000000               0.000000000               0.000000000               0.000021314               0.001993347              -0.000000959              -0.000241175               0.000744834               0.000503659               0.000000000               0.000000000               0.000000000               0.000000000               0.000378619               0.003184305              -0.000506575              -0.000256056               0.001146776               0.000890721               0.000000000               0.000000000               0.000000000               0.000000000               0.000382179               0.002680970              -0.000343441              -0.000191804               0.000957582               0.000765779               0.000000000               0.000000000               0.000000000               0.000000000               0.000486771               0.002292053              -0.000174771              -0.000103967               0.000798666               0.000694699               0.000000000               0.000000000               0.000000000               0.000000000               0.000504575               0.002078030              -0.000096412              -0.000070538               0.000716182               0.000645644               0.000000000               0.000000000               0.000000000               0.000000000               0.000487812               0.001953819              -0.000057710              -0.000061298               0.000671699               0.000610401               0.000000000               0.000000000               0.000000000               0.000000000               0.000455453               0.001881432              -0.000038591              -0.000064384               0.000648599               0.000584215               0.000000000               0.000000000               0.000000000               0.000000000               0.000414433               0.001839818              -0.000029623              -0.000074565               0.000638122               0.000563557               0.000000000               0.000000000               0.000000000               0.000000000               0.000371416               0.001818201              -0.000025502              -0.000087994               0.000635392               0.000547398               0.000000000               0.000000000               0.000000000               0.000000000               0.000328020               0.001812480              -0.000022277              -0.000103552               0.000638672               0.000535119               0.000000000               0.000000000               0.000000000               0.000000000               0.000280606               0.001817765              -0.000017913              -0.000121993               0.000646580               0.000524587               0.000000000               0.000000000               0.000000000               0.000000000               0.000232515               0.001833015              -0.000012570              -0.000141933               0.000658310               0.000516377               0.000000000               0.000000000               0.000000000               0.000000000               0.000186530               0.001854192              -0.000009583              -0.000161825               0.000671999               0.000510174               0.000000000               0.000000000               0.000000000               0.000000000               0.000143322               0.001876490              -0.000012695              -0.000180815               0.000685762               0.000504947               0.000000000               0.000000000               0.000000000               0.000000000               0.000103532               0.001896583              -0.000019166              -0.000198248               0.000698271               0.000500023               0.000000000               0.000000000               0.000000000               0.000000000               0.000067003               0.001916819              -0.000018088              -0.000214476               0.000710425               0.000495949               0.000000000               0.000000000               0.000000000               0.000000000               0.000033021               0.001941003              -0.000006917              -0.000230242               0.000723742               0.000493500               0.000000000               0.000000000               0.000000000               0.000000000               0.000019103               0.001960461              -0.000001140              -0.000237893               0.000732778               0.000494885               0.000000000               0.000000000               0.000000000               0.000000000               0.000457940               0.002951266              -0.000699297              -0.000197181               0.001049472               0.000852292               0.000000000               0.000000000               0.000000000               0.000000000               0.000409433               0.002518179              -0.000475046              -0.000161235               0.000893130               0.000731895               0.000000000               0.000000000               0.000000000               0.000000000               0.000456845               0.002208248              -0.000246850              -0.000104714               0.000770980               0.000666266               0.000000000               0.000000000               0.000000000               0.000000000               0.000449843               0.002036601              -0.000143767              -0.000085884               0.000707488               0.000621604               0.000000000               0.000000000               0.000000000               0.000000000               0.000425520               0.001937927              -0.000094036              -0.000082671               0.000673526               0.000590855               0.000000000               0.000000000               0.000000000               0.000000000               0.000393411               0.001877943              -0.000068664              -0.000087214               0.000655046               0.000567832               0.000000000               0.000000000               0.000000000               0.000000000               0.000358154               0.001843124              -0.000055796              -0.000096083               0.000646396               0.000550313               0.000000000               0.000000000               0.000000000               0.000000000               0.000322325               0.001825410              -0.000048124              -0.000107304               0.000644232               0.000536928               0.000000000               0.000000000               0.000000000               0.000000000               0.000285597               0.001821678              -0.000041173              -0.000120610               0.000647423               0.000526813               0.000000000               0.000000000               0.000000000               0.000000000               0.000244490               0.001827575              -0.000032592              -0.000136763               0.000654773               0.000518010               0.000000000               0.000000000               0.000000000               0.000000000               0.000202822               0.001841823              -0.000022961              -0.000154169               0.000665324               0.000511155               0.000000000               0.000000000               0.000000000               0.000000000               0.000163321               0.001857564              -0.000018604              -0.000170950               0.000676165               0.000505215               0.000000000               0.000000000               0.000000000               0.000000000               0.000126564               0.001870272              -0.000021901              -0.000186322               0.000685525               0.000499203               0.000000000               0.000000000               0.000000000               0.000000000               0.000093597               0.001881731              -0.000027068              -0.000200117               0.000693943               0.000493826               0.000000000               0.000000000               0.000000000               0.000000000               0.000061368               0.001894404              -0.000021647              -0.000213787               0.000702724               0.000488937               0.000000000               0.000000000               0.000000000               0.000000000               0.000029124               0.001906651              -0.000007478              -0.000227409               0.000711347               0.000483938               0.000000000               0.000000000               0.000000000               0.000000000               0.000014960               0.001914760              -0.000001442              -0.000233735               0.000716159               0.000482424               0.000000000               0.000000000               0.000000000               0.000000000               0.000541664               0.002657905              -0.000831906              -0.000129115               0.000928997               0.000799883               0.000000000               0.000000000               0.000000000               0.000000000               0.000434022               0.002317871              -0.000570006              -0.000126976               0.000814941               0.000687965               0.000000000               0.000000000               0.000000000               0.000000000               0.000417519               0.002106789              -0.000306846              -0.000106779               0.000737849               0.000631070               0.000000000               0.000000000               0.000000000               0.000000000               0.000386803               0.001986850              -0.000191081              -0.000103305               0.000696712               0.000593407               0.000000000               0.000000000               0.000000000               0.000000000               0.000357400               0.001916865              -0.000135365              -0.000105583               0.000674143               0.000568560               0.000000000               0.000000000               0.000000000               0.000000000               0.000328287               0.001872875              -0.000105503              -0.000111001               0.000661286               0.000550285               0.000000000               0.000000000               0.000000000               0.000000000               0.000297703               0.001846326              -0.000087702              -0.000119152               0.000655153               0.000536001               0.000000000               0.000000000               0.000000000               0.000000000               0.000267870               0.001832915              -0.000074546              -0.000128663               0.000653853               0.000525190               0.000000000               0.000000000               0.000000000               0.000000000               0.000238007               0.001832832              -0.000061672              -0.000139851               0.000657555               0.000517704               0.000000000               0.000000000               0.000000000               0.000000000               0.000204806               0.001841870              -0.000046875              -0.000153431               0.000665094               0.000511663               0.000000000               0.000000000               0.000000000               0.000000000               0.000172309               0.001855437              -0.000033587              -0.000167313               0.000674244               0.000506931               0.000000000               0.000000000               0.000000000               0.000000000               0.000141301               0.001863728              -0.000027728              -0.000179978               0.000681229               0.000501251               0.000000000               0.000000000               0.000000000               0.000000000               0.000112576               0.001868077              -0.000028502              -0.000191293               0.000686450               0.000495157               0.000000000               0.000000000               0.000000000               0.000000000               0.000084696               0.001872382              -0.000028454              -0.000202286               0.000691550               0.000489264               0.000000000               0.000000000               0.000000000               0.000000000               0.000054861               0.001881096              -0.000019491              -0.000214564               0.000698547               0.000483983               0.000000000               0.000000000               0.000000000               0.000000000               0.000024684               0.001888891              -0.000007116              -0.000226854               0.000705242               0.000478388               0.000000000               0.000000000               0.000000000               0.000000000               0.000012331               0.001894656              -0.000003413              -0.000232207               0.000708948               0.000476741               0.000000000               0.000000000               0.000000000               0.000000000               0.000614613               0.002330680              -0.000903120              -0.000060856               0.000797171               0.000736315               0.000000000               0.000000000               0.000000000               0.000000000               0.000451175               0.002098365              -0.000629411              -0.000093105               0.000730483               0.000637378               0.000000000               0.000000000               0.000000000               0.000000000               0.000375006               0.001996562              -0.000355695              -0.000108943               0.000701828               0.000592885               0.000000000               0.000000000               0.000000000               0.000000000               0.000327692               0.001930473              -0.000237584              -0.000118425               0.000682959               0.000564535               0.000000000               0.000000000               0.000000000               0.000000000               0.000294380               0.001886725              -0.000178243              -0.000125448               0.000670718               0.000545270               0.000000000               0.000000000               0.000000000               0.000000000               0.000269330               0.001860433              -0.000143830              -0.000131555               0.000663990               0.000532435               0.000000000               0.000000000               0.000000000               0.000000000               0.000244781               0.001845554              -0.000120202              -0.000138901               0.000661479               0.000522578               0.000000000               0.000000000               0.000000000               0.000000000               0.000219858               0.001842392              -0.000100105              -0.000147852               0.000663408               0.000515557               0.000000000               0.000000000               0.000000000               0.000000000               0.000195058               0.001850664              -0.000079897              -0.000158186               0.000669610               0.000511425               0.000000000               0.000000000               0.000000000               0.000000000               0.000169268               0.001864249              -0.000058564              -0.000169555               0.000677929               0.000508373               0.000000000               0.000000000               0.000000000               0.000000000               0.000144375               0.001874294              -0.000042888              -0.000180146               0.000684807               0.000504661               0.000000000               0.000000000               0.000000000               0.000000000               0.000124541               0.001876517              -0.000035903              -0.000187861               0.000688120               0.000500259               0.000000000               0.000000000               0.000000000               0.000000000               0.000104566               0.001876374              -0.000032752              -0.000195334               0.000690563               0.000495229               0.000000000               0.000000000               0.000000000               0.000000000               0.000079095               0.001881635              -0.000026458              -0.000205543               0.000695720               0.000490177               0.000000000               0.000000000               0.000000000               0.000000000               0.000051831               0.001895577              -0.000014179              -0.000217510               0.000704356               0.000486846               0.000000000               0.000000000               0.000000000               0.000000000               0.000023384               0.001910878              -0.000004768              -0.000230090               0.000713650               0.000483559               0.000000000               0.000000000               0.000000000               0.000000000               0.000012678               0.001923380              -0.000004139              -0.000235668               0.000719676               0.000484008               0.000000000               0.000000000               0.000000000               0.000000000               0.000666354               0.001994267              -0.000917341               0.000000598               0.000664549               0.000665148               0.000000000               0.000000000               0.000000000               0.000000000               0.000461163               0.001878118              -0.000657733              -0.000061829               0.000646643               0.000584813               0.000000000               0.000000000               0.000000000               0.000000000               0.000335705               0.001884543              -0.000395525              -0.000109679               0.000664734               0.000555056               0.000000000               0.000000000               0.000000000               0.000000000               0.000279718               0.001865611              -0.000280845              -0.000128307               0.000664633               0.000536326               0.000000000               0.000000000               0.000000000               0.000000000               0.000247294               0.001848557              -0.000218025              -0.000138334               0.000662291               0.000523957               0.000000000               0.000000000               0.000000000               0.000000000               0.000227675               0.001843279              -0.000177815              -0.000145031               0.000662764               0.000517733               0.000000000               0.000000000               0.000000000               0.000000000               0.000206903               0.001844475              -0.000147217              -0.000152970               0.000665809               0.000512839               0.000000000               0.000000000               0.000000000               0.000000000               0.000183291               0.001855048              -0.000120089              -0.000163146               0.000672725               0.000509579               0.000000000               0.000000000               0.000000000               0.000000000               0.000160948               0.001871433              -0.000092449              -0.000173573               0.000681662               0.000508089               0.000000000               0.000000000               0.000000000               0.000000000               0.000140007               0.001889050              -0.000068251              -0.000183628               0.000690886               0.000507258               0.000000000               0.000000000               0.000000000               0.000000000               0.000121791               0.001896810              -0.000052460              -0.000191429               0.000696073               0.000504644               0.000000000               0.000000000               0.000000000               0.000000000               0.000110537               0.001900559              -0.000044397              -0.000196118               0.000698886               0.000502768               0.000000000               0.000000000               0.000000000               0.000000000               0.000096144               0.001908566              -0.000036590              -0.000202516               0.000703688               0.000501172               0.000000000               0.000000000               0.000000000               0.000000000               0.000074333               0.001928259              -0.000024334              -0.000213157               0.000713799               0.000500642               0.000000000               0.000000000               0.000000000               0.000000000               0.000050787               0.001955114              -0.000010782              -0.000225344               0.000726813               0.000501469               0.000000000               0.000000000               0.000000000               0.000000000               0.000025756               0.001982024              -0.000003414              -0.000238094               0.000740033               0.000501939               0.000000000               0.000000000               0.000000000               0.000000000               0.000016628               0.002002013              -0.000004361              -0.000244016               0.000748670               0.000504654               0.000000000               0.000000000               0.000000000               0.000000000               0.000694696               0.001668352              -0.000882273               0.000051965               0.000538790               0.000590755               0.000000000               0.000000000               0.000000000               0.000000000               0.000464586               0.001669147              -0.000660172              -0.000034424               0.000567851               0.000533427               0.000000000               0.000000000               0.000000000               0.000000000               0.000305166               0.001771700              -0.000427654              -0.000107025               0.000626236               0.000519211               0.000000000               0.000000000               0.000000000               0.000000000               0.000248454               0.001795378              -0.000317394              -0.000131252               0.000642204               0.000510952               0.000000000               0.000000000               0.000000000               0.000000000               0.000221842               0.001808571              -0.000250093              -0.000142880               0.000650478               0.000507597               0.000000000               0.000000000               0.000000000               0.000000000               0.000204209               0.001823464              -0.000202672              -0.000151354               0.000658267               0.000506912               0.000000000               0.000000000               0.000000000               0.000000000               0.000185345               0.001841805              -0.000165003              -0.000160721               0.000667502               0.000506782               0.000000000               0.000000000               0.000000000               0.000000000               0.000161862               0.001866053              -0.000131268              -0.000172558               0.000679531               0.000506973               0.000000000               0.000000000               0.000000000               0.000000000               0.000136897               0.001891833              -0.000100024              -0.000185142               0.000692319               0.000507176               0.000000000               0.000000000               0.000000000               0.000000000               0.000119469               0.001913384              -0.000074604              -0.000194372               0.000702579               0.000508207               0.000000000               0.000000000               0.000000000               0.000000000               0.000110144               0.001929542              -0.000058251              -0.000199888               0.000709804               0.000509915               0.000000000               0.000000000               0.000000000               0.000000000               0.000101347               0.001949783              -0.000047567              -0.000205717               0.000718494               0.000512776               0.000000000               0.000000000               0.000000000               0.000000000               0.000087336               0.001982070              -0.000034909              -0.000215007               0.000732353               0.000517345               0.000000000               0.000000000               0.000000000               0.000000000               0.000067534               0.002024897              -0.000018757              -0.000227786               0.000750888               0.000523101               0.000000000               0.000000000               0.000000000               0.000000000               0.000046914               0.002072162              -0.000005722              -0.000241427               0.000771190               0.000529763               0.000000000               0.000000000               0.000000000               0.000000000               0.000025347               0.002118657              -0.000000334              -0.000255326               0.000791321               0.000535994               0.000000000               0.000000000               0.000000000               0.000000000               0.000016986               0.002150292              -0.000002543              -0.000262416               0.000804229               0.000541813               0.000000000               0.000000000               0.000000000               0.000000000               0.000709057               0.001380110              -0.000813144               0.000093381               0.000428905               0.000522286               0.000000000               0.000000000               0.000000000               0.000000000               0.000471722               0.001478544              -0.000647903              -0.000007923               0.000495484               0.000487561               0.000000000               0.000000000               0.000000000               0.000000000               0.000294343               0.001664933              -0.000460908              -0.000097738               0.000587551               0.000489813               0.000000000               0.000000000               0.000000000               0.000000000               0.000240883               0.001732707              -0.000354313              -0.000126257               0.000619649               0.000493392               0.000000000               0.000000000               0.000000000               0.000000000               0.000220520               0.001773143              -0.000281619              -0.000138948               0.000637358               0.000498410               0.000000000               0.000000000               0.000000000               0.000000000               0.000203403               0.001803145              -0.000225492              -0.000149117               0.000650748               0.000501631               0.000000000               0.000000000               0.000000000               0.000000000               0.000183684               0.001836553              -0.000180511              -0.000160687               0.000665741               0.000505053               0.000000000               0.000000000               0.000000000               0.000000000               0.000160039               0.001875156              -0.000142951              -0.000174379               0.000683172               0.000508793               0.000000000               0.000000000               0.000000000               0.000000000               0.000136392               0.001911922              -0.000112653              -0.000187843               0.000699915               0.000512072               0.000000000               0.000000000               0.000000000               0.000000000               0.000122385               0.001941845              -0.000085894              -0.000196836               0.000712887               0.000516051               0.000000000               0.000000000               0.000000000               0.000000000               0.000117202               0.001969614              -0.000063496              -0.000202250               0.000723948               0.000521698               0.000000000               0.000000000               0.000000000               0.000000000               0.000108685               0.002007062              -0.000045837              -0.000210125               0.000739056               0.000528930               0.000000000               0.000000000               0.000000000               0.000000000               0.000093515               0.002062796              -0.000028982              -0.000222781               0.000761852               0.000539071               0.000000000               0.000000000               0.000000000               0.000000000               0.000074322               0.002130121              -0.000010279              -0.000238394               0.000789498               0.000551104               0.000000000               0.000000000               0.000000000               0.000000000               0.000058651               0.002202444               0.000003209              -0.000253311               0.000818578               0.000565267               0.000000000               0.000000000               0.000000000               0.000000000               0.000046984               0.002270427               0.000007302              -0.000266184               0.000845529               0.000579345               0.000000000               0.000000000               0.000000000               0.000000000               0.000041864               0.002309587               0.000005402              -0.000272999               0.000860854               0.000587856               0.000000000               0.000000000               0.000000000               0.000000000               0.000701704               0.001097058              -0.000727251               0.000126005               0.000323680               0.000449685               0.000000000               0.000000000               0.000000000               0.000000000               0.000487255               0.001253680              -0.000629349               0.000026010               0.000409219               0.000435228               0.000000000               0.000000000               0.000000000               0.000000000               0.000311062               0.001504911              -0.000501422              -0.000071466               0.000525454               0.000453988               0.000000000               0.000000000               0.000000000               0.000000000               0.000254884               0.001619216              -0.000402335              -0.000106821               0.000575340               0.000468520               0.000000000               0.000000000               0.000000000               0.000000000               0.000233585               0.001684594              -0.000325257              -0.000122980               0.000602519               0.000479539               0.000000000               0.000000000               0.000000000               0.000000000               0.000218646               0.001733720              -0.000261670              -0.000134723               0.000622808               0.000488086               0.000000000               0.000000000               0.000000000               0.000000000               0.000200631               0.001782047              -0.000210442              -0.000147519               0.000643183               0.000495664               0.000000000               0.000000000               0.000000000               0.000000000               0.000179765               0.001831828              -0.000170562              -0.000161566               0.000664459               0.000502892               0.000000000               0.000000000               0.000000000               0.000000000               0.000158166               0.001880154              -0.000139902              -0.000175707               0.000685281               0.000509574               0.000000000               0.000000000               0.000000000               0.000000000               0.000142651               0.001926823              -0.000111049              -0.000187358               0.000704721               0.000517362               0.000000000               0.000000000               0.000000000               0.000000000               0.000132508               0.001965607              -0.000082237              -0.000196010               0.000720532               0.000524523               0.000000000               0.000000000               0.000000000               0.000000000               0.000124811               0.002011950              -0.000056939              -0.000204689               0.000738873               0.000534184               0.000000000               0.000000000               0.000000000               0.000000000               0.000113651               0.002074078              -0.000033072              -0.000216640               0.000763566               0.000546926               0.000000000               0.000000000               0.000000000               0.000000000               0.000101702               0.002154858              -0.000013282              -0.000231218               0.000795351               0.000564133               0.000000000               0.000000000               0.000000000               0.000000000               0.000093793               0.002246899              -0.000002379              -0.000245689               0.000830855               0.000585166               0.000000000               0.000000000               0.000000000               0.000000000               0.000092147               0.002338651               0.000000575              -0.000257776               0.000865468               0.000607692               0.000000000               0.000000000               0.000000000               0.000000000               0.000089141               0.002383899               0.000002118              -0.000264559               0.000882811               0.000618252               0.000000000               0.000000000               0.000000000               0.000000000               0.000663939               0.000825403              -0.000625196               0.000145800               0.000226531               0.000372331               0.000000000               0.000000000               0.000000000               0.000000000               0.000504359               0.001028286              -0.000595728               0.000060598               0.000322559               0.000383157               0.000000000               0.000000000               0.000000000               0.000000000               0.000347986               0.001325110              -0.000530324              -0.000035144               0.000453414               0.000418269               0.000000000               0.000000000               0.000000000               0.000000000               0.000287121               0.001478553              -0.000446928              -0.000077149               0.000518562               0.000441413               0.000000000               0.000000000               0.000000000               0.000000000               0.000260206               0.001572610              -0.000371291              -0.000098999               0.000557198               0.000458199               0.000000000               0.000000000               0.000000000               0.000000000               0.000246064               0.001646041              -0.000303983              -0.000113481               0.000586502               0.000473021               0.000000000               0.000000000               0.000000000               0.000000000               0.000231369               0.001712139              -0.000248260              -0.000127254               0.000613125               0.000485871               0.000000000               0.000000000               0.000000000               0.000000000               0.000212896               0.001774334              -0.000205830              -0.000141956               0.000638757               0.000496802               0.000000000               0.000000000               0.000000000               0.000000000               0.000191070               0.001832791              -0.000173081              -0.000157447               0.000663407               0.000505959               0.000000000               0.000000000               0.000000000               0.000000000               0.000171236               0.001888501              -0.000141855              -0.000171849               0.000686777               0.000514928               0.000000000               0.000000000               0.000000000               0.000000000               0.000157885               0.001939959              -0.000108510              -0.000183287               0.000707742               0.000524455               0.000000000               0.000000000               0.000000000               0.000000000               0.000149412               0.001995136              -0.000076332              -0.000193362               0.000729493               0.000536131               0.000000000               0.000000000               0.000000000               0.000000000               0.000144659               0.002058046              -0.000048529              -0.000203008               0.000753678               0.000550670               0.000000000               0.000000000               0.000000000               0.000000000               0.000144391               0.002136683              -0.000029068              -0.000212938               0.000783200               0.000570262               0.000000000               0.000000000               0.000000000               0.000000000               0.000144151               0.002229306              -0.000016832              -0.000224606               0.000817963               0.000593357               0.000000000               0.000000000               0.000000000               0.000000000               0.000142980               0.002330923              -0.000008277              -0.000237747               0.000856216               0.000618468               0.000000000               0.000000000               0.000000000               0.000000000               0.000133480               0.002376082              -0.000000320              -0.000246955               0.000874338               0.000627383               0.000000000               0.000000000               0.000000000               0.000000000               0.000597321               0.000584526              -0.000506788               0.000150928               0.000144530               0.000295458               0.000000000               0.000000000               0.000000000               0.000000000               0.000509494               0.000812485              -0.000536415               0.000089498               0.000240992               0.000330491               0.000000000               0.000000000               0.000000000               0.000000000               0.000390820               0.001123637              -0.000527928               0.000006102               0.000372508               0.000378610               0.000000000               0.000000000               0.000000000               0.000000000               0.000332731               0.001308979              -0.000467061              -0.000038849               0.000449272               0.000410423               0.000000000               0.000000000               0.000000000               0.000000000               0.000300690               0.001435111              -0.000399764              -0.000066630               0.000500576               0.000433945               0.000000000               0.000000000               0.000000000               0.000000000               0.000282346               0.001532791              -0.000334696              -0.000085719               0.000539498               0.000453779               0.000000000               0.000000000               0.000000000               0.000000000               0.000267772               0.001620443              -0.000278217              -0.000102141               0.000574189               0.000472048               0.000000000               0.000000000               0.000000000               0.000000000               0.000250574               0.001699686              -0.000233559              -0.000118495               0.000606055               0.000487559               0.000000000               0.000000000               0.000000000               0.000000000               0.000227770               0.001768469              -0.000198956              -0.000135644               0.000634698               0.000499054               0.000000000               0.000000000               0.000000000               0.000000000               0.000203376               0.001830781              -0.000167403              -0.000152581               0.000661115               0.000508533               0.000000000               0.000000000               0.000000000               0.000000000               0.000186781               0.001894484              -0.000133749              -0.000166767               0.000687077               0.000520310               0.000000000               0.000000000               0.000000000               0.000000000               0.000180752               0.001960571              -0.000100870              -0.000177289               0.000712614               0.000535325               0.000000000               0.000000000               0.000000000               0.000000000               0.000181911               0.002032517              -0.000073699              -0.000185848               0.000739448               0.000553600               0.000000000               0.000000000               0.000000000               0.000000000               0.000188142               0.002118356              -0.000052525              -0.000194241               0.000770858               0.000576618               0.000000000               0.000000000               0.000000000               0.000000000               0.000193507               0.002215454              -0.000036321              -0.000204366               0.000806599               0.000602233               0.000000000               0.000000000               0.000000000               0.000000000               0.000190636               0.002320782              -0.000019583              -0.000218609               0.000846456               0.000627847               0.000000000               0.000000000               0.000000000               0.000000000               0.000175534               0.002367248              -0.000005884              -0.000230080               0.000865768               0.000635688               0.000000000               0.000000000               0.000000000               0.000000000               0.000507533               0.000390303              -0.000383331               0.000141535               0.000082921               0.000224456               0.000000000               0.000000000               0.000000000               0.000000000               0.000501275               0.000613986              -0.000453614               0.000111229               0.000167583               0.000278812               0.000000000               0.000000000               0.000000000               0.000000000               0.000437392               0.000915226              -0.000489059               0.000049618               0.000288533               0.000338151               0.000000000               0.000000000               0.000000000               0.000000000               0.000389705               0.001124693              -0.000452468               0.000005552               0.000373043               0.000378595               0.000000000               0.000000000               0.000000000               0.000000000               0.000354427               0.001277707              -0.000398580              -0.000026804               0.000434832               0.000408029               0.000000000               0.000000000               0.000000000               0.000000000               0.000330388               0.001399193              -0.000340904              -0.000051004               0.000483394               0.000432390               0.000000000               0.000000000               0.000000000               0.000000000               0.000311663               0.001507166              -0.000288367              -0.000071522               0.000526224               0.000454702               0.000000000               0.000000000               0.000000000               0.000000000               0.000293241               0.001602489              -0.000244846              -0.000090346               0.000564273               0.000473927               0.000000000               0.000000000               0.000000000               0.000000000               0.000271584               0.001683167              -0.000209993              -0.000108552               0.000597234               0.000488682               0.000000000               0.000000000               0.000000000               0.000000000               0.000248704               0.001754282              -0.000180112              -0.000126021               0.000626762               0.000500741               0.000000000               0.000000000               0.000000000               0.000000000               0.000229972               0.001826595              -0.000151707              -0.000142085               0.000656221               0.000514136               0.000000000               0.000000000               0.000000000               0.000000000               0.000222427               0.001906474              -0.000123395              -0.000154899               0.000687118               0.000532219               0.000000000               0.000000000               0.000000000               0.000000000               0.000225287               0.001998207              -0.000096933              -0.000165293               0.000721160               0.000555867               0.000000000               0.000000000               0.000000000               0.000000000               0.000234003               0.002102638              -0.000075497              -0.000175078               0.000759232               0.000584154               0.000000000               0.000000000               0.000000000               0.000000000               0.000243302               0.002213616              -0.000054544              -0.000185463               0.000799686               0.000614223               0.000000000               0.000000000               0.000000000               0.000000000               0.000244495               0.002325275              -0.000028777              -0.000198973               0.000841408               0.000642435               0.000000000               0.000000000               0.000000000               0.000000000               0.000231258               0.002374334              -0.000011343              -0.000210069               0.000861460               0.000651390               0.000000000               0.000000000               0.000000000               0.000000000               0.000410754               0.000245737              -0.000266454               0.000123314               0.000040807               0.000164121               0.000000000               0.000000000               0.000000000               0.000000000               0.000483250               0.000444944              -0.000352667               0.000125599               0.000106447               0.000232046               0.000000000               0.000000000               0.000000000               0.000000000               0.000482342               0.000721243              -0.000412108               0.000090722               0.000210171               0.000300893               0.000000000               0.000000000               0.000000000               0.000000000               0.000451731               0.000942222              -0.000395989               0.000051621               0.000296864               0.000348485               0.000000000               0.000000000               0.000000000               0.000000000               0.000416331               0.001115507              -0.000357044               0.000016685               0.000366270               0.000382955               0.000000000               0.000000000               0.000000000               0.000000000               0.000385679               0.001257778              -0.000311410              -0.000012593               0.000423453               0.000410860               0.000000000               0.000000000               0.000000000               0.000000000               0.000363024               0.001381725              -0.000267288              -0.000036582               0.000472764               0.000436183               0.000000000               0.000000000               0.000000000               0.000000000               0.000340280               0.001487532              -0.000229854              -0.000058336               0.000515285               0.000456948               0.000000000               0.000000000               0.000000000               0.000000000               0.000320195               0.001580581              -0.000199474              -0.000077499               0.000552688               0.000475189               0.000000000               0.000000000               0.000000000               0.000000000               0.000300379               0.001666333              -0.000173271              -0.000095649               0.000587322               0.000491672               0.000000000               0.000000000               0.000000000               0.000000000               0.000282994               0.001754088              -0.000149607              -0.000113138               0.000622403               0.000509265               0.000000000               0.000000000               0.000000000               0.000000000               0.000271426               0.001852009              -0.000129155              -0.000129716               0.000660569               0.000530853               0.000000000               0.000000000               0.000000000               0.000000000               0.000273987               0.001962945              -0.000109799              -0.000142623               0.000701849               0.000559227               0.000000000               0.000000000               0.000000000               0.000000000               0.000286148               0.002086866              -0.000089735              -0.000153552               0.000746799               0.000593247               0.000000000               0.000000000               0.000000000               0.000000000               0.000297697               0.002214250              -0.000066574              -0.000165145               0.000793124               0.000627980               0.000000000               0.000000000               0.000000000               0.000000000               0.000305071               0.002332810              -0.000036425              -0.000177199               0.000836662               0.000659463               0.000000000               0.000000000               0.000000000               0.000000000               0.000299326               0.002384080              -0.000017097              -0.000185762               0.000856606               0.000670844               0.000000000               0.000000000               0.000000000               0.000000000               0.000323191               0.000148928              -0.000164287               0.000102580               0.000015449               0.000118028               0.000000000               0.000000000               0.000000000               0.000000000               0.000462538               0.000317961              -0.000240188               0.000133705               0.000061418               0.000195123               0.000000000               0.000000000               0.000000000               0.000000000               0.000519596               0.000562030              -0.000298704               0.000124594               0.000145810               0.000270404               0.000000000               0.000000000               0.000000000               0.000000000               0.000506821               0.000782676              -0.000295568               0.000092222               0.000230149               0.000322371               0.000000000               0.000000000               0.000000000               0.000000000               0.000474638               0.000971403              -0.000270952               0.000056563               0.000304943               0.000361507               0.000000000               0.000000000               0.000000000               0.000000000               0.000440382               0.001129123              -0.000240146               0.000024002               0.000368370               0.000392372               0.000000000               0.000000000               0.000000000               0.000000000               0.000411413               0.001263461              -0.000208519              -0.000003653               0.000422367               0.000418714               0.000000000               0.000000000               0.000000000               0.000000000               0.000386060               0.001377494              -0.000182033              -0.000027414               0.000468298               0.000440884               0.000000000               0.000000000               0.000000000               0.000000000               0.000363391               0.001479475              -0.000160438              -0.000048663               0.000509374               0.000460712               0.000000000               0.000000000               0.000000000               0.000000000               0.000345052               0.001583463              -0.000139386              -0.000068538               0.000550662               0.000482124               0.000000000               0.000000000               0.000000000               0.000000000               0.000329993               0.001692951              -0.000120896              -0.000087871               0.000593602               0.000505730               0.000000000               0.000000000               0.000000000               0.000000000               0.000323056               0.001809090              -0.000109157              -0.000104990               0.000638021               0.000533031               0.000000000               0.000000000               0.000000000               0.000000000               0.000325213               0.001934065              -0.000100644              -0.000119803               0.000684616               0.000564813               0.000000000               0.000000000               0.000000000               0.000000000               0.000337966               0.002069461              -0.000086353              -0.000131945               0.000733795               0.000601850               0.000000000               0.000000000               0.000000000               0.000000000               0.000355408               0.002208254              -0.000064195              -0.000142754               0.000783662               0.000640908               0.000000000               0.000000000               0.000000000               0.000000000               0.000369475               0.002333743              -0.000035929              -0.000153165               0.000828961               0.000675797               0.000000000               0.000000000               0.000000000               0.000000000               0.000371610               0.002387730              -0.000019296              -0.000159112               0.000848939               0.000689827               0.000000000               0.000000000               0.000000000               0.000000000               0.000259750               0.000091442              -0.000077130               0.000085975               0.000001822               0.000087797               0.000000000               0.000000000               0.000000000               0.000000000               0.000446123               0.000237128              -0.000121075               0.000137654               0.000033157               0.000170811               0.000000000               0.000000000               0.000000000               0.000000000               0.000543173               0.000456277              -0.000156518               0.000146654               0.000103206               0.000249860               0.000000000               0.000000000               0.000000000               0.000000000               0.000545613               0.000674481              -0.000158257               0.000120293               0.000184727               0.000305020               0.000000000               0.000000000               0.000000000               0.000000000               0.000516463               0.000870075              -0.000147070               0.000084913               0.000261718               0.000346631               0.000000000               0.000000000               0.000000000               0.000000000               0.000481142               0.001037761              -0.000131022               0.000050708               0.000329014               0.000379722               0.000000000               0.000000000               0.000000000               0.000000000               0.000447447               0.001178764              -0.000115042               0.000020447               0.000386102               0.000406549               0.000000000               0.000000000               0.000000000               0.000000000               0.000418683               0.001298245              -0.000101377              -0.000005275               0.000434502               0.000429228               0.000000000               0.000000000               0.000000000               0.000000000               0.000392479               0.001408009              -0.000090542              -0.000028822               0.000478939               0.000450117               0.000000000               0.000000000               0.000000000               0.000000000               0.000374475               0.001522888              -0.000078110              -0.000049933               0.000524268               0.000474336               0.000000000               0.000000000               0.000000000               0.000000000               0.000365588               0.001646288              -0.000067753              -0.000068691               0.000571654               0.000502963               0.000000000               0.000000000               0.000000000               0.000000000               0.000365425               0.001779575              -0.000063666              -0.000085412               0.000621657               0.000536244               0.000000000               0.000000000               0.000000000               0.000000000               0.000369669               0.001920977              -0.000061054              -0.000101496               0.000674151               0.000572655               0.000000000               0.000000000               0.000000000               0.000000000               0.000377630               0.002059392              -0.000055771              -0.000115812               0.000725061               0.000609249               0.000000000               0.000000000               0.000000000               0.000000000               0.000393545               0.002191386              -0.000041125              -0.000126344               0.000772569               0.000646226               0.000000000               0.000000000               0.000000000               0.000000000               0.000418966               0.002317914              -0.000019904              -0.000132627               0.000816839               0.000684213               0.000000000               0.000000000               0.000000000               0.000000000               0.000434267               0.002377829              -0.000008900              -0.000134378               0.000837395               0.000703016               0.000000000               0.000000000               0.000000000               0.000000000               0.000000000               0.000000000               0.000000000               0.000000000               0.000000000               0.000000000               0.000000000               0.000000000               0.000000000               0.000000000               0.000000000               0.000000000               0.000000000               0.000000000               0.000000000               0.000000000               0.000000000               0.000000000               0.000000000               0.000000000               0.000000000               0.000000000               0.000000000               0.000000000               0.000000000               0.000000000               0.000000000               0.000000000               0.000000000               0.000000000               0.000000000               0.000000000               0.000000000               0.000000000               0.000000000               0.000000000               0.000000000               0.000000000               0.000000000               0.000000000               0.000000000               0.000000000               0.000000000               0.000000000               0.000000000               0.000000000               0.000000000               0.000000000               0.000000000               0.000000000               0.000000000               0.000000000               0.000000000               0.000000000               0.000000000               0.000000000               0.000000000               0.000000000               0.000000000               0.000000000               0.000000000               0.000000000               0.000000000               0.000000000               0.000000000               0.000000000               0.000000000               0.000000000               0.000000000               0.000000000               0.000000000               0.000000000               0.000000000               0.000000000               0.000000000               0.000000000               0.000000000               0.000000000               0.000000000               0.000000000               0.000000000               0.000000000               0.000000000               0.000000000               0.000000000               0.000000000               0.000000000               0.000000000               0.000000000               0.000000000               0.000000000               0.000000000               0.000000000               0.000000000               0.000000000               0.000000000               0.000000000               0.000000000               0.000000000               0.000000000               0.000000000               0.000000000               0.000000000               0.000000000               0.000000000               0.000000000               0.000000000               0.000000000               0.000000000               0.000000000               0.000000000               0.000000000               0.000000000               0.000000000               0.000000000               0.000000000               0.000000000               0.000000000               0.000000000               0.000000000               0.000000000               0.000000000               0.000000000               0.000000000               0.000000000               0.000000000               0.000000000               0.000000000               0.000000000               0.000000000               0.000000000               0.000000000               0.000000000               0.000000000               0.000000000               0.000000000               0.000000000               0.000000000               0.000000000               0.000000000               0.000000000               0.000000000               0.000000000               0.000000000               0.000000000               0.000000000               0.000000000               0.000000000               0.000000000               0.000000000               0.000000000               0.000000000               0.000000000               0.000000000               0.000000000               0.000000000               0.000000000               0.000000000               0.000000000               0.000000000               0.000000000               0.000000000               0.000000000               0.000000000               0.000000000               0.000000000               0.000000000               0.000000000               0.000000000               0.000000000               0.000000000               0.000000000               0.000000000               0.000000000               0.000000000               0.000000000               0.000000000               0.000000000               0.000000000               0.000000000               0.000000000               0.000000000               0.000000000               0.000000000               0.000000000               0.000000000               0.000000000               0.000000000               0.000000000               0.000000000               0.000000000               0.000000000               0.000000000               0.000000000               0.000000000               0.000000000               0.000000000               0.000000000               0.000000000               0.000000000               0.000000000               0.000000000               0.000000000               0.000000000               0.000000000               0.000000000               0.000000000               0.000000000               0.000000000               0.000000000               0.000000000               0.000000000               0.000000000               0.000000000               0.000000000               0.000000000               0.000000000               0.000000000               0.000000000               0.000000000               0.000000000               0.000000000               0.000000000               0.000000000               0.000000000               0.000000000               0.000000000               0.000000000               0.000000000               0.000000000               0.000000000               0.000000000               0.000000000               0.000000000               0.000000000               0.000000000               0.000000000               0.000000000               0.000000000               0.000000000               0.000000000               0.000000000               0.000000000               0.000000000               0.000000000               0.000000000               0.000000000               0.000000000               0.000000000               0.000000000               0.000000000               0.000000000               0.000000000               0.000000000               0.000000000               0.000000000               0.000000000               0.000000000               0.000000000               0.000000000               0.000000000               0.000000000               0.000000000               0.000000000               0.000000000               0.000000000               0.000000000               0.000000000               0.000000000               0.000000000               0.000000000               0.000000000               0.000000000               0.000000000               0.000000000               0.000000000               0.000000000               0.000000000               0.000000000               0.000000000               0.000000000               0.000000000               0.000000000               0.000000000               0.000000000               0.000000000               0.000000000               0.000000000               0.000000000               0.000000000               0.000000000               0.000000000               0.000000000               0.000000000               0.000000000               0.000000000               0.000000000               0.000000000               0.000000000               0.000000000               0.000000000               0.000000000               0.000000000               0.000000000               0.000000000               0.000000000               0.000000000               0.000000000               0.000000000               0.000000000               0.000000000               0.000000000               0.000000000               0.000000000               0.000000000               0.000000000               0.000000000               0.000000000               0.000000000               0.000000000               0.000000000               0.000000000               0.000000000               0.000000000               0.000000000               0.000000000               0.000000000               0.000000000               0.000000000               0.000000000               0.000000000               0.000000000               0.000000000               0.000000000               0.000000000               0.000000000               0.000000000               0.000000000               0.000000000               0.000000000               0.000322476               0.003332829               0.000265908              -0.000295675               0.001209490               0.000913815               0.000000000               0.000000000               0.000000000               0.000000000               0.000360545               0.002787641               0.000180860              -0.000213250               0.001000288               0.000787037               0.000000000               0.000000000               0.000000000               0.000000000               0.000504597               0.002348891               0.000091585              -0.000104387               0.000817751               0.000713364               0.000000000               0.000000000               0.000000000               0.000000000               0.000541276               0.002105400               0.000048478              -0.000060196               0.000721858               0.000661662               0.000000000               0.000000000               0.000000000               0.000000000               0.000530282               0.001963891               0.000026895              -0.000046630               0.000670167               0.000623537               0.000000000               0.000000000               0.000000000               0.000000000               0.000499092               0.001882616               0.000016576              -0.000048167               0.000643588               0.000595421               0.000000000               0.000000000               0.000000000               0.000000000               0.000455455               0.001836757               0.000011793              -0.000058799               0.000631846               0.000573047               0.000000000               0.000000000               0.000000000               0.000000000               0.000407025               0.001813892               0.000009800              -0.000074102               0.000629325               0.000555223               0.000000000               0.000000000               0.000000000               0.000000000               0.000358427               0.001806642               0.000008653              -0.000091420               0.000632681               0.000541261               0.000000000               0.000000000               0.000000000               0.000000000               0.000307751               0.001812055               0.000007173              -0.000111100               0.000641046               0.000529946               0.000000000               0.000000000               0.000000000               0.000000000               0.000256820               0.001827817               0.000004278              -0.000132169               0.000653323               0.000521153               0.000000000               0.000000000               0.000000000               0.000000000               0.000206034               0.001852114               0.000003330              -0.000154251               0.000668782               0.000514531               0.000000000               0.000000000               0.000000000               0.000000000               0.000156198               0.001879917               0.000005607              -0.000176415               0.000685438               0.000509023               0.000000000               0.000000000               0.000000000               0.000000000               0.000112125               0.001907616               0.000009024              -0.000196405               0.000701334               0.000504929               0.000000000               0.000000000               0.000000000               0.000000000               0.000073166               0.001934821               0.000009261              -0.000214415               0.000716405               0.000501991               0.000000000               0.000000000               0.000000000               0.000000000               0.000036022               0.001966244               0.000003779              -0.000232272               0.000732832               0.000500560               0.000000000               0.000000000               0.000000000               0.000000000               0.000021314               0.001993347               0.000000959              -0.000241175               0.000744834               0.000503659               0.000000000               0.000000000               0.000000000               0.000000000               0.000378619               0.003184305               0.000506575              -0.000256056               0.001146776               0.000890721               0.000000000               0.000000000               0.000000000               0.000000000               0.000382179               0.002680970               0.000343441              -0.000191804               0.000957582               0.000765779               0.000000000               0.000000000               0.000000000               0.000000000               0.000486771               0.002292053               0.000174771              -0.000103967               0.000798666               0.000694699               0.000000000               0.000000000               0.000000000               0.000000000               0.000504575               0.002078030               0.000096412              -0.000070538               0.000716182               0.000645644               0.000000000               0.000000000               0.000000000               0.000000000               0.000487812               0.001953819               0.000057710              -0.000061298               0.000671699               0.000610401               0.000000000               0.000000000               0.000000000               0.000000000               0.000455453               0.001881432               0.000038591              -0.000064384               0.000648599               0.000584215               0.000000000               0.000000000               0.000000000               0.000000000               0.000414433               0.001839818               0.000029623              -0.000074565               0.000638122               0.000563557               0.000000000               0.000000000               0.000000000               0.000000000               0.000371416               0.001818201               0.000025502              -0.000087994               0.000635392               0.000547398               0.000000000               0.000000000               0.000000000               0.000000000               0.000328020               0.001812480               0.000022277              -0.000103552               0.000638672               0.000535119               0.000000000               0.000000000               0.000000000               0.000000000               0.000280606               0.001817765               0.000017913              -0.000121993               0.000646580               0.000524587               0.000000000               0.000000000               0.000000000               0.000000000               0.000232515               0.001833015               0.000012570              -0.000141933               0.000658310               0.000516377               0.000000000               0.000000000               0.000000000               0.000000000               0.000186530               0.001854192               0.000009583              -0.000161825               0.000671999               0.000510174               0.000000000               0.000000000               0.000000000               0.000000000               0.000143322               0.001876490               0.000012695              -0.000180815               0.000685762               0.000504947               0.000000000               0.000000000               0.000000000               0.000000000               0.000103532               0.001896583               0.000019166              -0.000198248               0.000698271               0.000500023               0.000000000               0.000000000               0.000000000               0.000000000               0.000067003               0.001916819               0.000018088              -0.000214476               0.000710425               0.000495949               0.000000000               0.000000000               0.000000000               0.000000000               0.000033021               0.001941003               0.000006917              -0.000230242               0.000723742               0.000493500               0.000000000               0.000000000               0.000000000               0.000000000               0.000019103               0.001960461               0.000001140              -0.000237893               0.000732778               0.000494885               0.000000000               0.000000000               0.000000000               0.000000000               0.000457940               0.002951266               0.000699297              -0.000197181               0.001049472               0.000852292               0.000000000               0.000000000               0.000000000               0.000000000               0.000409433               0.002518179               0.000475046              -0.000161235               0.000893130               0.000731895               0.000000000               0.000000000               0.000000000               0.000000000               0.000456845               0.002208248               0.000246850              -0.000104714               0.000770980               0.000666266               0.000000000               0.000000000               0.000000000               0.000000000               0.000449843               0.002036601               0.000143767              -0.000085884               0.000707488               0.000621604               0.000000000               0.000000000               0.000000000               0.000000000               0.000425520               0.001937927               0.000094036              -0.000082671               0.000673526               0.000590855               0.000000000               0.000000000               0.000000000               0.000000000               0.000393411               0.001877943               0.000068664              -0.000087214               0.000655046               0.000567832               0.000000000               0.000000000               0.000000000               0.000000000               0.000358154               0.001843124               0.000055796              -0.000096083               0.000646396               0.000550313               0.000000000               0.000000000               0.000000000               0.000000000               0.000322325               0.001825410               0.000048124              -0.000107304               0.000644232               0.000536928               0.000000000               0.000000000               0.000000000               0.000000000               0.000285597               0.001821678               0.000041173              -0.000120610               0.000647423               0.000526813               0.000000000               0.000000000               0.000000000               0.000000000               0.000244490               0.001827575               0.000032592              -0.000136763               0.000654773               0.000518010               0.000000000               0.000000000               0.000000000               0.000000000               0.000202822               0.001841823               0.000022961              -0.000154169               0.000665324               0.000511155               0.000000000               0.000000000               0.000000000               0.000000000               0.000163321               0.001857564               0.000018604              -0.000170950               0.000676165               0.000505215               0.000000000               0.000000000               0.000000000               0.000000000               0.000126564               0.001870272               0.000021901              -0.000186322               0.000685525               0.000499203               0.000000000               0.000000000               0.000000000               0.000000000               0.000093597               0.001881731               0.000027068              -0.000200117               0.000693943               0.000493826               0.000000000               0.000000000               0.000000000               0.000000000               0.000061368               0.001894404               0.000021647              -0.000213787               0.000702724               0.000488937               0.000000000               0.000000000               0.000000000               0.000000000               0.000029124               0.001906651               0.000007478              -0.000227409               0.000711347               0.000483938               0.000000000               0.000000000               0.000000000               0.000000000               0.000014960               0.001914760               0.000001442              -0.000233735               0.000716159               0.000482424               0.000000000               0.000000000               0.000000000               0.000000000               0.000541664               0.002657905               0.000831906              -0.000129115               0.000928997               0.000799883               0.000000000               0.000000000               0.000000000               0.000000000               0.000434022               0.002317871               0.000570006              -0.000126976               0.000814941               0.000687965               0.000000000               0.000000000               0.000000000               0.000000000               0.000417519               0.002106789               0.000306846              -0.000106779               0.000737849               0.000631070               0.000000000               0.000000000               0.000000000               0.000000000               0.000386803               0.001986850               0.000191081              -0.000103305               0.000696712               0.000593407               0.000000000               0.000000000               0.000000000               0.000000000               0.000357400               0.001916865               0.000135365              -0.000105583               0.000674143               0.000568560               0.000000000               0.000000000               0.000000000               0.000000000               0.000328287               0.001872875               0.000105503              -0.000111001               0.000661286               0.000550285               0.000000000               0.000000000               0.000000000               0.000000000               0.000297703               0.001846326               0.000087702              -0.000119152               0.000655153               0.000536001               0.000000000               0.000000000               0.000000000               0.000000000               0.000267870               0.001832915               0.000074546              -0.000128663               0.000653853               0.000525190               0.000000000               0.000000000               0.000000000               0.000000000               0.000238007               0.001832832               0.000061672              -0.000139851               0.000657555               0.000517704               0.000000000               0.000000000               0.000000000               0.000000000               0.000204806               0.001841870               0.000046875              -0.000153431               0.000665094               0.000511663               0.000000000               0.000000000               0.000000000               0.000000000               0.000172309               0.001855437               0.000033587              -0.000167313               0.000674244               0.000506931               0.000000000               0.000000000               0.000000000               0.000000000               0.000141301               0.001863728               0.000027728              -0.000179978               0.000681229               0.000501251               0.000000000               0.000000000               0.000000000               0.000000000               0.000112576               0.001868077               0.000028502              -0.000191293               0.000686450               0.000495157               0.000000000               0.000000000               0.000000000               0.000000000               0.000084696               0.001872382               0.000028454              -0.000202286               0.000691550               0.000489264               0.000000000               0.000000000               0.000000000               0.000000000               0.000054861               0.001881096               0.000019491              -0.000214564               0.000698547               0.000483983               0.000000000               0.000000000               0.000000000               0.000000000               0.000024684               0.001888891               0.000007116              -0.000226854               0.000705242               0.000478388               0.000000000               0.000000000               0.000000000               0.000000000               0.000012331               0.001894656               0.000003413              -0.000232207               0.000708948               0.000476741               0.000000000               0.000000000               0.000000000               0.000000000               0.000614613               0.002330680               0.000903120              -0.000060856               0.000797171               0.000736315               0.000000000               0.000000000               0.000000000               0.000000000               0.000451175               0.002098365               0.000629411              -0.000093105               0.000730483               0.000637378               0.000000000               0.000000000               0.000000000               0.000000000               0.000375006               0.001996562               0.000355695              -0.000108943               0.000701828               0.000592885               0.000000000               0.000000000               0.000000000               0.000000000               0.000327692               0.001930473               0.000237584              -0.000118425               0.000682959               0.000564535               0.000000000               0.000000000               0.000000000               0.000000000               0.000294380               0.001886725               0.000178243              -0.000125448               0.000670718               0.000545270               0.000000000               0.000000000               0.000000000               0.000000000               0.000269330               0.001860433               0.000143830              -0.000131555               0.000663990               0.000532435               0.000000000               0.000000000               0.000000000               0.000000000               0.000244781               0.001845554               0.000120202              -0.000138901               0.000661479               0.000522578               0.000000000               0.000000000               0.000000000               0.000000000               0.000219858               0.001842392               0.000100105              -0.000147852               0.000663408               0.000515557               0.000000000               0.000000000               0.000000000               0.000000000               0.000195058               0.001850664               0.000079897              -0.000158186               0.000669610               0.000511425               0.000000000               0.000000000               0.000000000               0.000000000               0.000169268               0.001864249               0.000058564              -0.000169555               0.000677929               0.000508373               0.000000000               0.000000000               0.000000000               0.000000000               0.000144375               0.001874294               0.000042888              -0.000180146               0.000684807               0.000504661               0.000000000               0.000000000               0.000000000               0.000000000               0.000124541               0.001876517               0.000035903              -0.000187861               0.000688120               0.000500259               0.000000000               0.000000000               0.000000000               0.000000000               0.000104566               0.001876374               0.000032752              -0.000195334               0.000690563               0.000495229               0.000000000               0.000000000               0.000000000               0.000000000               0.000079095               0.001881635               0.000026458              -0.000205543               0.000695720               0.000490177               0.000000000               0.000000000               0.000000000               0.000000000               0.000051831               0.001895577               0.000014179              -0.000217510               0.000704356               0.000486846               0.000000000               0.000000000               0.000000000               0.000000000               0.000023384               0.001910878               0.000004768              -0.000230090               0.000713650               0.000483559               0.000000000               0.000000000               0.000000000               0.000000000               0.000012678               0.001923380               0.000004139              -0.000235668               0.000719676               0.000484008               0.000000000               0.000000000               0.000000000               0.000000000               0.000666354               0.001994267               0.000917341               0.000000598               0.000664549               0.000665148               0.000000000               0.000000000               0.000000000               0.000000000               0.000461163               0.001878118               0.000657733              -0.000061829               0.000646643               0.000584813               0.000000000               0.000000000               0.000000000               0.000000000               0.000335705               0.001884543               0.000395525              -0.000109679               0.000664734               0.000555056               0.000000000               0.000000000               0.000000000               0.000000000               0.000279718               0.001865611               0.000280845              -0.000128307               0.000664633               0.000536326               0.000000000               0.000000000               0.000000000               0.000000000               0.000247294               0.001848557               0.000218025              -0.000138334               0.000662291               0.000523957               0.000000000               0.000000000               0.000000000               0.000000000               0.000227675               0.001843279               0.000177815              -0.000145031               0.000662764               0.000517733               0.000000000               0.000000000               0.000000000               0.000000000               0.000206903               0.001844475               0.000147217              -0.000152970               0.000665809               0.000512839               0.000000000               0.000000000               0.000000000               0.000000000               0.000183291               0.001855048               0.000120089              -0.000163146               0.000672725               0.000509579               0.000000000               0.000000000               0.000000000               0.000000000               0.000160948               0.001871433               0.000092449              -0.000173573               0.000681662               0.000508089               0.000000000               0.000000000               0.000000000               0.000000000               0.000140007               0.001889050               0.000068251              -0.000183628               0.000690886               0.000507258               0.000000000               0.000000000               0.000000000               0.000000000               0.000121791               0.001896810               0.000052460              -0.000191429               0.000696073               0.000504644               0.000000000               0.000000000               0.000000000               0.000000000               0.000110537               0.001900559               0.000044397              -0.000196118               0.000698886               0.000502768               0.000000000               0.000000000               0.000000000               0.000000000               0.000096144               0.001908566               0.000036590              -0.000202516               0.000703688               0.000501172               0.000000000               0.000000000               0.000000000               0.000000000               0.000074333               0.001928259               0.000024334              -0.000213157               0.000713799               0.000500642               0.000000000               0.000000000               0.000000000               0.000000000               0.000050787               0.001955114               0.000010782              -0.000225344               0.000726813               0.000501469               0.000000000               0.000000000               0.000000000               0.000000000               0.000025756               0.001982024               0.000003414              -0.000238094               0.000740033               0.000501939               0.000000000               0.000000000               0.000000000               0.000000000               0.000016628               0.002002013               0.000004361              -0.000244016               0.000748670               0.000504654               0.000000000               0.000000000               0.000000000               0.000000000               0.000694696               0.001668352               0.000882273               0.000051965               0.000538790               0.000590755               0.000000000               0.000000000               0.000000000               0.000000000               0.000464586               0.001669147               0.000660172              -0.000034424               0.000567851               0.000533427               0.000000000               0.000000000               0.000000000               0.000000000               0.000305166               0.001771700               0.000427654              -0.000107025               0.000626236               0.000519211               0.000000000               0.000000000               0.000000000               0.000000000               0.000248454               0.001795378               0.000317394              -0.000131252               0.000642204               0.000510952               0.000000000               0.000000000               0.000000000               0.000000000               0.000221842               0.001808571               0.000250093              -0.000142880               0.000650478               0.000507597               0.000000000               0.000000000               0.000000000               0.000000000               0.000204209               0.001823464               0.000202672              -0.000151354               0.000658267               0.000506912               0.000000000               0.000000000               0.000000000               0.000000000               0.000185345               0.001841805               0.000165003              -0.000160721               0.000667502               0.000506782               0.000000000               0.000000000               0.000000000               0.000000000               0.000161862               0.001866053               0.000131268              -0.000172558               0.000679531               0.000506973               0.000000000               0.000000000               0.000000000               0.000000000               0.000136897               0.001891833               0.000100024              -0.000185142               0.000692319               0.000507176               0.000000000               0.000000000               0.000000000               0.000000000               0.000119469               0.001913384               0.000074604              -0.000194372               0.000702579               0.000508207               0.000000000               0.000000000               0.000000000               0.000000000               0.000110144               0.001929542               0.000058251              -0.000199888               0.000709804               0.000509915               0.000000000               0.000000000               0.000000000               0.000000000               0.000101347               0.001949783               0.000047567              -0.000205717               0.000718494               0.000512776               0.000000000               0.000000000               0.000000000               0.000000000               0.000087336               0.001982070               0.000034909              -0.000215007               0.000732353               0.000517345               0.000000000               0.000000000               0.000000000               0.000000000               0.000067534               0.002024897               0.000018757              -0.000227786               0.000750888               0.000523101               0.000000000               0.000000000               0.000000000               0.000000000               0.000046914               0.002072162               0.000005722              -0.000241427               0.000771190               0.000529763               0.000000000               0.000000000               0.000000000               0.000000000               0.000025347               0.002118657               0.000000334              -0.000255326               0.000791321               0.000535994               0.000000000               0.000000000               0.000000000               0.000000000               0.000016986               0.002150292               0.000002543              -0.000262416               0.000804229               0.000541813               0.000000000               0.000000000               0.000000000               0.000000000               0.000709057               0.001380110               0.000813144               0.000093381               0.000428905               0.000522286               0.000000000               0.000000000               0.000000000               0.000000000               0.000471722               0.001478544               0.000647903              -0.000007923               0.000495484               0.000487561               0.000000000               0.000000000               0.000000000               0.000000000               0.000294343               0.001664933               0.000460908              -0.000097738               0.000587551               0.000489813               0.000000000               0.000000000               0.000000000               0.000000000               0.000240883               0.001732707               0.000354313              -0.000126257               0.000619649               0.000493392               0.000000000               0.000000000               0.000000000               0.000000000               0.000220520               0.001773143               0.000281619              -0.000138948               0.000637358               0.000498410               0.000000000               0.000000000               0.000000000               0.000000000               0.000203403               0.001803145               0.000225492              -0.000149117               0.000650748               0.000501631               0.000000000               0.000000000               0.000000000               0.000000000               0.000183684               0.001836553               0.000180511              -0.000160687               0.000665741               0.000505053               0.000000000               0.000000000               0.000000000               0.000000000               0.000160039               0.001875156               0.000142951              -0.000174379               0.000683172               0.000508793               0.000000000               0.000000000               0.000000000               0.000000000               0.000136392               0.001911922               0.000112653              -0.000187843               0.000699915               0.000512072               0.000000000               0.000000000               0.000000000               0.000000000               0.000122385               0.001941845               0.000085894              -0.000196836               0.000712887               0.000516051               0.000000000               0.000000000               0.000000000               0.000000000               0.000117202               0.001969614               0.000063496              -0.000202250               0.000723948               0.000521698               0.000000000               0.000000000               0.000000000               0.000000000               0.000108685               0.002007062               0.000045837              -0.000210125               0.000739056               0.000528930               0.000000000               0.000000000               0.000000000               0.000000000               0.000093515               0.002062796               0.000028982              -0.000222781               0.000761852               0.000539071               0.000000000               0.000000000               0.000000000               0.000000000               0.000074322               0.002130121               0.000010279              -0.000238394               0.000789498               0.000551104               0.000000000               0.000000000               0.000000000               0.000000000               0.000058651               0.002202444              -0.000003209              -0.000253311               0.000818578               0.000565267               0.000000000               0.000000000               0.000000000               0.000000000               0.000046984               0.002270427              -0.000007302              -0.000266184               0.000845529               0.000579345               0.000000000               0.000000000               0.000000000               0.000000000               0.000041864               0.002309587              -0.000005402              -0.000272999               0.000860854               0.000587856               0.000000000               0.000000000               0.000000000               0.000000000               0.000701704               0.001097058               0.000727251               0.000126005               0.000323680               0.000449685               0.000000000               0.000000000               0.000000000               0.000000000               0.000487255               0.001253680               0.000629349               0.000026010               0.000409219               0.000435228               0.000000000               0.000000000               0.000000000               0.000000000               0.000311062               0.001504911               0.000501422              -0.000071466               0.000525454               0.000453988               0.000000000               0.000000000               0.000000000               0.000000000               0.000254884               0.001619216               0.000402335              -0.000106821               0.000575340               0.000468520               0.000000000               0.000000000               0.000000000               0.000000000               0.000233585               0.001684594               0.000325257              -0.000122980               0.000602519               0.000479539               0.000000000               0.000000000               0.000000000               0.000000000               0.000218646               0.001733720               0.000261670              -0.000134723               0.000622808               0.000488086               0.000000000               0.000000000               0.000000000               0.000000000               0.000200631               0.001782047               0.000210442              -0.000147519               0.000643183               0.000495664               0.000000000               0.000000000               0.000000000               0.000000000               0.000179765               0.001831828               0.000170562              -0.000161566               0.000664459               0.000502892               0.000000000               0.000000000               0.000000000               0.000000000               0.000158166               0.001880154               0.000139902              -0.000175707               0.000685281               0.000509574               0.000000000               0.000000000               0.000000000               0.000000000               0.000142651               0.001926823               0.000111049              -0.000187358               0.000704721               0.000517362               0.000000000               0.000000000               0.000000000               0.000000000               0.000132508               0.001965607               0.000082237              -0.000196010               0.000720532               0.000524523               0.000000000               0.000000000               0.000000000               0.000000000               0.000124811               0.002011950               0.000056939              -0.000204689               0.000738873               0.000534184               0.000000000               0.000000000               0.000000000               0.000000000               0.000113651               0.002074078               0.000033072              -0.000216640               0.000763566               0.000546926               0.000000000               0.000000000               0.000000000               0.000000000               0.000101702               0.002154858               0.000013282              -0.000231218               0.000795351               0.000564133               0.000000000               0.000000000               0.000000000               0.000000000               0.000093793               0.002246899               0.000002379              -0.000245689               0.000830855               0.000585166               0.000000000               0.000000000               0.000000000               0.000000000               0.000092147               0.002338651              -0.000000575              -0.000257776               0.000865468               0.000607692               0.000000000               0.000000000               0.000000000               0.000000000               0.000089141               0.002383899              -0.000002118              -0.000264559               0.000882811               0.000618252               0.000000000               0.000000000               0.000000000               0.000000000               0.000663939               0.000825403               0.000625196               0.000145800               0.000226531               0.000372331               0.000000000               0.000000000               0.000000000               0.000000000               0.000504359               0.001028286               0.000595728               0.000060598               0.000322559               0.000383157               0.000000000               0.000000000               0.000000000               0.000000000               0.000347986               0.001325110               0.000530324              -0.000035144               0.000453414               0.000418269               0.000000000               0.000000000               0.000000000               0.000000000               0.000287121               0.001478553               0.000446928              -0.000077149               0.000518562               0.000441413               0.000000000               0.000000000               0.000000000               0.000000000               0.000260206               0.001572610               0.000371291              -0.000098999               0.000557198               0.000458199               0.000000000               0.000000000               0.000000000               0.000000000               0.000246064               0.001646041               0.000303983              -0.000113481               0.000586502               0.000473021               0.000000000               0.000000000               0.000000000               0.000000000               0.000231369               0.001712139               0.000248260              -0.000127254               0.000613125               0.000485871               0.000000000               0.000000000               0.000000000               0.000000000               0.000212896               0.001774334               0.000205830              -0.000141956               0.000638757               0.000496802               0.000000000               0.000000000               0.000000000               0.000000000               0.000191070               0.001832791               0.000173081              -0.000157447               0.000663407               0.000505959               0.000000000               0.000000000               0.000000000               0.000000000               0.000171236               0.001888501               0.000141855              -0.000171849               0.000686777               0.000514928               0.000000000               0.000000000               0.000000000               0.000000000               0.000157885               0.001939959               0.000108510              -0.000183287               0.000707742               0.000524455               0.000000000               0.000000000               0.000000000               0.000000000               0.000149412               0.001995136               0.000076332              -0.000193362               0.000729493               0.000536131               0.000000000               0.000000000               0.000000000               0.000000000               0.000144659               0.002058046               0.000048529              -0.000203008               0.000753678               0.000550670               0.000000000               0.000000000               0.000000000               0.000000000               0.000144391               0.002136683               0.000029068              -0.000212938               0.000783200               0.000570262               0.000000000               0.000000000               0.000000000               0.000000000               0.000144151               0.002229306               0.000016832              -0.000224606               0.000817963               0.000593357               0.000000000               0.000000000               0.000000000               0.000000000               0.000142980               0.002330923               0.000008277              -0.000237747               0.000856216               0.000618468               0.000000000               0.000000000               0.000000000               0.000000000               0.000133480               0.002376082               0.000000320              -0.000246955               0.000874338               0.000627383               0.000000000               0.000000000               0.000000000               0.000000000               0.000597321               0.000584526               0.000506788               0.000150928               0.000144530               0.000295458               0.000000000               0.000000000               0.000000000               0.000000000               0.000509494               0.000812485               0.000536415               0.000089498               0.000240992               0.000330491               0.000000000               0.000000000               0.000000000               0.000000000               0.000390820               0.001123637               0.000527928               0.000006102               0.000372508               0.000378610               0.000000000               0.000000000               0.000000000               0.000000000               0.000332731               0.001308979               0.000467061              -0.000038849               0.000449272               0.000410423               0.000000000               0.000000000               0.000000000               0.000000000               0.000300690               0.001435111               0.000399764              -0.000066630               0.000500576               0.000433945               0.000000000               0.000000000               0.000000000               0.000000000               0.000282346               0.001532791               0.000334696              -0.000085719               0.000539498               0.000453779               0.000000000               0.000000000               0.000000000               0.000000000               0.000267772               0.001620443               0.000278217              -0.000102141               0.000574189               0.000472048               0.000000000               0.000000000               0.000000000               0.000000000               0.000250574               0.001699686               0.000233559              -0.000118495               0.000606055               0.000487559               0.000000000               0.000000000               0.000000000               0.000000000               0.000227770               0.001768469               0.000198956              -0.000135644               0.000634698               0.000499054               0.000000000               0.000000000               0.000000000               0.000000000               0.000203376               0.001830781               0.000167403              -0.000152581               0.000661115               0.000508533               0.000000000               0.000000000               0.000000000               0.000000000               0.000186781               0.001894484               0.000133749              -0.000166767               0.000687077               0.000520310               0.000000000               0.000000000               0.000000000               0.000000000               0.000180752               0.001960571               0.000100870              -0.000177289               0.000712614               0.000535325               0.000000000               0.000000000               0.000000000               0.000000000               0.000181911               0.002032517               0.000073699              -0.000185848               0.000739448               0.000553600               0.000000000               0.000000000               0.000000000               0.000000000               0.000188142               0.002118356               0.000052525              -0.000194241               0.000770858               0.000576618               0.000000000               0.000000000               0.000000000               0.000000000               0.000193507               0.002215454               0.000036321              -0.000204366               0.000806599               0.000602233               0.000000000               0.000000000               0.000000000               0.000000000               0.000190636               0.002320782               0.000019583              -0.000218609               0.000846456               0.000627847               0.000000000               0.000000000               0.000000000               0.000000000               0.000175534               0.002367248               0.000005884              -0.000230080               0.000865768               0.000635688               0.000000000               0.000000000               0.000000000               0.000000000               0.000507533               0.000390303               0.000383331               0.000141535               0.000082921               0.000224456               0.000000000               0.000000000               0.000000000               0.000000000               0.000501275               0.000613986               0.000453614               0.000111229               0.000167583               0.000278812               0.000000000               0.000000000               0.000000000               0.000000000               0.000437392               0.000915226               0.000489059               0.000049618               0.000288533               0.000338151               0.000000000               0.000000000               0.000000000               0.000000000               0.000389705               0.001124693               0.000452468               0.000005552               0.000373043               0.000378595               0.000000000               0.000000000               0.000000000               0.000000000               0.000354427               0.001277707               0.000398580              -0.000026804               0.000434832               0.000408029               0.000000000               0.000000000               0.000000000               0.000000000               0.000330388               0.001399193               0.000340904              -0.000051004               0.000483394               0.000432390               0.000000000               0.000000000               0.000000000               0.000000000               0.000311663               0.001507166               0.000288367              -0.000071522               0.000526224               0.000454702               0.000000000               0.000000000               0.000000000               0.000000000               0.000293241               0.001602489               0.000244846              -0.000090346               0.000564273               0.000473927               0.000000000               0.000000000               0.000000000               0.000000000               0.000271584               0.001683167               0.000209993              -0.000108552               0.000597234               0.000488682               0.000000000               0.000000000               0.000000000               0.000000000               0.000248704               0.001754282               0.000180112              -0.000126021               0.000626762               0.000500741               0.000000000               0.000000000               0.000000000               0.000000000               0.000229972               0.001826595               0.000151707              -0.000142085               0.000656221               0.000514136               0.000000000               0.000000000               0.000000000               0.000000000               0.000222427               0.001906474               0.000123395              -0.000154899               0.000687118               0.000532219               0.000000000               0.000000000               0.000000000               0.000000000               0.000225287               0.001998207               0.000096933              -0.000165293               0.000721160               0.000555867               0.000000000               0.000000000               0.000000000               0.000000000               0.000234003               0.002102638               0.000075497              -0.000175078               0.000759232               0.000584154               0.000000000               0.000000000               0.000000000               0.000000000               0.000243302               0.002213616               0.000054544              -0.000185463               0.000799686               0.000614223               0.000000000               0.000000000               0.000000000               0.000000000               0.000244495               0.002325275               0.000028777              -0.000198973               0.000841408               0.000642435               0.000000000               0.000000000               0.000000000               0.000000000               0.000231258               0.002374334               0.000011343              -0.000210069               0.000861460               0.000651390               0.000000000               0.000000000               0.000000000               0.000000000               0.000410754               0.000245737               0.000266454               0.000123314               0.000040807               0.000164121               0.000000000               0.000000000               0.000000000               0.000000000               0.000483250               0.000444944               0.000352667               0.000125599               0.000106447               0.000232046               0.000000000               0.000000000               0.000000000               0.000000000               0.000482342               0.000721243               0.000412108               0.000090722               0.000210171               0.000300893               0.000000000               0.000000000               0.000000000               0.000000000               0.000451731               0.000942222               0.000395989               0.000051621               0.000296864               0.000348485               0.000000000               0.000000000               0.000000000               0.000000000               0.000416331               0.001115507               0.000357044               0.000016685               0.000366270               0.000382955               0.000000000               0.000000000               0.000000000               0.000000000               0.000385679               0.001257778               0.000311410              -0.000012593               0.000423453               0.000410860               0.000000000               0.000000000               0.000000000               0.000000000               0.000363024               0.001381725               0.000267288              -0.000036582               0.000472764               0.000436183               0.000000000               0.000000000               0.000000000               0.000000000               0.000340280               0.001487532               0.000229854              -0.000058336               0.000515285               0.000456948               0.000000000               0.000000000               0.000000000               0.000000000               0.000320195               0.001580581               0.000199474              -0.000077499               0.000552688               0.000475189               0.000000000               0.000000000               0.000000000               0.000000000               0.000300379               0.001666333               0.000173271              -0.000095649               0.000587322               0.000491672               0.000000000               0.000000000               0.000000000               0.000000000               0.000282994               0.001754088               0.000149607              -0.000113138               0.000622403               0.000509265               0.000000000               0.000000000               0.000000000               0.000000000               0.000271426               0.001852009               0.000129155              -0.000129716               0.000660569               0.000530853               0.000000000               0.000000000               0.000000000               0.000000000               0.000273987               0.001962945               0.000109799              -0.000142623               0.000701849               0.000559227               0.000000000               0.000000000               0.000000000               0.000000000               0.000286148               0.002086866               0.000089735              -0.000153552               0.000746799               0.000593247               0.000000000               0.000000000               0.000000000               0.000000000               0.000297697               0.002214250               0.000066574              -0.000165145               0.000793124               0.000627980               0.000000000               0.000000000               0.000000000               0.000000000               0.000305071               0.002332810               0.000036425              -0.000177199               0.000836662               0.000659463               0.000000000               0.000000000               0.000000000               0.000000000               0.000299326               0.002384080               0.000017097              -0.000185762               0.000856606               0.000670844               0.000000000               0.000000000               0.000000000               0.000000000               0.000323191               0.000148928               0.000164287               0.000102580               0.000015449               0.000118028               0.000000000               0.000000000               0.000000000               0.000000000               0.000462538               0.000317961               0.000240188               0.000133705               0.000061418               0.000195123               0.000000000               0.000000000               0.000000000               0.000000000               0.000519596               0.000562030               0.000298704               0.000124594               0.000145810               0.000270404               0.000000000               0.000000000               0.000000000               0.000000000               0.000506821               0.000782676               0.000295568               0.000092222               0.000230149               0.000322371               0.000000000               0.000000000               0.000000000               0.000000000               0.000474638               0.000971403               0.000270952               0.000056563               0.000304943               0.000361507               0.000000000               0.000000000               0.000000000               0.000000000               0.000440382               0.001129123               0.000240146               0.000024002               0.000368370               0.000392372               0.000000000               0.000000000               0.000000000               0.000000000               0.000411413               0.001263461               0.000208519              -0.000003653               0.000422367               0.000418714               0.000000000               0.000000000               0.000000000               0.000000000               0.000386060               0.001377494               0.000182033              -0.000027414               0.000468298               0.000440884               0.000000000               0.000000000               0.000000000               0.000000000               0.000363391               0.001479475               0.000160438              -0.000048663               0.000509374               0.000460712               0.000000000               0.000000000               0.000000000               0.000000000               0.000345052               0.001583463               0.000139386              -0.000068538               0.000550662               0.000482124               0.000000000               0.000000000               0.000000000               0.000000000               0.000329993               0.001692951               0.000120896              -0.000087871               0.000593602               0.000505730               0.000000000               0.000000000               0.000000000               0.000000000               0.000323056               0.001809090               0.000109157              -0.000104990               0.000638021               0.000533031               0.000000000               0.000000000               0.000000000               0.000000000               0.000325213               0.001934065               0.000100644              -0.000119803               0.000684616               0.000564813               0.000000000               0.000000000               0.000000000               0.000000000               0.000337966               0.002069461               0.000086353              -0.000131945               0.000733795               0.000601850               0.000000000               0.000000000               0.000000000               0.000000000               0.000355408               0.002208254               0.000064195              -0.000142754               0.000783662               0.000640908               0.000000000               0.000000000               0.000000000               0.000000000               0.000369475               0.002333743               0.000035929              -0.000153165               0.000828961               0.000675797               0.000000000               0.000000000               0.000000000               0.000000000               0.000371610               0.002387730               0.000019296              -0.000159112               0.000848939               0.000689827               0.000000000               0.000000000               0.000000000               0.000000000               0.000259750               0.000091442               0.000077130               0.000085975               0.000001822               0.000087797               0.000000000               0.000000000               0.000000000               0.000000000               0.000446123               0.000237128               0.000121075               0.000137654               0.000033157               0.000170811               0.000000000               0.000000000               0.000000000               0.000000000               0.000543173               0.000456277               0.000156518               0.000146654               0.000103206               0.000249860               0.000000000               0.000000000               0.000000000               0.000000000               0.000545613               0.000674481               0.000158257               0.000120293               0.000184727               0.000305020               0.000000000               0.000000000               0.000000000               0.000000000               0.000516463               0.000870075               0.000147070               0.000084913               0.000261718               0.000346631               0.000000000               0.000000000               0.000000000               0.000000000               0.000481142               0.001037761               0.000131022               0.000050708               0.000329014               0.000379722               0.000000000               0.000000000               0.000000000               0.000000000               0.000447447               0.001178764               0.000115042               0.000020447               0.000386102               0.000406549               0.000000000               0.000000000               0.000000000               0.000000000               0.000418683               0.001298245               0.000101377              -0.000005275               0.000434502               0.000429228               0.000000000               0.000000000               0.000000000               0.000000000               0.000392479               0.001408009               0.000090542              -0.000028822               0.000478939               0.000450117               0.000000000               0.000000000               0.000000000               0.000000000               0.000374475               0.001522888               0.000078110              -0.000049933               0.000524268               0.000474336               0.000000000               0.000000000               0.000000000               0.000000000               0.000365588               0.001646288               0.000067753              -0.000068691               0.000571654               0.000502963               0.000000000               0.000000000               0.000000000               0.000000000               0.000365425               0.001779575               0.000063666              -0.000085412               0.000621657               0.000536244               0.000000000               0.000000000               0.000000000               0.000000000               0.000369669               0.001920977               0.000061054              -0.000101496               0.000674151               0.000572655               0.000000000               0.000000000               0.000000000               0.000000000               0.000377630               0.002059392               0.000055771              -0.000115812               0.000725061               0.000609249               0.000000000               0.000000000               0.000000000               0.000000000               0.000393545               0.002191386               0.000041125              -0.000126344               0.000772569               0.000646226               0.000000000               0.000000000               0.000000000               0.000000000               0.000418966               0.002317914               0.000019904              -0.000132627               0.000816839               0.000684213               0.000000000               0.000000000               0.000000000               0.000000000               0.000434267               0.002377829               0.000008900              -0.000134378               0.000837395               0.000703016               0.000000000               0.000000000               0.000000000               0.000000000               0.000000000               0.000000000               0.000000000               0.000000000               0.000000000               0.000000000               0.000000000               0.000000000               0.000000000               0.000000000               0.000000000               0.000000000               0.000000000               0.000000000               0.000000000               0.000000000               0.000000000               0.000000000               0.000000000               0.000000000               0.000000000               0.000000000               0.000000000               0.000000000               0.000000000               0.000000000               0.000000000               0.000000000               0.000000000               0.000000000               0.000000000               0.000000000               0.000000000               0.000000000               0.000000000               0.000000000               0.000000000               0.000000000               0.000000000               0.000000000               0.000000000               0.000000000               0.000000000               0.000000000               0.000000000               0.000000000               0.000000000               0.000000000               0.000000000               0.000000000               0.000000000               0.000000000               0.000000000               0.000000000               0.000000000               0.000000000               0.000000000               0.000000000               0.000000000               0.000000000               0.000000000               0.000000000               0.000000000               0.000000000               0.000000000               0.000000000               0.000000000               0.000000000               0.000000000               0.000000000               0.000000000               0.000000000               0.000000000               0.000000000               0.000000000               0.000000000               0.000000000               0.000000000               0.000000000               0.000000000               0.000000000               0.000000000               0.000000000               0.000000000               0.000000000               0.000000000               0.000000000               0.000000000               0.000000000               0.000000000               0.000000000               0.000000000               0.000000000               0.000000000               0.000000000               0.000000000               0.000000000               0.000000000               0.000000000               0.000000000               0.000000000               0.000000000               0.000000000               0.000000000               0.000000000               0.000000000               0.000000000               0.000000000               0.000000000               0.000000000               0.000000000               0.000000000               0.000000000               0.000000000               0.000000000               0.000000000               0.000000000               0.000000000               0.000000000               0.000000000               0.000000000               0.000000000               0.000000000               0.000000000               0.000000000               0.000000000               0.000000000               0.000000000               0.000000000               0.000000000               0.000000000               0.000000000               0.000000000               0.000000000               0.000000000               0.000000000               0.000000000               0.000000000               0.000000000               0.000000000               0.000000000               0.000000000               0.000000000               0.000000000               0.000000000               0.000000000               0.000000000               0.000000000               0.000000000               0.000000000               0.000000000               0.000000000               0.000000000               0.000000000               0.000000000               0.000000000               0.000000000               0.000000000               0.000000000               0.000000000               0.000000000               0.000000000               0.000000000               0.000000000               0.000000000               0.000000000               0.000000000               0.000000000               0.000000000               0.000000000 </DataArray>
</PointData>
</Piece>
</UnstructuredGrid> </VTKFile>
