<?xml version="1.0"?>
<VTKFile type="UnstructuredGrid" version="0.1">
<UnstructuredGrid>
<Piece NumberOfPoints="      1156" NumberOfCells="      1024">
<Points>
<DataArray type="Float64"                                    Name="coordinates"                                                      NumberOfComponents=" 3" format="ascii">
              0.133000000               0.000000000               0.000000000               0.155937500               0.000000000               0.000000000               0.178875000               0.000000000               0.000000000               0.201812500               0.000000000               0.000000000               0.224750000               0.000000000               0.000000000               0.247687500               0.000000000               0.000000000               0.270625000               0.000000000               0.000000000               0.293562500               0.000000000               0.000000000               0.316500000               0.000000000               0.000000000               0.339437500               0.000000000               0.000000000               0.362375000               0.000000000               0.000000000               0.385312500               0.000000000               0.000000000               0.408250000               0.000000000               0.000000000               0.431187500               0.000000000               0.000000000               0.454125000               0.000000000               0.000000000               0.477062500               0.000000000               0.000000000               0.500000000               0.000000000               0.000000000               0.132359569               0.013036280               0.000000000               0.155337096               0.016127762               0.000000000               0.178314623               0.019219245               0.000000000               0.201292150               0.022310727               0.000000000               0.224269676               0.025402210               0.000000000               0.247247203               0.028493692               0.000000000               0.270224730               0.031585175               0.000000000               0.293202257               0.034676657               0.000000000               0.316179784               0.037768140               0.000000000               0.339157311               0.040859622               0.000000000               0.362134838               0.043951105               0.000000000               0.385112365               0.047042587               0.000000000               0.408089892               0.050134070               0.000000000               0.431067419               0.053225552               0.000000000               0.454044946               0.056317035               0.000000000               0.477022473               0.059408517               0.000000000               0.500000000               0.062500000               0.000000000               0.130444442               0.025947013               0.000000000               0.153541665               0.032137825               0.000000000               0.176638887               0.038328636               0.000000000               0.199736109               0.044519448               0.000000000               0.222833332               0.050710260               0.000000000               0.245930554               0.056901071               0.000000000               0.269027776               0.063091883               0.000000000               0.292124999               0.069282695               0.000000000               0.315222221               0.075473506               0.000000000               0.338319444               0.081664318               0.000000000               0.361416666               0.087855130               0.000000000               0.384513888               0.094045942               0.000000000               0.407611111               0.100236753               0.000000000               0.430708333               0.106427565               0.000000000               0.453805555               0.112618377               0.000000000               0.476902778               0.118809188               0.000000000               0.500000000               0.125000000               0.000000000               0.127273065               0.038607862               0.000000000               0.150568498               0.047913621               0.000000000               0.173863932               0.057219379               0.000000000               0.197159365               0.066525138               0.000000000               0.220454798               0.075830897               0.000000000               0.243750232               0.085136655               0.000000000               0.267045665               0.094442414               0.000000000               0.290341099               0.103748172               0.000000000               0.313636532               0.113053931               0.000000000               0.336931966               0.122359690               0.000000000               0.360227399               0.131665448               0.000000000               0.383522833               0.140971207               0.000000000               0.406818266               0.150276966               0.000000000               0.430113700               0.159582724               0.000000000               0.453409133               0.168888483               0.000000000               0.476704567               0.178194241               0.000000000               0.500000000               0.187500000               0.000000000               0.122875978               0.050896897               0.000000000               0.146446229               0.063340840               0.000000000               0.170016481               0.075784784               0.000000000               0.193586732               0.088228728               0.000000000               0.217156983               0.100672672               0.000000000               0.240727235               0.113116616               0.000000000               0.264297486               0.125560560               0.000000000               0.287867738               0.138004504               0.000000000               0.311437989               0.150448448               0.000000000               0.335008240               0.162892392               0.000000000               0.358578492               0.175336336               0.000000000               0.382148743               0.187780280               0.000000000               0.405718994               0.200224224               0.000000000               0.429289246               0.212668168               0.000000000               0.452859497               0.225112112               0.000000000               0.476429749               0.237556056               0.000000000               0.500000000               0.250000000               0.000000000               0.117295528               0.062695766               0.000000000               0.141214558               0.078308531               0.000000000               0.165133587               0.093921295               0.000000000               0.189052617               0.109534060               0.000000000               0.212971646               0.125146824               0.000000000               0.236890676               0.140759589               0.000000000               0.260809705               0.156372354               0.000000000               0.284728735               0.171985118               0.000000000               0.308647764               0.187597883               0.000000000               0.332566794               0.203210648               0.000000000               0.356485823               0.218823412               0.000000000               0.380404853               0.234436177               0.000000000               0.404323882               0.250048941               0.000000000               0.428242912               0.265661706               0.000000000               0.452161941               0.281274471               0.000000000               0.476080971               0.296887235               0.000000000               0.500000000               0.312500000               0.000000000               0.110585458               0.073890841               0.000000000               0.134923867               0.092710163               0.000000000               0.159262276               0.111529486               0.000000000               0.183600685               0.130348808               0.000000000               0.207939094               0.149168131               0.000000000               0.232277503               0.167987453               0.000000000               0.256615912               0.186806776               0.000000000               0.280954320               0.205626098               0.000000000               0.305292729               0.224445420               0.000000000               0.329631138               0.243264743               0.000000000               0.353969547               0.262084065               0.000000000               0.378307956               0.280903388               0.000000000               0.402646365               0.299722710               0.000000000               0.426984773               0.318542033               0.000000000               0.451323182               0.337361355               0.000000000               0.475661591               0.356180678               0.000000000               0.500000000               0.375000000               0.000000000               0.102810390               0.084374307               0.000000000               0.127634741               0.106444663               0.000000000               0.152459092               0.128515018               0.000000000               0.177283442               0.150585374               0.000000000               0.202107793               0.172655730               0.000000000               0.226932143               0.194726086               0.000000000               0.251756494               0.216796442               0.000000000               0.276580845               0.238866798               0.000000000               0.301405195               0.260937153               0.000000000               0.326229546               0.283007509               0.000000000               0.351053896               0.305077865               0.000000000               0.375878247               0.327148221               0.000000000               0.400702598               0.349218577               0.000000000               0.425526948               0.371288933               0.000000000               0.450351299               0.393359288               0.000000000               0.475175649               0.415429644               0.000000000               0.500000000               0.437500000               0.000000000               0.094045202               0.094045202               0.000000000               0.119417377               0.119417377               0.000000000               0.144789552               0.144789552               0.000000000               0.170161727               0.170161727               0.000000000               0.195533901               0.195533901               0.000000000               0.220906076               0.220906076               0.000000000               0.246278251               0.246278251               0.000000000               0.271650426               0.271650426               0.000000000               0.297022601               0.297022601               0.000000000               0.322394776               0.322394776               0.000000000               0.347766951               0.347766951               0.000000000               0.373139126               0.373139126               0.000000000               0.398511300               0.398511300               0.000000000               0.423883475               0.423883475               0.000000000               0.449255650               0.449255650               0.000000000               0.474627825               0.474627825               0.000000000               0.500000000               0.500000000               0.000000000               0.084374307               0.102810390               0.000000000               0.106444663               0.127634741               0.000000000               0.128515018               0.152459092               0.000000000               0.150585374               0.177283442               0.000000000               0.172655730               0.202107793               0.000000000               0.194726086               0.226932143               0.000000000               0.216796442               0.251756494               0.000000000               0.238866798               0.276580845               0.000000000               0.260937153               0.301405195               0.000000000               0.283007509               0.326229546               0.000000000               0.305077865               0.351053896               0.000000000               0.327148221               0.375878247               0.000000000               0.349218577               0.400702598               0.000000000               0.371288933               0.425526948               0.000000000               0.393359288               0.450351299               0.000000000               0.415429644               0.475175649               0.000000000               0.437500000               0.500000000               0.000000000               0.073890841               0.110585458               0.000000000               0.092710163               0.134923867               0.000000000               0.111529486               0.159262276               0.000000000               0.130348808               0.183600685               0.000000000               0.149168131               0.207939094               0.000000000               0.167987453               0.232277503               0.000000000               0.186806776               0.256615912               0.000000000               0.205626098               0.280954320               0.000000000               0.224445420               0.305292729               0.000000000               0.243264743               0.329631138               0.000000000               0.262084065               0.353969547               0.000000000               0.280903388               0.378307956               0.000000000               0.299722710               0.402646365               0.000000000               0.318542033               0.426984773               0.000000000               0.337361355               0.451323182               0.000000000               0.356180678               0.475661591               0.000000000               0.375000000               0.500000000               0.000000000               0.062695766               0.117295528               0.000000000               0.078308531               0.141214558               0.000000000               0.093921295               0.165133587               0.000000000               0.109534060               0.189052617               0.000000000               0.125146824               0.212971646               0.000000000               0.140759589               0.236890676               0.000000000               0.156372354               0.260809705               0.000000000               0.171985118               0.284728735               0.000000000               0.187597883               0.308647764               0.000000000               0.203210648               0.332566794               0.000000000               0.218823412               0.356485823               0.000000000               0.234436177               0.380404853               0.000000000               0.250048941               0.404323882               0.000000000               0.265661706               0.428242912               0.000000000               0.281274471               0.452161941               0.000000000               0.296887235               0.476080971               0.000000000               0.312500000               0.500000000               0.000000000               0.050896897               0.122875978               0.000000000               0.063340840               0.146446229               0.000000000               0.075784784               0.170016481               0.000000000               0.088228728               0.193586732               0.000000000               0.100672672               0.217156983               0.000000000               0.113116616               0.240727235               0.000000000               0.125560560               0.264297486               0.000000000               0.138004504               0.287867738               0.000000000               0.150448448               0.311437989               0.000000000               0.162892392               0.335008240               0.000000000               0.175336336               0.358578492               0.000000000               0.187780280               0.382148743               0.000000000               0.200224224               0.405718994               0.000000000               0.212668168               0.429289246               0.000000000               0.225112112               0.452859497               0.000000000               0.237556056               0.476429749               0.000000000               0.250000000               0.500000000               0.000000000               0.038607862               0.127273065               0.000000000               0.047913621               0.150568498               0.000000000               0.057219379               0.173863932               0.000000000               0.066525138               0.197159365               0.000000000               0.075830897               0.220454798               0.000000000               0.085136655               0.243750232               0.000000000               0.094442414               0.267045665               0.000000000               0.103748172               0.290341099               0.000000000               0.113053931               0.313636532               0.000000000               0.122359690               0.336931966               0.000000000               0.131665448               0.360227399               0.000000000               0.140971207               0.383522833               0.000000000               0.150276966               0.406818266               0.000000000               0.159582724               0.430113700               0.000000000               0.168888483               0.453409133               0.000000000               0.178194241               0.476704567               0.000000000               0.187500000               0.500000000               0.000000000               0.025947013               0.130444442               0.000000000               0.032137825               0.153541665               0.000000000               0.038328636               0.176638887               0.000000000               0.044519448               0.199736109               0.000000000               0.050710260               0.222833332               0.000000000               0.056901071               0.245930554               0.000000000               0.063091883               0.269027776               0.000000000               0.069282695               0.292124999               0.000000000               0.075473506               0.315222221               0.000000000               0.081664318               0.338319444               0.000000000               0.087855130               0.361416666               0.000000000               0.094045942               0.384513888               0.000000000               0.100236753               0.407611111               0.000000000               0.106427565               0.430708333               0.000000000               0.112618377               0.453805555               0.000000000               0.118809188               0.476902778               0.000000000               0.125000000               0.500000000               0.000000000               0.013036280               0.132359569               0.000000000               0.016127762               0.155337096               0.000000000               0.019219245               0.178314623               0.000000000               0.022310727               0.201292150               0.000000000               0.025402210               0.224269676               0.000000000               0.028493692               0.247247203               0.000000000               0.031585175               0.270224730               0.000000000               0.034676657               0.293202257               0.000000000               0.037768140               0.316179784               0.000000000               0.040859622               0.339157311               0.000000000               0.043951105               0.362134838               0.000000000               0.047042587               0.385112365               0.000000000               0.050134070               0.408089892               0.000000000               0.053225552               0.431067419               0.000000000               0.056317035               0.454044946               0.000000000               0.059408517               0.477022473               0.000000000               0.062500000               0.500000000               0.000000000               0.000000000               0.133000000               0.000000000               0.000000000               0.155937500               0.000000000               0.000000000               0.178875000               0.000000000               0.000000000               0.201812500               0.000000000               0.000000000               0.224750000               0.000000000               0.000000000               0.247687500               0.000000000               0.000000000               0.270625000               0.000000000               0.000000000               0.293562500               0.000000000               0.000000000               0.316500000               0.000000000               0.000000000               0.339437500               0.000000000               0.000000000               0.362375000               0.000000000               0.000000000               0.385312500               0.000000000               0.000000000               0.408250000               0.000000000               0.000000000               0.431187500               0.000000000               0.000000000               0.454125000               0.000000000               0.000000000               0.477062500               0.000000000               0.000000000               0.500000000               0.000000000               0.133000000               0.000000000               0.000000000               0.155937500               0.000000000               0.000000000               0.178875000               0.000000000               0.000000000               0.201812500               0.000000000               0.000000000               0.224750000               0.000000000               0.000000000               0.247687500               0.000000000               0.000000000               0.270625000               0.000000000               0.000000000               0.293562500               0.000000000               0.000000000               0.316500000               0.000000000               0.000000000               0.339437500               0.000000000               0.000000000               0.362375000               0.000000000               0.000000000               0.385312500               0.000000000               0.000000000               0.408250000               0.000000000               0.000000000               0.431187500               0.000000000               0.000000000               0.454125000               0.000000000               0.000000000               0.477062500               0.000000000               0.000000000               0.500000000               0.000000000               0.000000000               0.132359569              -0.013036280               0.000000000               0.155337096              -0.016127762               0.000000000               0.178314623              -0.019219245               0.000000000               0.201292150              -0.022310727               0.000000000               0.224269676              -0.025402210               0.000000000               0.247247203              -0.028493692               0.000000000               0.270224730              -0.031585175               0.000000000               0.293202257              -0.034676657               0.000000000               0.316179784              -0.037768140               0.000000000               0.339157311              -0.040859622               0.000000000               0.362134838              -0.043951105               0.000000000               0.385112365              -0.047042587               0.000000000               0.408089892              -0.050134070               0.000000000               0.431067419              -0.053225552               0.000000000               0.454044946              -0.056317035               0.000000000               0.477022473              -0.059408517               0.000000000               0.500000000              -0.062500000               0.000000000               0.130444442              -0.025947013               0.000000000               0.153541665              -0.032137825               0.000000000               0.176638887              -0.038328636               0.000000000               0.199736109              -0.044519448               0.000000000               0.222833332              -0.050710260               0.000000000               0.245930554              -0.056901071               0.000000000               0.269027776              -0.063091883               0.000000000               0.292124999              -0.069282695               0.000000000               0.315222221              -0.075473506               0.000000000               0.338319444              -0.081664318               0.000000000               0.361416666              -0.087855130               0.000000000               0.384513888              -0.094045942               0.000000000               0.407611111              -0.100236753               0.000000000               0.430708333              -0.106427565               0.000000000               0.453805555              -0.112618377               0.000000000               0.476902778              -0.118809188               0.000000000               0.500000000              -0.125000000               0.000000000               0.127273065              -0.038607862               0.000000000               0.150568498              -0.047913621               0.000000000               0.173863932              -0.057219379               0.000000000               0.197159365              -0.066525138               0.000000000               0.220454798              -0.075830897               0.000000000               0.243750232              -0.085136655               0.000000000               0.267045665              -0.094442414               0.000000000               0.290341099              -0.103748172               0.000000000               0.313636532              -0.113053931               0.000000000               0.336931966              -0.122359690               0.000000000               0.360227399              -0.131665448               0.000000000               0.383522833              -0.140971207               0.000000000               0.406818266              -0.150276966               0.000000000               0.430113700              -0.159582724               0.000000000               0.453409133              -0.168888483               0.000000000               0.476704567              -0.178194241               0.000000000               0.500000000              -0.187500000               0.000000000               0.122875978              -0.050896897               0.000000000               0.146446229              -0.063340840               0.000000000               0.170016481              -0.075784784               0.000000000               0.193586732              -0.088228728               0.000000000               0.217156983              -0.100672672               0.000000000               0.240727235              -0.113116616               0.000000000               0.264297486              -0.125560560               0.000000000               0.287867738              -0.138004504               0.000000000               0.311437989              -0.150448448               0.000000000               0.335008240              -0.162892392               0.000000000               0.358578492              -0.175336336               0.000000000               0.382148743              -0.187780280               0.000000000               0.405718994              -0.200224224               0.000000000               0.429289246              -0.212668168               0.000000000               0.452859497              -0.225112112               0.000000000               0.476429749              -0.237556056               0.000000000               0.500000000              -0.250000000               0.000000000               0.117295528              -0.062695766               0.000000000               0.141214558              -0.078308531               0.000000000               0.165133587              -0.093921295               0.000000000               0.189052617              -0.109534060               0.000000000               0.212971646              -0.125146824               0.000000000               0.236890676              -0.140759589               0.000000000               0.260809705              -0.156372354               0.000000000               0.284728735              -0.171985118               0.000000000               0.308647764              -0.187597883               0.000000000               0.332566794              -0.203210648               0.000000000               0.356485823              -0.218823412               0.000000000               0.380404853              -0.234436177               0.000000000               0.404323882              -0.250048941               0.000000000               0.428242912              -0.265661706               0.000000000               0.452161941              -0.281274471               0.000000000               0.476080971              -0.296887235               0.000000000               0.500000000              -0.312500000               0.000000000               0.110585458              -0.073890841               0.000000000               0.134923867              -0.092710163               0.000000000               0.159262276              -0.111529486               0.000000000               0.183600685              -0.130348808               0.000000000               0.207939094              -0.149168131               0.000000000               0.232277503              -0.167987453               0.000000000               0.256615912              -0.186806776               0.000000000               0.280954320              -0.205626098               0.000000000               0.305292729              -0.224445420               0.000000000               0.329631138              -0.243264743               0.000000000               0.353969547              -0.262084065               0.000000000               0.378307956              -0.280903388               0.000000000               0.402646365              -0.299722710               0.000000000               0.426984773              -0.318542033               0.000000000               0.451323182              -0.337361355               0.000000000               0.475661591              -0.356180678               0.000000000               0.500000000              -0.375000000               0.000000000               0.102810390              -0.084374307               0.000000000               0.127634741              -0.106444663               0.000000000               0.152459092              -0.128515018               0.000000000               0.177283442              -0.150585374               0.000000000               0.202107793              -0.172655730               0.000000000               0.226932143              -0.194726086               0.000000000               0.251756494              -0.216796442               0.000000000               0.276580845              -0.238866798               0.000000000               0.301405195              -0.260937153               0.000000000               0.326229546              -0.283007509               0.000000000               0.351053896              -0.305077865               0.000000000               0.375878247              -0.327148221               0.000000000               0.400702598              -0.349218577               0.000000000               0.425526948              -0.371288933               0.000000000               0.450351299              -0.393359288               0.000000000               0.475175649              -0.415429644               0.000000000               0.500000000              -0.437500000               0.000000000               0.094045202              -0.094045202               0.000000000               0.119417377              -0.119417377               0.000000000               0.144789552              -0.144789552               0.000000000               0.170161727              -0.170161727               0.000000000               0.195533901              -0.195533901               0.000000000               0.220906076              -0.220906076               0.000000000               0.246278251              -0.246278251               0.000000000               0.271650426              -0.271650426               0.000000000               0.297022601              -0.297022601               0.000000000               0.322394776              -0.322394776               0.000000000               0.347766951              -0.347766951               0.000000000               0.373139126              -0.373139126               0.000000000               0.398511300              -0.398511300               0.000000000               0.423883475              -0.423883475               0.000000000               0.449255650              -0.449255650               0.000000000               0.474627825              -0.474627825               0.000000000               0.500000000              -0.500000000               0.000000000               0.084374307              -0.102810390               0.000000000               0.106444663              -0.127634741               0.000000000               0.128515018              -0.152459092               0.000000000               0.150585374              -0.177283442               0.000000000               0.172655730              -0.202107793               0.000000000               0.194726086              -0.226932143               0.000000000               0.216796442              -0.251756494               0.000000000               0.238866798              -0.276580845               0.000000000               0.260937153              -0.301405195               0.000000000               0.283007509              -0.326229546               0.000000000               0.305077865              -0.351053896               0.000000000               0.327148221              -0.375878247               0.000000000               0.349218577              -0.400702598               0.000000000               0.371288933              -0.425526948               0.000000000               0.393359288              -0.450351299               0.000000000               0.415429644              -0.475175649               0.000000000               0.437500000              -0.500000000               0.000000000               0.073890841              -0.110585458               0.000000000               0.092710163              -0.134923867               0.000000000               0.111529486              -0.159262276               0.000000000               0.130348808              -0.183600685               0.000000000               0.149168131              -0.207939094               0.000000000               0.167987453              -0.232277503               0.000000000               0.186806776              -0.256615912               0.000000000               0.205626098              -0.280954320               0.000000000               0.224445420              -0.305292729               0.000000000               0.243264743              -0.329631138               0.000000000               0.262084065              -0.353969547               0.000000000               0.280903388              -0.378307956               0.000000000               0.299722710              -0.402646365               0.000000000               0.318542033              -0.426984773               0.000000000               0.337361355              -0.451323182               0.000000000               0.356180678              -0.475661591               0.000000000               0.375000000              -0.500000000               0.000000000               0.062695766              -0.117295528               0.000000000               0.078308531              -0.141214558               0.000000000               0.093921295              -0.165133587               0.000000000               0.109534060              -0.189052617               0.000000000               0.125146824              -0.212971646               0.000000000               0.140759589              -0.236890676               0.000000000               0.156372354              -0.260809705               0.000000000               0.171985118              -0.284728735               0.000000000               0.187597883              -0.308647764               0.000000000               0.203210648              -0.332566794               0.000000000               0.218823412              -0.356485823               0.000000000               0.234436177              -0.380404853               0.000000000               0.250048941              -0.404323882               0.000000000               0.265661706              -0.428242912               0.000000000               0.281274471              -0.452161941               0.000000000               0.296887235              -0.476080971               0.000000000               0.312500000              -0.500000000               0.000000000               0.050896897              -0.122875978               0.000000000               0.063340840              -0.146446229               0.000000000               0.075784784              -0.170016481               0.000000000               0.088228728              -0.193586732               0.000000000               0.100672672              -0.217156983               0.000000000               0.113116616              -0.240727235               0.000000000               0.125560560              -0.264297486               0.000000000               0.138004504              -0.287867738               0.000000000               0.150448448              -0.311437989               0.000000000               0.162892392              -0.335008240               0.000000000               0.175336336              -0.358578492               0.000000000               0.187780280              -0.382148743               0.000000000               0.200224224              -0.405718994               0.000000000               0.212668168              -0.429289246               0.000000000               0.225112112              -0.452859497               0.000000000               0.237556056              -0.476429749               0.000000000               0.250000000              -0.500000000               0.000000000               0.038607862              -0.127273065               0.000000000               0.047913621              -0.150568498               0.000000000               0.057219379              -0.173863932               0.000000000               0.066525138              -0.197159365               0.000000000               0.075830897              -0.220454798               0.000000000               0.085136655              -0.243750232               0.000000000               0.094442414              -0.267045665               0.000000000               0.103748172              -0.290341099               0.000000000               0.113053931              -0.313636532               0.000000000               0.122359690              -0.336931966               0.000000000               0.131665448              -0.360227399               0.000000000               0.140971207              -0.383522833               0.000000000               0.150276966              -0.406818266               0.000000000               0.159582724              -0.430113700               0.000000000               0.168888483              -0.453409133               0.000000000               0.178194241              -0.476704567               0.000000000               0.187500000              -0.500000000               0.000000000               0.025947013              -0.130444442               0.000000000               0.032137825              -0.153541665               0.000000000               0.038328636              -0.176638887               0.000000000               0.044519448              -0.199736109               0.000000000               0.050710260              -0.222833332               0.000000000               0.056901071              -0.245930554               0.000000000               0.063091883              -0.269027776               0.000000000               0.069282695              -0.292124999               0.000000000               0.075473506              -0.315222221               0.000000000               0.081664318              -0.338319444               0.000000000               0.087855130              -0.361416666               0.000000000               0.094045942              -0.384513888               0.000000000               0.100236753              -0.407611111               0.000000000               0.106427565              -0.430708333               0.000000000               0.112618377              -0.453805555               0.000000000               0.118809188              -0.476902778               0.000000000               0.125000000              -0.500000000               0.000000000               0.013036280              -0.132359569               0.000000000               0.016127762              -0.155337096               0.000000000               0.019219245              -0.178314623               0.000000000               0.022310727              -0.201292150               0.000000000               0.025402210              -0.224269676               0.000000000               0.028493692              -0.247247203               0.000000000               0.031585175              -0.270224730               0.000000000               0.034676657              -0.293202257               0.000000000               0.037768140              -0.316179784               0.000000000               0.040859622              -0.339157311               0.000000000               0.043951105              -0.362134838               0.000000000               0.047042587              -0.385112365               0.000000000               0.050134070              -0.408089892               0.000000000               0.053225552              -0.431067419               0.000000000               0.056317035              -0.454044946               0.000000000               0.059408517              -0.477022473               0.000000000               0.062500000              -0.500000000               0.000000000               0.000000000              -0.133000000               0.000000000               0.000000000              -0.155937500               0.000000000               0.000000000              -0.178875000               0.000000000               0.000000000              -0.201812500               0.000000000               0.000000000              -0.224750000               0.000000000               0.000000000              -0.247687500               0.000000000               0.000000000              -0.270625000               0.000000000               0.000000000              -0.293562500               0.000000000               0.000000000              -0.316500000               0.000000000               0.000000000              -0.339437500               0.000000000               0.000000000              -0.362375000               0.000000000               0.000000000              -0.385312500               0.000000000               0.000000000              -0.408250000               0.000000000               0.000000000              -0.431187500               0.000000000               0.000000000              -0.454125000               0.000000000               0.000000000              -0.477062500               0.000000000               0.000000000              -0.500000000               0.000000000              -0.133000000               0.000000000               0.000000000              -0.155937500               0.000000000               0.000000000              -0.178875000               0.000000000               0.000000000              -0.201812500               0.000000000               0.000000000              -0.224750000               0.000000000               0.000000000              -0.247687500               0.000000000               0.000000000              -0.270625000               0.000000000               0.000000000              -0.293562500               0.000000000               0.000000000              -0.316500000               0.000000000               0.000000000              -0.339437500               0.000000000               0.000000000              -0.362375000               0.000000000               0.000000000              -0.385312500               0.000000000               0.000000000              -0.408250000               0.000000000               0.000000000              -0.431187500               0.000000000               0.000000000              -0.454125000               0.000000000               0.000000000              -0.477062500               0.000000000               0.000000000              -0.500000000               0.000000000               0.000000000              -0.132359569              -0.013036280               0.000000000              -0.155337096              -0.016127762               0.000000000              -0.178314623              -0.019219245               0.000000000              -0.201292150              -0.022310727               0.000000000              -0.224269676              -0.025402210               0.000000000              -0.247247203              -0.028493692               0.000000000              -0.270224730              -0.031585175               0.000000000              -0.293202257              -0.034676657               0.000000000              -0.316179784              -0.037768140               0.000000000              -0.339157311              -0.040859622               0.000000000              -0.362134838              -0.043951105               0.000000000              -0.385112365              -0.047042587               0.000000000              -0.408089892              -0.050134070               0.000000000              -0.431067419              -0.053225552               0.000000000              -0.454044946              -0.056317035               0.000000000              -0.477022473              -0.059408517               0.000000000              -0.500000000              -0.062500000               0.000000000              -0.130444442              -0.025947013               0.000000000              -0.153541665              -0.032137825               0.000000000              -0.176638887              -0.038328636               0.000000000              -0.199736109              -0.044519448               0.000000000              -0.222833332              -0.050710260               0.000000000              -0.245930554              -0.056901071               0.000000000              -0.269027776              -0.063091883               0.000000000              -0.292124999              -0.069282695               0.000000000              -0.315222221              -0.075473506               0.000000000              -0.338319444              -0.081664318               0.000000000              -0.361416666              -0.087855130               0.000000000              -0.384513888              -0.094045942               0.000000000              -0.407611111              -0.100236753               0.000000000              -0.430708333              -0.106427565               0.000000000              -0.453805555              -0.112618377               0.000000000              -0.476902778              -0.118809188               0.000000000              -0.500000000              -0.125000000               0.000000000              -0.127273065              -0.038607862               0.000000000              -0.150568498              -0.047913621               0.000000000              -0.173863932              -0.057219379               0.000000000              -0.197159365              -0.066525138               0.000000000              -0.220454798              -0.075830897               0.000000000              -0.243750232              -0.085136655               0.000000000              -0.267045665              -0.094442414               0.000000000              -0.290341099              -0.103748172               0.000000000              -0.313636532              -0.113053931               0.000000000              -0.336931966              -0.122359690               0.000000000              -0.360227399              -0.131665448               0.000000000              -0.383522833              -0.140971207               0.000000000              -0.406818266              -0.150276966               0.000000000              -0.430113700              -0.159582724               0.000000000              -0.453409133              -0.168888483               0.000000000              -0.476704567              -0.178194241               0.000000000              -0.500000000              -0.187500000               0.000000000              -0.122875978              -0.050896897               0.000000000              -0.146446229              -0.063340840               0.000000000              -0.170016481              -0.075784784               0.000000000              -0.193586732              -0.088228728               0.000000000              -0.217156983              -0.100672672               0.000000000              -0.240727235              -0.113116616               0.000000000              -0.264297486              -0.125560560               0.000000000              -0.287867738              -0.138004504               0.000000000              -0.311437989              -0.150448448               0.000000000              -0.335008240              -0.162892392               0.000000000              -0.358578492              -0.175336336               0.000000000              -0.382148743              -0.187780280               0.000000000              -0.405718994              -0.200224224               0.000000000              -0.429289246              -0.212668168               0.000000000              -0.452859497              -0.225112112               0.000000000              -0.476429749              -0.237556056               0.000000000              -0.500000000              -0.250000000               0.000000000              -0.117295528              -0.062695766               0.000000000              -0.141214558              -0.078308531               0.000000000              -0.165133587              -0.093921295               0.000000000              -0.189052617              -0.109534060               0.000000000              -0.212971646              -0.125146824               0.000000000              -0.236890676              -0.140759589               0.000000000              -0.260809705              -0.156372354               0.000000000              -0.284728735              -0.171985118               0.000000000              -0.308647764              -0.187597883               0.000000000              -0.332566794              -0.203210648               0.000000000              -0.356485823              -0.218823412               0.000000000              -0.380404853              -0.234436177               0.000000000              -0.404323882              -0.250048941               0.000000000              -0.428242912              -0.265661706               0.000000000              -0.452161941              -0.281274471               0.000000000              -0.476080971              -0.296887235               0.000000000              -0.500000000              -0.312500000               0.000000000              -0.110585458              -0.073890841               0.000000000              -0.134923867              -0.092710163               0.000000000              -0.159262276              -0.111529486               0.000000000              -0.183600685              -0.130348808               0.000000000              -0.207939094              -0.149168131               0.000000000              -0.232277503              -0.167987453               0.000000000              -0.256615912              -0.186806776               0.000000000              -0.280954320              -0.205626098               0.000000000              -0.305292729              -0.224445420               0.000000000              -0.329631138              -0.243264743               0.000000000              -0.353969547              -0.262084065               0.000000000              -0.378307956              -0.280903388               0.000000000              -0.402646365              -0.299722710               0.000000000              -0.426984773              -0.318542033               0.000000000              -0.451323182              -0.337361355               0.000000000              -0.475661591              -0.356180678               0.000000000              -0.500000000              -0.375000000               0.000000000              -0.102810390              -0.084374307               0.000000000              -0.127634741              -0.106444663               0.000000000              -0.152459092              -0.128515018               0.000000000              -0.177283442              -0.150585374               0.000000000              -0.202107793              -0.172655730               0.000000000              -0.226932143              -0.194726086               0.000000000              -0.251756494              -0.216796442               0.000000000              -0.276580845              -0.238866798               0.000000000              -0.301405195              -0.260937153               0.000000000              -0.326229546              -0.283007509               0.000000000              -0.351053896              -0.305077865               0.000000000              -0.375878247              -0.327148221               0.000000000              -0.400702598              -0.349218577               0.000000000              -0.425526948              -0.371288933               0.000000000              -0.450351299              -0.393359288               0.000000000              -0.475175649              -0.415429644               0.000000000              -0.500000000              -0.437500000               0.000000000              -0.094045202              -0.094045202               0.000000000              -0.119417377              -0.119417377               0.000000000              -0.144789552              -0.144789552               0.000000000              -0.170161727              -0.170161727               0.000000000              -0.195533901              -0.195533901               0.000000000              -0.220906076              -0.220906076               0.000000000              -0.246278251              -0.246278251               0.000000000              -0.271650426              -0.271650426               0.000000000              -0.297022601              -0.297022601               0.000000000              -0.322394776              -0.322394776               0.000000000              -0.347766951              -0.347766951               0.000000000              -0.373139126              -0.373139126               0.000000000              -0.398511300              -0.398511300               0.000000000              -0.423883475              -0.423883475               0.000000000              -0.449255650              -0.449255650               0.000000000              -0.474627825              -0.474627825               0.000000000              -0.500000000              -0.500000000               0.000000000              -0.084374307              -0.102810390               0.000000000              -0.106444663              -0.127634741               0.000000000              -0.128515018              -0.152459092               0.000000000              -0.150585374              -0.177283442               0.000000000              -0.172655730              -0.202107793               0.000000000              -0.194726086              -0.226932143               0.000000000              -0.216796442              -0.251756494               0.000000000              -0.238866798              -0.276580845               0.000000000              -0.260937153              -0.301405195               0.000000000              -0.283007509              -0.326229546               0.000000000              -0.305077865              -0.351053896               0.000000000              -0.327148221              -0.375878247               0.000000000              -0.349218577              -0.400702598               0.000000000              -0.371288933              -0.425526948               0.000000000              -0.393359288              -0.450351299               0.000000000              -0.415429644              -0.475175649               0.000000000              -0.437500000              -0.500000000               0.000000000              -0.073890841              -0.110585458               0.000000000              -0.092710163              -0.134923867               0.000000000              -0.111529486              -0.159262276               0.000000000              -0.130348808              -0.183600685               0.000000000              -0.149168131              -0.207939094               0.000000000              -0.167987453              -0.232277503               0.000000000              -0.186806776              -0.256615912               0.000000000              -0.205626098              -0.280954320               0.000000000              -0.224445420              -0.305292729               0.000000000              -0.243264743              -0.329631138               0.000000000              -0.262084065              -0.353969547               0.000000000              -0.280903388              -0.378307956               0.000000000              -0.299722710              -0.402646365               0.000000000              -0.318542033              -0.426984773               0.000000000              -0.337361355              -0.451323182               0.000000000              -0.356180678              -0.475661591               0.000000000              -0.375000000              -0.500000000               0.000000000              -0.062695766              -0.117295528               0.000000000              -0.078308531              -0.141214558               0.000000000              -0.093921295              -0.165133587               0.000000000              -0.109534060              -0.189052617               0.000000000              -0.125146824              -0.212971646               0.000000000              -0.140759589              -0.236890676               0.000000000              -0.156372354              -0.260809705               0.000000000              -0.171985118              -0.284728735               0.000000000              -0.187597883              -0.308647764               0.000000000              -0.203210648              -0.332566794               0.000000000              -0.218823412              -0.356485823               0.000000000              -0.234436177              -0.380404853               0.000000000              -0.250048941              -0.404323882               0.000000000              -0.265661706              -0.428242912               0.000000000              -0.281274471              -0.452161941               0.000000000              -0.296887235              -0.476080971               0.000000000              -0.312500000              -0.500000000               0.000000000              -0.050896897              -0.122875978               0.000000000              -0.063340840              -0.146446229               0.000000000              -0.075784784              -0.170016481               0.000000000              -0.088228728              -0.193586732               0.000000000              -0.100672672              -0.217156983               0.000000000              -0.113116616              -0.240727235               0.000000000              -0.125560560              -0.264297486               0.000000000              -0.138004504              -0.287867738               0.000000000              -0.150448448              -0.311437989               0.000000000              -0.162892392              -0.335008240               0.000000000              -0.175336336              -0.358578492               0.000000000              -0.187780280              -0.382148743               0.000000000              -0.200224224              -0.405718994               0.000000000              -0.212668168              -0.429289246               0.000000000              -0.225112112              -0.452859497               0.000000000              -0.237556056              -0.476429749               0.000000000              -0.250000000              -0.500000000               0.000000000              -0.038607862              -0.127273065               0.000000000              -0.047913621              -0.150568498               0.000000000              -0.057219379              -0.173863932               0.000000000              -0.066525138              -0.197159365               0.000000000              -0.075830897              -0.220454798               0.000000000              -0.085136655              -0.243750232               0.000000000              -0.094442414              -0.267045665               0.000000000              -0.103748172              -0.290341099               0.000000000              -0.113053931              -0.313636532               0.000000000              -0.122359690              -0.336931966               0.000000000              -0.131665448              -0.360227399               0.000000000              -0.140971207              -0.383522833               0.000000000              -0.150276966              -0.406818266               0.000000000              -0.159582724              -0.430113700               0.000000000              -0.168888483              -0.453409133               0.000000000              -0.178194241              -0.476704567               0.000000000              -0.187500000              -0.500000000               0.000000000              -0.025947013              -0.130444442               0.000000000              -0.032137825              -0.153541665               0.000000000              -0.038328636              -0.176638887               0.000000000              -0.044519448              -0.199736109               0.000000000              -0.050710260              -0.222833332               0.000000000              -0.056901071              -0.245930554               0.000000000              -0.063091883              -0.269027776               0.000000000              -0.069282695              -0.292124999               0.000000000              -0.075473506              -0.315222221               0.000000000              -0.081664318              -0.338319444               0.000000000              -0.087855130              -0.361416666               0.000000000              -0.094045942              -0.384513888               0.000000000              -0.100236753              -0.407611111               0.000000000              -0.106427565              -0.430708333               0.000000000              -0.112618377              -0.453805555               0.000000000              -0.118809188              -0.476902778               0.000000000              -0.125000000              -0.500000000               0.000000000              -0.013036280              -0.132359569               0.000000000              -0.016127762              -0.155337096               0.000000000              -0.019219245              -0.178314623               0.000000000              -0.022310727              -0.201292150               0.000000000              -0.025402210              -0.224269676               0.000000000              -0.028493692              -0.247247203               0.000000000              -0.031585175              -0.270224730               0.000000000              -0.034676657              -0.293202257               0.000000000              -0.037768140              -0.316179784               0.000000000              -0.040859622              -0.339157311               0.000000000              -0.043951105              -0.362134838               0.000000000              -0.047042587              -0.385112365               0.000000000              -0.050134070              -0.408089892               0.000000000              -0.053225552              -0.431067419               0.000000000              -0.056317035              -0.454044946               0.000000000              -0.059408517              -0.477022473               0.000000000              -0.062500000              -0.500000000               0.000000000               0.000000000              -0.133000000               0.000000000               0.000000000              -0.155937500               0.000000000               0.000000000              -0.178875000               0.000000000               0.000000000              -0.201812500               0.000000000               0.000000000              -0.224750000               0.000000000               0.000000000              -0.247687500               0.000000000               0.000000000              -0.270625000               0.000000000               0.000000000              -0.293562500               0.000000000               0.000000000              -0.316500000               0.000000000               0.000000000              -0.339437500               0.000000000               0.000000000              -0.362375000               0.000000000               0.000000000              -0.385312500               0.000000000               0.000000000              -0.408250000               0.000000000               0.000000000              -0.431187500               0.000000000               0.000000000              -0.454125000               0.000000000               0.000000000              -0.477062500               0.000000000               0.000000000              -0.500000000               0.000000000              -0.133000000               0.000000000               0.000000000              -0.155937500               0.000000000               0.000000000              -0.178875000               0.000000000               0.000000000              -0.201812500               0.000000000               0.000000000              -0.224750000               0.000000000               0.000000000              -0.247687500               0.000000000               0.000000000              -0.270625000               0.000000000               0.000000000              -0.293562500               0.000000000               0.000000000              -0.316500000               0.000000000               0.000000000              -0.339437500               0.000000000               0.000000000              -0.362375000               0.000000000               0.000000000              -0.385312500               0.000000000               0.000000000              -0.408250000               0.000000000               0.000000000              -0.431187500               0.000000000               0.000000000              -0.454125000               0.000000000               0.000000000              -0.477062500               0.000000000               0.000000000              -0.500000000               0.000000000               0.000000000              -0.132359569               0.013036280               0.000000000              -0.155337096               0.016127762               0.000000000              -0.178314623               0.019219245               0.000000000              -0.201292150               0.022310727               0.000000000              -0.224269676               0.025402210               0.000000000              -0.247247203               0.028493692               0.000000000              -0.270224730               0.031585175               0.000000000              -0.293202257               0.034676657               0.000000000              -0.316179784               0.037768140               0.000000000              -0.339157311               0.040859622               0.000000000              -0.362134838               0.043951105               0.000000000              -0.385112365               0.047042587               0.000000000              -0.408089892               0.050134070               0.000000000              -0.431067419               0.053225552               0.000000000              -0.454044946               0.056317035               0.000000000              -0.477022473               0.059408517               0.000000000              -0.500000000               0.062500000               0.000000000              -0.130444442               0.025947013               0.000000000              -0.153541665               0.032137825               0.000000000              -0.176638887               0.038328636               0.000000000              -0.199736109               0.044519448               0.000000000              -0.222833332               0.050710260               0.000000000              -0.245930554               0.056901071               0.000000000              -0.269027776               0.063091883               0.000000000              -0.292124999               0.069282695               0.000000000              -0.315222221               0.075473506               0.000000000              -0.338319444               0.081664318               0.000000000              -0.361416666               0.087855130               0.000000000              -0.384513888               0.094045942               0.000000000              -0.407611111               0.100236753               0.000000000              -0.430708333               0.106427565               0.000000000              -0.453805555               0.112618377               0.000000000              -0.476902778               0.118809188               0.000000000              -0.500000000               0.125000000               0.000000000              -0.127273065               0.038607862               0.000000000              -0.150568498               0.047913621               0.000000000              -0.173863932               0.057219379               0.000000000              -0.197159365               0.066525138               0.000000000              -0.220454798               0.075830897               0.000000000              -0.243750232               0.085136655               0.000000000              -0.267045665               0.094442414               0.000000000              -0.290341099               0.103748172               0.000000000              -0.313636532               0.113053931               0.000000000              -0.336931966               0.122359690               0.000000000              -0.360227399               0.131665448               0.000000000              -0.383522833               0.140971207               0.000000000              -0.406818266               0.150276966               0.000000000              -0.430113700               0.159582724               0.000000000              -0.453409133               0.168888483               0.000000000              -0.476704567               0.178194241               0.000000000              -0.500000000               0.187500000               0.000000000              -0.122875978               0.050896897               0.000000000              -0.146446229               0.063340840               0.000000000              -0.170016481               0.075784784               0.000000000              -0.193586732               0.088228728               0.000000000              -0.217156983               0.100672672               0.000000000              -0.240727235               0.113116616               0.000000000              -0.264297486               0.125560560               0.000000000              -0.287867738               0.138004504               0.000000000              -0.311437989               0.150448448               0.000000000              -0.335008240               0.162892392               0.000000000              -0.358578492               0.175336336               0.000000000              -0.382148743               0.187780280               0.000000000              -0.405718994               0.200224224               0.000000000              -0.429289246               0.212668168               0.000000000              -0.452859497               0.225112112               0.000000000              -0.476429749               0.237556056               0.000000000              -0.500000000               0.250000000               0.000000000              -0.117295528               0.062695766               0.000000000              -0.141214558               0.078308531               0.000000000              -0.165133587               0.093921295               0.000000000              -0.189052617               0.109534060               0.000000000              -0.212971646               0.125146824               0.000000000              -0.236890676               0.140759589               0.000000000              -0.260809705               0.156372354               0.000000000              -0.284728735               0.171985118               0.000000000              -0.308647764               0.187597883               0.000000000              -0.332566794               0.203210648               0.000000000              -0.356485823               0.218823412               0.000000000              -0.380404853               0.234436177               0.000000000              -0.404323882               0.250048941               0.000000000              -0.428242912               0.265661706               0.000000000              -0.452161941               0.281274471               0.000000000              -0.476080971               0.296887235               0.000000000              -0.500000000               0.312500000               0.000000000              -0.110585458               0.073890841               0.000000000              -0.134923867               0.092710163               0.000000000              -0.159262276               0.111529486               0.000000000              -0.183600685               0.130348808               0.000000000              -0.207939094               0.149168131               0.000000000              -0.232277503               0.167987453               0.000000000              -0.256615912               0.186806776               0.000000000              -0.280954320               0.205626098               0.000000000              -0.305292729               0.224445420               0.000000000              -0.329631138               0.243264743               0.000000000              -0.353969547               0.262084065               0.000000000              -0.378307956               0.280903388               0.000000000              -0.402646365               0.299722710               0.000000000              -0.426984773               0.318542033               0.000000000              -0.451323182               0.337361355               0.000000000              -0.475661591               0.356180678               0.000000000              -0.500000000               0.375000000               0.000000000              -0.102810390               0.084374307               0.000000000              -0.127634741               0.106444663               0.000000000              -0.152459092               0.128515018               0.000000000              -0.177283442               0.150585374               0.000000000              -0.202107793               0.172655730               0.000000000              -0.226932143               0.194726086               0.000000000              -0.251756494               0.216796442               0.000000000              -0.276580845               0.238866798               0.000000000              -0.301405195               0.260937153               0.000000000              -0.326229546               0.283007509               0.000000000              -0.351053896               0.305077865               0.000000000              -0.375878247               0.327148221               0.000000000              -0.400702598               0.349218577               0.000000000              -0.425526948               0.371288933               0.000000000              -0.450351299               0.393359288               0.000000000              -0.475175649               0.415429644               0.000000000              -0.500000000               0.437500000               0.000000000              -0.094045202               0.094045202               0.000000000              -0.119417377               0.119417377               0.000000000              -0.144789552               0.144789552               0.000000000              -0.170161727               0.170161727               0.000000000              -0.195533901               0.195533901               0.000000000              -0.220906076               0.220906076               0.000000000              -0.246278251               0.246278251               0.000000000              -0.271650426               0.271650426               0.000000000              -0.297022601               0.297022601               0.000000000              -0.322394776               0.322394776               0.000000000              -0.347766951               0.347766951               0.000000000              -0.373139126               0.373139126               0.000000000              -0.398511300               0.398511300               0.000000000              -0.423883475               0.423883475               0.000000000              -0.449255650               0.449255650               0.000000000              -0.474627825               0.474627825               0.000000000              -0.500000000               0.500000000               0.000000000              -0.084374307               0.102810390               0.000000000              -0.106444663               0.127634741               0.000000000              -0.128515018               0.152459092               0.000000000              -0.150585374               0.177283442               0.000000000              -0.172655730               0.202107793               0.000000000              -0.194726086               0.226932143               0.000000000              -0.216796442               0.251756494               0.000000000              -0.238866798               0.276580845               0.000000000              -0.260937153               0.301405195               0.000000000              -0.283007509               0.326229546               0.000000000              -0.305077865               0.351053896               0.000000000              -0.327148221               0.375878247               0.000000000              -0.349218577               0.400702598               0.000000000              -0.371288933               0.425526948               0.000000000              -0.393359288               0.450351299               0.000000000              -0.415429644               0.475175649               0.000000000              -0.437500000               0.500000000               0.000000000              -0.073890841               0.110585458               0.000000000              -0.092710163               0.134923867               0.000000000              -0.111529486               0.159262276               0.000000000              -0.130348808               0.183600685               0.000000000              -0.149168131               0.207939094               0.000000000              -0.167987453               0.232277503               0.000000000              -0.186806776               0.256615912               0.000000000              -0.205626098               0.280954320               0.000000000              -0.224445420               0.305292729               0.000000000              -0.243264743               0.329631138               0.000000000              -0.262084065               0.353969547               0.000000000              -0.280903388               0.378307956               0.000000000              -0.299722710               0.402646365               0.000000000              -0.318542033               0.426984773               0.000000000              -0.337361355               0.451323182               0.000000000              -0.356180678               0.475661591               0.000000000              -0.375000000               0.500000000               0.000000000              -0.062695766               0.117295528               0.000000000              -0.078308531               0.141214558               0.000000000              -0.093921295               0.165133587               0.000000000              -0.109534060               0.189052617               0.000000000              -0.125146824               0.212971646               0.000000000              -0.140759589               0.236890676               0.000000000              -0.156372354               0.260809705               0.000000000              -0.171985118               0.284728735               0.000000000              -0.187597883               0.308647764               0.000000000              -0.203210648               0.332566794               0.000000000              -0.218823412               0.356485823               0.000000000              -0.234436177               0.380404853               0.000000000              -0.250048941               0.404323882               0.000000000              -0.265661706               0.428242912               0.000000000              -0.281274471               0.452161941               0.000000000              -0.296887235               0.476080971               0.000000000              -0.312500000               0.500000000               0.000000000              -0.050896897               0.122875978               0.000000000              -0.063340840               0.146446229               0.000000000              -0.075784784               0.170016481               0.000000000              -0.088228728               0.193586732               0.000000000              -0.100672672               0.217156983               0.000000000              -0.113116616               0.240727235               0.000000000              -0.125560560               0.264297486               0.000000000              -0.138004504               0.287867738               0.000000000              -0.150448448               0.311437989               0.000000000              -0.162892392               0.335008240               0.000000000              -0.175336336               0.358578492               0.000000000              -0.187780280               0.382148743               0.000000000              -0.200224224               0.405718994               0.000000000              -0.212668168               0.429289246               0.000000000              -0.225112112               0.452859497               0.000000000              -0.237556056               0.476429749               0.000000000              -0.250000000               0.500000000               0.000000000              -0.038607862               0.127273065               0.000000000              -0.047913621               0.150568498               0.000000000              -0.057219379               0.173863932               0.000000000              -0.066525138               0.197159365               0.000000000              -0.075830897               0.220454798               0.000000000              -0.085136655               0.243750232               0.000000000              -0.094442414               0.267045665               0.000000000              -0.103748172               0.290341099               0.000000000              -0.113053931               0.313636532               0.000000000              -0.122359690               0.336931966               0.000000000              -0.131665448               0.360227399               0.000000000              -0.140971207               0.383522833               0.000000000              -0.150276966               0.406818266               0.000000000              -0.159582724               0.430113700               0.000000000              -0.168888483               0.453409133               0.000000000              -0.178194241               0.476704567               0.000000000              -0.187500000               0.500000000               0.000000000              -0.025947013               0.130444442               0.000000000              -0.032137825               0.153541665               0.000000000              -0.038328636               0.176638887               0.000000000              -0.044519448               0.199736109               0.000000000              -0.050710260               0.222833332               0.000000000              -0.056901071               0.245930554               0.000000000              -0.063091883               0.269027776               0.000000000              -0.069282695               0.292124999               0.000000000              -0.075473506               0.315222221               0.000000000              -0.081664318               0.338319444               0.000000000              -0.087855130               0.361416666               0.000000000              -0.094045942               0.384513888               0.000000000              -0.100236753               0.407611111               0.000000000              -0.106427565               0.430708333               0.000000000              -0.112618377               0.453805555               0.000000000              -0.118809188               0.476902778               0.000000000              -0.125000000               0.500000000               0.000000000              -0.013036280               0.132359569               0.000000000              -0.016127762               0.155337096               0.000000000              -0.019219245               0.178314623               0.000000000              -0.022310727               0.201292150               0.000000000              -0.025402210               0.224269676               0.000000000              -0.028493692               0.247247203               0.000000000              -0.031585175               0.270224730               0.000000000              -0.034676657               0.293202257               0.000000000              -0.037768140               0.316179784               0.000000000              -0.040859622               0.339157311               0.000000000              -0.043951105               0.362134838               0.000000000              -0.047042587               0.385112365               0.000000000              -0.050134070               0.408089892               0.000000000              -0.053225552               0.431067419               0.000000000              -0.056317035               0.454044946               0.000000000              -0.059408517               0.477022473               0.000000000              -0.062500000               0.500000000               0.000000000               0.000000000               0.133000000               0.000000000               0.000000000               0.155937500               0.000000000               0.000000000               0.178875000               0.000000000               0.000000000               0.201812500               0.000000000               0.000000000               0.224750000               0.000000000               0.000000000               0.247687500               0.000000000               0.000000000               0.270625000               0.000000000               0.000000000               0.293562500               0.000000000               0.000000000               0.316500000               0.000000000               0.000000000               0.339437500               0.000000000               0.000000000               0.362375000               0.000000000               0.000000000               0.385312500               0.000000000               0.000000000               0.408250000               0.000000000               0.000000000               0.431187500               0.000000000               0.000000000               0.454125000               0.000000000               0.000000000               0.477062500               0.000000000               0.000000000               0.500000000               0.000000000 </DataArray>
</Points>
<Cells>
<DataArray type="Int32"                                    Name="connectivity"                                                      NumberOfComponents=" 1" format="ascii">
         0          1         18         17          1          2         19         18          2          3         20         19          3          4         21         20          4          5         22         21          5          6         23         22          6          7         24         23          7          8         25         24          8          9         26         25          9         10         27         26         10         11         28         27         11         12         29         28         12         13         30         29         13         14         31         30         14         15         32         31         15         16         33         32         17         18         35         34         18         19         36         35         19         20         37         36         20         21         38         37         21         22         39         38         22         23         40         39         23         24         41         40         24         25         42         41         25         26         43         42         26         27         44         43         27         28         45         44         28         29         46         45         29         30         47         46         30         31         48         47         31         32         49         48         32         33         50         49         34         35         52         51         35         36         53         52         36         37         54         53         37         38         55         54         38         39         56         55         39         40         57         56         40         41         58         57         41         42         59         58         42         43         60         59         43         44         61         60         44         45         62         61         45         46         63         62         46         47         64         63         47         48         65         64         48         49         66         65         49         50         67         66         51         52         69         68         52         53         70         69         53         54         71         70         54         55         72         71         55         56         73         72         56         57         74         73         57         58         75         74         58         59         76         75         59         60         77         76         60         61         78         77         61         62         79         78         62         63         80         79         63         64         81         80         64         65         82         81         65         66         83         82         66         67         84         83         68         69         86         85         69         70         87         86         70         71         88         87         71         72         89         88         72         73         90         89         73         74         91         90         74         75         92         91         75         76         93         92         76         77         94         93         77         78         95         94         78         79         96         95         79         80         97         96         80         81         98         97         81         82         99         98         82         83        100         99         83         84        101        100         85         86        103        102         86         87        104        103         87         88        105        104         88         89        106        105         89         90        107        106         90         91        108        107         91         92        109        108         92         93        110        109         93         94        111        110         94         95        112        111         95         96        113        112         96         97        114        113         97         98        115        114         98         99        116        115         99        100        117        116        100        101        118        117        102        103        120        119        103        104        121        120        104        105        122        121        105        106        123        122        106        107        124        123        107        108        125        124        108        109        126        125        109        110        127        126        110        111        128        127        111        112        129        128        112        113        130        129        113        114        131        130        114        115        132        131        115        116        133        132        116        117        134        133        117        118        135        134        119        120        137        136        120        121        138        137        121        122        139        138        122        123        140        139        123        124        141        140        124        125        142        141        125        126        143        142        126        127        144        143        127        128        145        144        128        129        146        145        129        130        147        146        130        131        148        147        131        132        149        148        132        133        150        149        133        134        151        150        134        135        152        151        136        137        154        153        137        138        155        154        138        139        156        155        139        140        157        156        140        141        158        157        141        142        159        158        142        143        160        159        143        144        161        160        144        145        162        161        145        146        163        162        146        147        164        163        147        148        165        164        148        149        166        165        149        150        167        166        150        151        168        167        151        152        169        168        153        154        171        170        154        155        172        171        155        156        173        172        156        157        174        173        157        158        175        174        158        159        176        175        159        160        177        176        160        161        178        177        161        162        179        178        162        163        180        179        163        164        181        180        164        165        182        181        165        166        183        182        166        167        184        183        167        168        185        184        168        169        186        185        170        171        188        187        171        172        189        188        172        173        190        189        173        174        191        190        174        175        192        191        175        176        193        192        176        177        194        193        177        178        195        194        178        179        196        195        179        180        197        196        180        181        198        197        181        182        199        198        182        183        200        199        183        184        201        200        184        185        202        201        185        186        203        202        187        188        205        204        188        189        206        205        189        190        207        206        190        191        208        207        191        192        209        208        192        193        210        209        193        194        211        210        194        195        212        211        195        196        213        212        196        197        214        213        197        198        215        214        198        199        216        215        199        200        217        216        200        201        218        217        201        202        219        218        202        203        220        219        204        205        222        221        205        206        223        222        206        207        224        223        207        208        225        224        208        209        226        225        209        210        227        226        210        211        228        227        211        212        229        228        212        213        230        229        213        214        231        230        214        215        232        231        215        216        233        232        216        217        234        233        217        218        235        234        218        219        236        235        219        220        237        236        221        222        239        238        222        223        240        239        223        224        241        240        224        225        242        241        225        226        243        242        226        227        244        243        227        228        245        244        228        229        246        245        229        230        247        246        230        231        248        247        231        232        249        248        232        233        250        249        233        234        251        250        234        235        252        251        235        236        253        252        236        237        254        253        238        239        256        255        239        240        257        256        240        241        258        257        241        242        259        258        242        243        260        259        243        244        261        260        244        245        262        261        245        246        263        262        246        247        264        263        247        248        265        264        248        249        266        265        249        250        267        266        250        251        268        267        251        252        269        268        252        253        270        269        253        254        271        270        255        256        273        272        256        257        274        273        257        258        275        274        258        259        276        275        259        260        277        276        260        261        278        277        261        262        279        278        262        263        280        279        263        264        281        280        264        265        282        281        265        266        283        282        266        267        284        283        267        268        285        284        268        269        286        285        269        270        287        286        270        271        288        287        306        307          1          0        307        308          2          1        308        309          3          2        309        310          4          3        310        311          5          4        311        312          6          5        312        313          7          6        313        314          8          7        314        315          9          8        315        316         10          9        316        317         11         10        317        318         12         11        318        319         13         12        319        320         14         13        320        321         15         14        321        322         16         15        323        324        307        306        324        325        308        307        325        326        309        308        326        327        310        309        327        328        311        310        328        329        312        311        329        330        313        312        330        331        314        313        331        332        315        314        332        333        316        315        333        334        317        316        334        335        318        317        335        336        319        318        336        337        320        319        337        338        321        320        338        339        322        321        340        341        324        323        341        342        325        324        342        343        326        325        343        344        327        326        344        345        328        327        345        346        329        328        346        347        330        329        347        348        331        330        348        349        332        331        349        350        333        332        350        351        334        333        351        352        335        334        352        353        336        335        353        354        337        336        354        355        338        337        355        356        339        338        357        358        341        340        358        359        342        341        359        360        343        342        360        361        344        343        361        362        345        344        362        363        346        345        363        364        347        346        364        365        348        347        365        366        349        348        366        367        350        349        367        368        351        350        368        369        352        351        369        370        353        352        370        371        354        353        371        372        355        354        372        373        356        355        374        375        358        357        375        376        359        358        376        377        360        359        377        378        361        360        378        379        362        361        379        380        363        362        380        381        364        363        381        382        365        364        382        383        366        365        383        384        367        366        384        385        368        367        385        386        369        368        386        387        370        369        387        388        371        370        388        389        372        371        389        390        373        372        391        392        375        374        392        393        376        375        393        394        377        376        394        395        378        377        395        396        379        378        396        397        380        379        397        398        381        380        398        399        382        381        399        400        383        382        400        401        384        383        401        402        385        384        402        403        386        385        403        404        387        386        404        405        388        387        405        406        389        388        406        407        390        389        408        409        392        391        409        410        393        392        410        411        394        393        411        412        395        394        412        413        396        395        413        414        397        396        414        415        398        397        415        416        399        398        416        417        400        399        417        418        401        400        418        419        402        401        419        420        403        402        420        421        404        403        421        422        405        404        422        423        406        405        423        424        407        406        425        426        409        408        426        427        410        409        427        428        411        410        428        429        412        411        429        430        413        412        430        431        414        413        431        432        415        414        432        433        416        415        433        434        417        416        434        435        418        417        435        436        419        418        436        437        420        419        437        438        421        420        438        439        422        421        439        440        423        422        440        441        424        423        442        443        426        425        443        444        427        426        444        445        428        427        445        446        429        428        446        447        430        429        447        448        431        430        448        449        432        431        449        450        433        432        450        451        434        433        451        452        435        434        452        453        436        435        453        454        437        436        454        455        438        437        455        456        439        438        456        457        440        439        457        458        441        440        459        460        443        442        460        461        444        443        461        462        445        444        462        463        446        445        463        464        447        446        464        465        448        447        465        466        449        448        466        467        450        449        467        468        451        450        468        469        452        451        469        470        453        452        470        471        454        453        471        472        455        454        472        473        456        455        473        474        457        456        474        475        458        457        476        477        460        459        477        478        461        460        478        479        462        461        479        480        463        462        480        481        464        463        481        482        465        464        482        483        466        465        483        484        467        466        484        485        468        467        485        486        469        468        486        487        470        469        487        488        471        470        488        489        472        471        489        490        473        472        490        491        474        473        491        492        475        474        493        494        477        476        494        495        478        477        495        496        479        478        496        497        480        479        497        498        481        480        498        499        482        481        499        500        483        482        500        501        484        483        501        502        485        484        502        503        486        485        503        504        487        486        504        505        488        487        505        506        489        488        506        507        490        489        507        508        491        490        508        509        492        491        510        511        494        493        511        512        495        494        512        513        496        495        513        514        497        496        514        515        498        497        515        516        499        498        516        517        500        499        517        518        501        500        518        519        502        501        519        520        503        502        520        521        504        503        521        522        505        504        522        523        506        505        523        524        507        506        524        525        508        507        525        526        509        508        527        528        511        510        528        529        512        511        529        530        513        512        530        531        514        513        531        532        515        514        532        533        516        515        533        534        517        516        534        535        518        517        535        536        519        518        536        537        520        519        537        538        521        520        538        539        522        521        539        540        523        522        540        541        524        523        541        542        525        524        542        543        526        525        544        545        528        527        545        546        529        528        546        547        530        529        547        548        531        530        548        549        532        531        549        550        533        532        550        551        534        533        551        552        535        534        552        553        536        535        553        554        537        536        554        555        538        537        555        556        539        538        556        557        540        539        557        558        541        540        558        559        542        541        559        560        543        542        561        562        545        544        562        563        546        545        563        564        547        546        564        565        548        547        565        566        549        548        566        567        550        549        567        568        551        550        568        569        552        551        569        570        553        552        570        571        554        553        571        572        555        554        572        573        556        555        573        574        557        556        574        575        558        557        575        576        559        558        576        577        560        559        578        579        596        595        579        580        597        596        580        581        598        597        581        582        599        598        582        583        600        599        583        584        601        600        584        585        602        601        585        586        603        602        586        587        604        603        587        588        605        604        588        589        606        605        589        590        607        606        590        591        608        607        591        592        609        608        592        593        610        609        593        594        611        610        595        596        613        612        596        597        614        613        597        598        615        614        598        599        616        615        599        600        617        616        600        601        618        617        601        602        619        618        602        603        620        619        603        604        621        620        604        605        622        621        605        606        623        622        606        607        624        623        607        608        625        624        608        609        626        625        609        610        627        626        610        611        628        627        612        613        630        629        613        614        631        630        614        615        632        631        615        616        633        632        616        617        634        633        617        618        635        634        618        619        636        635        619        620        637        636        620        621        638        637        621        622        639        638        622        623        640        639        623        624        641        640        624        625        642        641        625        626        643        642        626        627        644        643        627        628        645        644        629        630        647        646        630        631        648        647        631        632        649        648        632        633        650        649        633        634        651        650        634        635        652        651        635        636        653        652        636        637        654        653        637        638        655        654        638        639        656        655        639        640        657        656        640        641        658        657        641        642        659        658        642        643        660        659        643        644        661        660        644        645        662        661        646        647        664        663        647        648        665        664        648        649        666        665        649        650        667        666        650        651        668        667        651        652        669        668        652        653        670        669        653        654        671        670        654        655        672        671        655        656        673        672        656        657        674        673        657        658        675        674        658        659        676        675        659        660        677        676        660        661        678        677        661        662        679        678        663        664        681        680        664        665        682        681        665        666        683        682        666        667        684        683        667        668        685        684        668        669        686        685        669        670        687        686        670        671        688        687        671        672        689        688        672        673        690        689        673        674        691        690        674        675        692        691        675        676        693        692        676        677        694        693        677        678        695        694        678        679        696        695        680        681        698        697        681        682        699        698        682        683        700        699        683        684        701        700        684        685        702        701        685        686        703        702        686        687        704        703        687        688        705        704        688        689        706        705        689        690        707        706        690        691        708        707        691        692        709        708        692        693        710        709        693        694        711        710        694        695        712        711        695        696        713        712        697        698        715        714        698        699        716        715        699        700        717        716        700        701        718        717        701        702        719        718        702        703        720        719        703        704        721        720        704        705        722        721        705        706        723        722        706        707        724        723        707        708        725        724        708        709        726        725        709        710        727        726        710        711        728        727        711        712        729        728        712        713        730        729        714        715        732        731        715        716        733        732        716        717        734        733        717        718        735        734        718        719        736        735        719        720        737        736        720        721        738        737        721        722        739        738        722        723        740        739        723        724        741        740        724        725        742        741        725        726        743        742        726        727        744        743        727        728        745        744        728        729        746        745        729        730        747        746        731        732        749        748        732        733        750        749        733        734        751        750        734        735        752        751        735        736        753        752        736        737        754        753        737        738        755        754        738        739        756        755        739        740        757        756        740        741        758        757        741        742        759        758        742        743        760        759        743        744        761        760        744        745        762        761        745        746        763        762        746        747        764        763        748        749        766        765        749        750        767        766        750        751        768        767        751        752        769        768        752        753        770        769        753        754        771        770        754        755        772        771        755        756        773        772        756        757        774        773        757        758        775        774        758        759        776        775        759        760        777        776        760        761        778        777        761        762        779        778        762        763        780        779        763        764        781        780        765        766        783        782        766        767        784        783        767        768        785        784        768        769        786        785        769        770        787        786        770        771        788        787        771        772        789        788        772        773        790        789        773        774        791        790        774        775        792        791        775        776        793        792        776        777        794        793        777        778        795        794        778        779        796        795        779        780        797        796        780        781        798        797        782        783        800        799        783        784        801        800        784        785        802        801        785        786        803        802        786        787        804        803        787        788        805        804        788        789        806        805        789        790        807        806        790        791        808        807        791        792        809        808        792        793        810        809        793        794        811        810        794        795        812        811        795        796        813        812        796        797        814        813        797        798        815        814        799        800        817        816        800        801        818        817        801        802        819        818        802        803        820        819        803        804        821        820        804        805        822        821        805        806        823        822        806        807        824        823        807        808        825        824        808        809        826        825        809        810        827        826        810        811        828        827        811        812        829        828        812        813        830        829        813        814        831        830        814        815        832        831        816        817        834        833        817        818        835        834        818        819        836        835        819        820        837        836        820        821        838        837        821        822        839        838        822        823        840        839        823        824        841        840        824        825        842        841        825        826        843        842        826        827        844        843        827        828        845        844        828        829        846        845        829        830        847        846        830        831        848        847        831        832        849        848        833        834        562        561        834        835        563        562        835        836        564        563        836        837        565        564        837        838        566        565        838        839        567        566        839        840        568        567        840        841        569        568        841        842        570        569        842        843        571        570        843        844        572        571        844        845        573        572        845        846        574        573        846        847        575        574        847        848        576        575        848        849        577        576        884        885        579        578        885        886        580        579        886        887        581        580        887        888        582        581        888        889        583        582        889        890        584        583        890        891        585        584        891        892        586        585        892        893        587        586        893        894        588        587        894        895        589        588        895        896        590        589        896        897        591        590        897        898        592        591        898        899        593        592        899        900        594        593        901        902        885        884        902        903        886        885        903        904        887        886        904        905        888        887        905        906        889        888        906        907        890        889        907        908        891        890        908        909        892        891        909        910        893        892        910        911        894        893        911        912        895        894        912        913        896        895        913        914        897        896        914        915        898        897        915        916        899        898        916        917        900        899        918        919        902        901        919        920        903        902        920        921        904        903        921        922        905        904        922        923        906        905        923        924        907        906        924        925        908        907        925        926        909        908        926        927        910        909        927        928        911        910        928        929        912        911        929        930        913        912        930        931        914        913        931        932        915        914        932        933        916        915        933        934        917        916        935        936        919        918        936        937        920        919        937        938        921        920        938        939        922        921        939        940        923        922        940        941        924        923        941        942        925        924        942        943        926        925        943        944        927        926        944        945        928        927        945        946        929        928        946        947        930        929        947        948        931        930        948        949        932        931        949        950        933        932        950        951        934        933        952        953        936        935        953        954        937        936        954        955        938        937        955        956        939        938        956        957        940        939        957        958        941        940        958        959        942        941        959        960        943        942        960        961        944        943        961        962        945        944        962        963        946        945        963        964        947        946        964        965        948        947        965        966        949        948        966        967        950        949        967        968        951        950        969        970        953        952        970        971        954        953        971        972        955        954        972        973        956        955        973        974        957        956        974        975        958        957        975        976        959        958        976        977        960        959        977        978        961        960        978        979        962        961        979        980        963        962        980        981        964        963        981        982        965        964        982        983        966        965        983        984        967        966        984        985        968        967        986        987        970        969        987        988        971        970        988        989        972        971        989        990        973        972        990        991        974        973        991        992        975        974        992        993        976        975        993        994        977        976        994        995        978        977        995        996        979        978        996        997        980        979        997        998        981        980        998        999        982        981        999       1000        983        982       1000       1001        984        983       1001       1002        985        984       1003       1004        987        986       1004       1005        988        987       1005       1006        989        988       1006       1007        990        989       1007       1008        991        990       1008       1009        992        991       1009       1010        993        992       1010       1011        994        993       1011       1012        995        994       1012       1013        996        995       1013       1014        997        996       1014       1015        998        997       1015       1016        999        998       1016       1017       1000        999       1017       1018       1001       1000       1018       1019       1002       1001       1020       1021       1004       1003       1021       1022       1005       1004       1022       1023       1006       1005       1023       1024       1007       1006       1024       1025       1008       1007       1025       1026       1009       1008       1026       1027       1010       1009       1027       1028       1011       1010       1028       1029       1012       1011       1029       1030       1013       1012       1030       1031       1014       1013       1031       1032       1015       1014       1032       1033       1016       1015       1033       1034       1017       1016       1034       1035       1018       1017       1035       1036       1019       1018       1037       1038       1021       1020       1038       1039       1022       1021       1039       1040       1023       1022       1040       1041       1024       1023       1041       1042       1025       1024       1042       1043       1026       1025       1043       1044       1027       1026       1044       1045       1028       1027       1045       1046       1029       1028       1046       1047       1030       1029       1047       1048       1031       1030       1048       1049       1032       1031       1049       1050       1033       1032       1050       1051       1034       1033       1051       1052       1035       1034       1052       1053       1036       1035       1054       1055       1038       1037       1055       1056       1039       1038       1056       1057       1040       1039       1057       1058       1041       1040       1058       1059       1042       1041       1059       1060       1043       1042       1060       1061       1044       1043       1061       1062       1045       1044       1062       1063       1046       1045       1063       1064       1047       1046       1064       1065       1048       1047       1065       1066       1049       1048       1066       1067       1050       1049       1067       1068       1051       1050       1068       1069       1052       1051       1069       1070       1053       1052       1071       1072       1055       1054       1072       1073       1056       1055       1073       1074       1057       1056       1074       1075       1058       1057       1075       1076       1059       1058       1076       1077       1060       1059       1077       1078       1061       1060       1078       1079       1062       1061       1079       1080       1063       1062       1080       1081       1064       1063       1081       1082       1065       1064       1082       1083       1066       1065       1083       1084       1067       1066       1084       1085       1068       1067       1085       1086       1069       1068       1086       1087       1070       1069       1088       1089       1072       1071       1089       1090       1073       1072       1090       1091       1074       1073       1091       1092       1075       1074       1092       1093       1076       1075       1093       1094       1077       1076       1094       1095       1078       1077       1095       1096       1079       1078       1096       1097       1080       1079       1097       1098       1081       1080       1098       1099       1082       1081       1099       1100       1083       1082       1100       1101       1084       1083       1101       1102       1085       1084       1102       1103       1086       1085       1103       1104       1087       1086       1105       1106       1089       1088       1106       1107       1090       1089       1107       1108       1091       1090       1108       1109       1092       1091       1109       1110       1093       1092       1110       1111       1094       1093       1111       1112       1095       1094       1112       1113       1096       1095       1113       1114       1097       1096       1114       1115       1098       1097       1115       1116       1099       1098       1116       1117       1100       1099       1117       1118       1101       1100       1118       1119       1102       1101       1119       1120       1103       1102       1120       1121       1104       1103       1122       1123       1106       1105       1123       1124       1107       1106       1124       1125       1108       1107       1125       1126       1109       1108       1126       1127       1110       1109       1127       1128       1111       1110       1128       1129       1112       1111       1129       1130       1113       1112       1130       1131       1114       1113       1131       1132       1115       1114       1132       1133       1116       1115       1133       1134       1117       1116       1134       1135       1118       1117       1135       1136       1119       1118       1136       1137       1120       1119       1137       1138       1121       1120        272        273       1123       1122        273        274       1124       1123        274        275       1125       1124        275        276       1126       1125        276        277       1127       1126        277        278       1128       1127        278        279       1129       1128        279        280       1130       1129        280        281       1131       1130        281        282       1132       1131        282        283       1133       1132        283        284       1134       1133        284        285       1135       1134        285        286       1136       1135        286        287       1137       1136        287        288       1138       1137 </DataArray>
<DataArray type="Int32"                                    Name="offsets"                                                      NumberOfComponents=" 1" format="ascii">
         4          8         12         16         20         24         28         32         36         40         44         48         52         56         60         64         68         72         76         80         84         88         92         96        100        104        108        112        116        120        124        128        132        136        140        144        148        152        156        160        164        168        172        176        180        184        188        192        196        200        204        208        212        216        220        224        228        232        236        240        244        248        252        256        260        264        268        272        276        280        284        288        292        296        300        304        308        312        316        320        324        328        332        336        340        344        348        352        356        360        364        368        372        376        380        384        388        392        396        400        404        408        412        416        420        424        428        432        436        440        444        448        452        456        460        464        468        472        476        480        484        488        492        496        500        504        508        512        516        520        524        528        532        536        540        544        548        552        556        560        564        568        572        576        580        584        588        592        596        600        604        608        612        616        620        624        628        632        636        640        644        648        652        656        660        664        668        672        676        680        684        688        692        696        700        704        708        712        716        720        724        728        732        736        740        744        748        752        756        760        764        768        772        776        780        784        788        792        796        800        804        808        812        816        820        824        828        832        836        840        844        848        852        856        860        864        868        872        876        880        884        888        892        896        900        904        908        912        916        920        924        928        932        936        940        944        948        952        956        960        964        968        972        976        980        984        988        992        996       1000       1004       1008       1012       1016       1020       1024       1028       1032       1036       1040       1044       1048       1052       1056       1060       1064       1068       1072       1076       1080       1084       1088       1092       1096       1100       1104       1108       1112       1116       1120       1124       1128       1132       1136       1140       1144       1148       1152       1156       1160       1164       1168       1172       1176       1180       1184       1188       1192       1196       1200       1204       1208       1212       1216       1220       1224       1228       1232       1236       1240       1244       1248       1252       1256       1260       1264       1268       1272       1276       1280       1284       1288       1292       1296       1300       1304       1308       1312       1316       1320       1324       1328       1332       1336       1340       1344       1348       1352       1356       1360       1364       1368       1372       1376       1380       1384       1388       1392       1396       1400       1404       1408       1412       1416       1420       1424       1428       1432       1436       1440       1444       1448       1452       1456       1460       1464       1468       1472       1476       1480       1484       1488       1492       1496       1500       1504       1508       1512       1516       1520       1524       1528       1532       1536       1540       1544       1548       1552       1556       1560       1564       1568       1572       1576       1580       1584       1588       1592       1596       1600       1604       1608       1612       1616       1620       1624       1628       1632       1636       1640       1644       1648       1652       1656       1660       1664       1668       1672       1676       1680       1684       1688       1692       1696       1700       1704       1708       1712       1716       1720       1724       1728       1732       1736       1740       1744       1748       1752       1756       1760       1764       1768       1772       1776       1780       1784       1788       1792       1796       1800       1804       1808       1812       1816       1820       1824       1828       1832       1836       1840       1844       1848       1852       1856       1860       1864       1868       1872       1876       1880       1884       1888       1892       1896       1900       1904       1908       1912       1916       1920       1924       1928       1932       1936       1940       1944       1948       1952       1956       1960       1964       1968       1972       1976       1980       1984       1988       1992       1996       2000       2004       2008       2012       2016       2020       2024       2028       2032       2036       2040       2044       2048       2052       2056       2060       2064       2068       2072       2076       2080       2084       2088       2092       2096       2100       2104       2108       2112       2116       2120       2124       2128       2132       2136       2140       2144       2148       2152       2156       2160       2164       2168       2172       2176       2180       2184       2188       2192       2196       2200       2204       2208       2212       2216       2220       2224       2228       2232       2236       2240       2244       2248       2252       2256       2260       2264       2268       2272       2276       2280       2284       2288       2292       2296       2300       2304       2308       2312       2316       2320       2324       2328       2332       2336       2340       2344       2348       2352       2356       2360       2364       2368       2372       2376       2380       2384       2388       2392       2396       2400       2404       2408       2412       2416       2420       2424       2428       2432       2436       2440       2444       2448       2452       2456       2460       2464       2468       2472       2476       2480       2484       2488       2492       2496       2500       2504       2508       2512       2516       2520       2524       2528       2532       2536       2540       2544       2548       2552       2556       2560       2564       2568       2572       2576       2580       2584       2588       2592       2596       2600       2604       2608       2612       2616       2620       2624       2628       2632       2636       2640       2644       2648       2652       2656       2660       2664       2668       2672       2676       2680       2684       2688       2692       2696       2700       2704       2708       2712       2716       2720       2724       2728       2732       2736       2740       2744       2748       2752       2756       2760       2764       2768       2772       2776       2780       2784       2788       2792       2796       2800       2804       2808       2812       2816       2820       2824       2828       2832       2836       2840       2844       2848       2852       2856       2860       2864       2868       2872       2876       2880       2884       2888       2892       2896       2900       2904       2908       2912       2916       2920       2924       2928       2932       2936       2940       2944       2948       2952       2956       2960       2964       2968       2972       2976       2980       2984       2988       2992       2996       3000       3004       3008       3012       3016       3020       3024       3028       3032       3036       3040       3044       3048       3052       3056       3060       3064       3068       3072       3076       3080       3084       3088       3092       3096       3100       3104       3108       3112       3116       3120       3124       3128       3132       3136       3140       3144       3148       3152       3156       3160       3164       3168       3172       3176       3180       3184       3188       3192       3196       3200       3204       3208       3212       3216       3220       3224       3228       3232       3236       3240       3244       3248       3252       3256       3260       3264       3268       3272       3276       3280       3284       3288       3292       3296       3300       3304       3308       3312       3316       3320       3324       3328       3332       3336       3340       3344       3348       3352       3356       3360       3364       3368       3372       3376       3380       3384       3388       3392       3396       3400       3404       3408       3412       3416       3420       3424       3428       3432       3436       3440       3444       3448       3452       3456       3460       3464       3468       3472       3476       3480       3484       3488       3492       3496       3500       3504       3508       3512       3516       3520       3524       3528       3532       3536       3540       3544       3548       3552       3556       3560       3564       3568       3572       3576       3580       3584       3588       3592       3596       3600       3604       3608       3612       3616       3620       3624       3628       3632       3636       3640       3644       3648       3652       3656       3660       3664       3668       3672       3676       3680       3684       3688       3692       3696       3700       3704       3708       3712       3716       3720       3724       3728       3732       3736       3740       3744       3748       3752       3756       3760       3764       3768       3772       3776       3780       3784       3788       3792       3796       3800       3804       3808       3812       3816       3820       3824       3828       3832       3836       3840       3844       3848       3852       3856       3860       3864       3868       3872       3876       3880       3884       3888       3892       3896       3900       3904       3908       3912       3916       3920       3924       3928       3932       3936       3940       3944       3948       3952       3956       3960       3964       3968       3972       3976       3980       3984       3988       3992       3996       4000       4004       4008       4012       4016       4020       4024       4028       4032       4036       4040       4044       4048       4052       4056       4060       4064       4068       4072       4076       4080       4084       4088       4092       4096 </DataArray>
<DataArray type="UInt8"                                    Name="types"                                                      NumberOfComponents=" 1" format="ascii">
         9          9          9          9          9          9          9          9          9          9          9          9          9          9          9          9          9          9          9          9          9          9          9          9          9          9          9          9          9          9          9          9          9          9          9          9          9          9          9          9          9          9          9          9          9          9          9          9          9          9          9          9          9          9          9          9          9          9          9          9          9          9          9          9          9          9          9          9          9          9          9          9          9          9          9          9          9          9          9          9          9          9          9          9          9          9          9          9          9          9          9          9          9          9          9          9          9          9          9          9          9          9          9          9          9          9          9          9          9          9          9          9          9          9          9          9          9          9          9          9          9          9          9          9          9          9          9          9          9          9          9          9          9          9          9          9          9          9          9          9          9          9          9          9          9          9          9          9          9          9          9          9          9          9          9          9          9          9          9          9          9          9          9          9          9          9          9          9          9          9          9          9          9          9          9          9          9          9          9          9          9          9          9          9          9          9          9          9          9          9          9          9          9          9          9          9          9          9          9          9          9          9          9          9          9          9          9          9          9          9          9          9          9          9          9          9          9          9          9          9          9          9          9          9          9          9          9          9          9          9          9          9          9          9          9          9          9          9          9          9          9          9          9          9          9          9          9          9          9          9          9          9          9          9          9          9          9          9          9          9          9          9          9          9          9          9          9          9          9          9          9          9          9          9          9          9          9          9          9          9          9          9          9          9          9          9          9          9          9          9          9          9          9          9          9          9          9          9          9          9          9          9          9          9          9          9          9          9          9          9          9          9          9          9          9          9          9          9          9          9          9          9          9          9          9          9          9          9          9          9          9          9          9          9          9          9          9          9          9          9          9          9          9          9          9          9          9          9          9          9          9          9          9          9          9          9          9          9          9          9          9          9          9          9          9          9          9          9          9          9          9          9          9          9          9          9          9          9          9          9          9          9          9          9          9          9          9          9          9          9          9          9          9          9          9          9          9          9          9          9          9          9          9          9          9          9          9          9          9          9          9          9          9          9          9          9          9          9          9          9          9          9          9          9          9          9          9          9          9          9          9          9          9          9          9          9          9          9          9          9          9          9          9          9          9          9          9          9          9          9          9          9          9          9          9          9          9          9          9          9          9          9          9          9          9          9          9          9          9          9          9          9          9          9          9          9          9          9          9          9          9          9          9          9          9          9          9          9          9          9          9          9          9          9          9          9          9          9          9          9          9          9          9          9          9          9          9          9          9          9          9          9          9          9          9          9          9          9          9          9          9          9          9          9          9          9          9          9          9          9          9          9          9          9          9          9          9          9          9          9          9          9          9          9          9          9          9          9          9          9          9          9          9          9          9          9          9          9          9          9          9          9          9          9          9          9          9          9          9          9          9          9          9          9          9          9          9          9          9          9          9          9          9          9          9          9          9          9          9          9          9          9          9          9          9          9          9          9          9          9          9          9          9          9          9          9          9          9          9          9          9          9          9          9          9          9          9          9          9          9          9          9          9          9          9          9          9          9          9          9          9          9          9          9          9          9          9          9          9          9          9          9          9          9          9          9          9          9          9          9          9          9          9          9          9          9          9          9          9          9          9          9          9          9          9          9          9          9          9          9          9          9          9          9          9          9          9          9          9          9          9          9          9          9          9          9          9          9          9          9          9          9          9          9          9          9          9          9          9          9          9          9          9          9          9          9          9          9          9          9          9          9          9          9          9          9          9          9          9          9          9          9          9          9          9          9          9          9          9          9          9          9          9          9          9          9          9          9          9          9          9          9          9          9          9          9          9          9          9          9          9          9          9          9          9          9          9          9          9          9          9          9          9          9          9          9          9          9          9          9          9          9          9          9          9          9          9          9          9          9          9          9          9          9          9          9          9          9          9          9          9          9          9          9          9          9          9          9          9          9          9          9          9          9          9          9          9          9          9          9          9          9          9          9          9          9          9          9          9          9          9          9          9          9          9          9          9          9          9          9          9          9          9          9          9          9          9          9          9          9          9          9          9          9          9          9          9          9          9          9          9          9          9          9          9          9          9          9          9          9          9          9          9          9          9          9          9          9          9          9          9          9          9          9          9          9          9          9          9          9          9          9          9          9          9          9          9          9          9          9          9          9          9          9          9          9          9          9          9          9          9          9          9          9          9          9          9          9          9          9          9          9          9          9          9          9          9          9          9          9          9          9          9          9          9          9          9          9          9          9          9          9          9          9          9          9          9          9          9          9          9          9          9          9          9          9          9          9          9          9          9          9          9          9          9          9          9          9          9          9          9          9          9          9          9          9          9          9          9          9          9          9          9          9          9          9          9          9          9          9          9          9          9          9          9          9          9          9          9          9          9          9          9          9          9          9          9          9          9          9          9          9          9          9          9          9          9          9          9          9          9          9          9          9          9          9          9          9          9          9          9          9          9          9 </DataArray>
</Cells>
<CellData>
<DataArray type="Int32"                                    Name="material"                                                      NumberOfComponents=" 1" format="ascii">
         1          1          1          1          1          1          1          1          1          1          1          1          1          1          1          1          1          1          1          1          1          1          1          1          1          1          1          1          1          1          1          1          1          1          1          1          1          1          1          1          1          1          1          1          1          1          1          1          1          1          1          1          1          1          1          1          1          1          1          1          1          1          1          1          1          1          1          1          1          1          1          1          1          1          1          1          1          1          1          1          1          1          1          1          1          1          1          1          1          1          1          1          1          1          1          1          1          1          1          1          1          1          1          1          1          1          1          1          1          1          1          1          1          1          1          1          1          1          1          1          1          1          1          1          1          1          1          1          1          1          1          1          1          1          1          1          1          1          1          1          1          1          1          1          1          1          1          1          1          1          1          1          1          1          1          1          1          1          1          1          1          1          1          1          1          1          1          1          1          1          1          1          1          1          1          1          1          1          1          1          1          1          1          1          1          1          1          1          1          1          1          1          1          1          1          1          1          1          1          1          1          1          1          1          1          1          1          1          1          1          1          1          1          1          1          1          1          1          1          1          1          1          1          1          1          1          1          1          1          1          1          1          1          1          1          1          1          1          1          1          1          1          1          1          1          1          1          1          1          1          1          1          1          1          1          1          1          1          1          1          1          1          1          1          1          1          1          1          1          1          1          1          1          1          1          1          1          1          1          1          1          1          1          1          1          1          1          1          1          1          1          1          1          1          1          1          1          1          1          1          1          1          1          1          1          1          1          1          1          1          1          1          1          1          1          1          1          1          1          1          1          1          1          1          1          1          1          1          1          1          1          1          1          1          1          1          1          1          1          1          1          1          1          1          1          1          1          1          1          1          1          1          1          1          1          1          1          1          1          1          1          1          1          1          1          1          1          1          1          1          1          1          1          1          1          1          1          1          1          1          1          1          1          1          1          1          1          1          1          1          1          1          1          1          1          1          1          1          1          1          1          1          1          1          1          1          1          1          1          1          1          1          1          1          1          1          1          1          1          1          1          1          1          1          1          1          1          1          1          1          1          1          1          1          1          1          1          1          1          1          1          1          1          1          1          1          1          1          1          1          1          1          1          1          1          1          1          1          1          1          1          1          1          1          1          1          1          1          1          1          1          1          1          1          1          1          1          1          1          1          1          1          1          1          1          1          1          1          1          1          1          1          1          1          1          1          1          1          1          1          1          1          1          1          1          1          1          1          1          1          1          1          1          1          1          1          1          1          1          1          1          1          1          1          1          1          1          1          1          1          1          1          1          1          1          1          1          1          1          1          1          1          1          1          1          1          1          1          1          1          1          1          1          1          1          1          1          1          1          1          1          1          1          1          1          1          1          1          1          1          1          1          1          1          1          1          1          1          1          1          1          1          1          1          1          1          1          1          1          1          1          1          1          1          1          1          1          1          1          1          1          1          1          1          1          1          1          1          1          1          1          1          1          1          1          1          1          1          1          1          1          1          1          1          1          1          1          1          1          1          1          1          1          1          1          1          1          1          1          1          1          1          1          1          1          1          1          1          1          1          1          1          1          1          1          1          1          1          1          1          1          1          1          1          1          1          1          1          1          1          1          1          1          1          1          1          1          1          1          1          1          1          1          1          1          1          1          1          1          1          1          1          1          1          1          1          1          1          1          1          1          1          1          1          1          1          1          1          1          1          1          1          1          1          1          1          1          1          1          1          1          1          1          1          1          1          1          1          1          1          1          1          1          1          1          1          1          1          1          1          1          1          1          1          1          1          1          1          1          1          1          1          1          1          1          1          1          1          1          1          1          1          1          1          1          1          1          1          1          1          1          1          1          1          1          1          1          1          1          1          1          1          1          1          1          1          1          1          1          1          1          1          1          1          1          1          1          1          1          1          1          1          1          1          1          1          1          1          1          1          1          1          1          1          1          1          1          1          1          1          1          1          1          1          1          1          1          1          1          1          1          1          1          1          1          1          1          1          1          1          1          1          1          1          1          1          1          1          1          1          1          1          1          1          1          1          1          1          1          1          1          1          1          1          1          1          1          1          1          1          1          1          1          1          1          1          1          1          1          1          1          1          1          1          1          1          1          1          1          1          1          1          1          1          1          1          1          1          1          1          1          1          1          1          1          1          1          1          1          1          1          1          1          1          1          1          1          1          1          1          1          1          1          1          1          1          1          1          1          1          1          1          1          1          1          1          1          1          1          1          1          1          1          1          1          1          1          1          1          1          1          1          1          1          1          1          1          1          1          1          1          1          1          1          1          1          1          1          1          1          1          1          1          1          1          1          1          1          1          1          1          1          1          1          1          1          1          1          1          1          1          1          1          1          1          1          1          1          1          1          1          1          1          1          1          1          1          1          1          1          1          1          1          1          1          1          1          1          1          1          1          1          1          1 </DataArray>
</CellData>
<PointData>
<DataArray type="Float64"                                    Name="u"                                                      NumberOfComponents=" 3" format="ascii">
             -0.000196405              -0.000000000               0.999999990              -0.000227687               0.000000000               0.999999990              -0.000242384               0.000000000               0.999999990              -0.000250839               0.000000000               0.999999990              -0.000257224              -0.000000000               0.999999990              -0.000263228               0.000000000               0.999999990              -0.000269693               0.000000000               0.999999990              -0.000277140               0.000000000               0.999999990              -0.000285747               0.000000000               0.999999990              -0.000295561               0.000000000               0.999999990              -0.000306524               0.000000000               0.999999990              -0.000318626               0.000000000               0.999999990              -0.000331794               0.000000000               0.999999990              -0.000345914               0.000000000               0.999999990              -0.000360798               0.000000000               0.999999990              -0.000376148              -0.000000000               0.999999990              -0.000391668               0.000000000               0.999999990              -0.000195333               0.000078540               0.999999990              -0.000224921               0.000067614               0.999999990              -0.000238544               0.000063869               0.999999990              -0.000246358               0.000063876               0.999999990              -0.000252446               0.000065947               0.999999990              -0.000258468               0.000069396               0.999999990              -0.000265105               0.000073767               0.999999990              -0.000272719               0.000078774               0.999999990              -0.000281466               0.000084327               0.999999990              -0.000291391               0.000090158               0.999999990              -0.000302457               0.000096200               0.999999990              -0.000314607               0.000102402               0.999999990              -0.000327762               0.000108499               0.999999990              -0.000341763               0.000114150               0.999999990              -0.000356397               0.000119080               0.999999990              -0.000371394               0.000123119               0.999999990              -0.000386417               0.000125863               0.999999990              -0.000192192               0.000156178               0.999999990              -0.000216897               0.000134567               0.999999990              -0.000227689               0.000127485               0.999999990              -0.000233994               0.000127870               0.999999990              -0.000239391               0.000132442               0.999999990              -0.000245216               0.000139588               0.999999990              -0.000252016               0.000148435               0.999999990              -0.000259995               0.000158595               0.999999990              -0.000269130               0.000169642               0.999999990              -0.000279377               0.000181248               0.999999990              -0.000290579               0.000193263               0.999999990              -0.000302599               0.000205543               0.999999990              -0.000315296               0.000217441               0.999999990              -0.000328466               0.000228506               0.999999990              -0.000341927               0.000238330               0.999999990              -0.000355509               0.000246468               0.999999990              -0.000369099               0.000252357               0.999999990              -0.000187210               0.000232080               0.999999990              -0.000204200               0.000200188               0.999999990              -0.000210907               0.000190634               0.999999990              -0.000215257               0.000192112               0.999999990              -0.000219866               0.000199596               0.999999990              -0.000225563               0.000210828               0.999999990              -0.000232699               0.000224491               0.999999990              -0.000241151               0.000239829               0.999999990              -0.000250753               0.000256342               0.999999990              -0.000261280               0.000273616               0.999999990              -0.000272487               0.000291334               0.999999990              -0.000284271               0.000309043               0.999999990              -0.000296293               0.000326179               0.999999990              -0.000308387               0.000342220               0.999999990              -0.000320516               0.000356773               0.999999990              -0.000332598               0.000369581               0.999999990              -0.000344659               0.000380316               0.999999990              -0.000180312               0.000305563               0.999999990              -0.000187254               0.000264060               0.999999990              -0.000189341               0.000253154               0.999999990              -0.000191864               0.000256501               0.999999990              -0.000196081               0.000267407               0.999999990              -0.000202172               0.000283020               0.999999990              -0.000209949               0.000301587               0.999999990              -0.000219125               0.000322058               0.999999990              -0.000229334               0.000343803               0.999999990              -0.000240283               0.000366354               0.999999990              -0.000251773               0.000389158               0.999999990              -0.000263422               0.000411730               0.999999990              -0.000274954               0.000433469               0.999999990              -0.000286263               0.000454005               0.999999990              -0.000297389               0.000473123               0.999999990              -0.000308364               0.000490850               0.999999990              -0.000319137               0.000507064               0.999999990              -0.000171426               0.000375935               0.999999990              -0.000166828               0.000326063               0.999999990              -0.000164736               0.000314826               0.999999990              -0.000166313               0.000320654               0.999999990              -0.000170978               0.000335255               0.999999990              -0.000178062               0.000355167               0.999999990              -0.000186920               0.000378480               0.999999990              -0.000197115               0.000403854               0.999999990              -0.000208207               0.000430460               0.999999990              -0.000219777               0.000457854               0.999999990              -0.000231437               0.000485308               0.999999990              -0.000242850               0.000512261               0.999999990              -0.000253875               0.000538243               0.999999990              -0.000264487               0.000563059               0.999999990              -0.000274730               0.000586707               0.999999990              -0.000284594               0.000609239               0.999999990              -0.000294077               0.000630644               0.999999990              -0.000160704               0.000442423               0.999999990              -0.000144133               0.000386108               0.999999990              -0.000139066               0.000375313               0.999999990              -0.000140802               0.000383904               0.999999990              -0.000146681               0.000402163               0.999999990              -0.000155238               0.000426268               0.999999990              -0.000165610               0.000453991               0.999999990              -0.000177058               0.000483783               0.999999990              -0.000189010               0.000514902               0.999999990              -0.000200986               0.000546817               0.999999990              -0.000212583               0.000578580               0.999999990              -0.000223605               0.000609506               0.999999990              -0.000233925               0.000639504               0.999999990              -0.000243560               0.000668626               0.999999990              -0.000252614               0.000696821               0.999999990              -0.000261173               0.000724115               0.999999990              -0.000269290               0.000750539               0.999999990              -0.000148412               0.000504280               0.999999990              -0.000120537               0.000443969               0.999999990              -0.000113922               0.000434224               0.999999990              -0.000116936               0.000445462               0.999999990              -0.000124655               0.000467182               0.999999990              -0.000135046               0.000495084               0.999999990              -0.000146917               0.000526885               0.999999990              -0.000159456               0.000560985               0.999999990              -0.000172083               0.000596455               0.999999990              -0.000184279               0.000632513               0.999999990              -0.000195659               0.000668023               0.999999990              -0.000205956               0.000702748               0.999999990              -0.000215185               0.000736748               0.999999990              -0.000223635               0.000770046               0.999999990              -0.000231424               0.000802608               0.999999990              -0.000238719               0.000834385               0.999999990              -0.000245583               0.000865390               0.999999990              -0.000135245               0.000560428               0.999999990              -0.000097001               0.000499548               0.999999990              -0.000090845               0.000490892               0.999999990              -0.000095862               0.000504439               0.999999990              -0.000105611               0.000529344               0.999999990              -0.000117708               0.000560951               0.999999990              -0.000130957               0.000596712               0.999999990              -0.000144477               0.000634978               0.999999990              -0.000157695               0.000674461               0.999999990              -0.000169859               0.000714099               0.999999990              -0.000180447               0.000753214               0.999999990              -0.000189533               0.000791599               0.999999990              -0.000197517               0.000829363               0.999999990              -0.000204720               0.000866629               0.999999990              -0.000211453               0.000903200               0.999999990              -0.000217915               0.000938989               0.999999990              -0.000224231               0.000973998               0.999999990              -0.000122217               0.000612835               0.999999990              -0.000078485               0.000558860               0.999999990              -0.000069727               0.000545894               0.999999990              -0.000073177               0.000554134               0.999999990              -0.000081469               0.000573944               0.999999990              -0.000092106               0.000600830               0.999999990              -0.000104029               0.000632373               0.999999990              -0.000116515               0.000666901               0.999999990              -0.000128892               0.000703285               0.999999990              -0.000140447               0.000740527               0.999999990              -0.000150650               0.000777860               0.999999990              -0.000159018               0.000814874               0.999999990              -0.000166045               0.000851448               0.999999990              -0.000172029               0.000887679               0.999999990              -0.000177311               0.000923661               0.999999990              -0.000182449               0.000959154               0.999999990              -0.000187662               0.000993975               0.999999990              -0.000107676               0.000660099               0.999999990              -0.000062240               0.000615524               0.999999990              -0.000050828               0.000601668               0.999999990              -0.000052193               0.000605971               0.999999990              -0.000058638               0.000621503               0.999999990              -0.000067634               0.000644151               0.999999990              -0.000078082               0.000671721               0.999999990              -0.000089210               0.000702704               0.999999990              -0.000100500               0.000735949               0.999999990              -0.000111221               0.000770527               0.999999990              -0.000120818               0.000805816               0.999999990              -0.000128622               0.000841174               0.999999990              -0.000134659               0.000876230               0.999999990              -0.000139333               0.000911124               0.999999990              -0.000142942               0.000945866               0.999999990              -0.000146094               0.000980593               0.999999990              -0.000149146               0.001015131               0.999999990              -0.000091969               0.000701316               0.999999990              -0.000048072               0.000668125               0.999999990              -0.000034900               0.000655876               0.999999990              -0.000034082               0.000658211               0.999999990              -0.000038505               0.000670504               0.999999990              -0.000045586               0.000689714               0.999999990              -0.000054259               0.000713919               0.999999990              -0.000063815               0.000741787               0.999999990              -0.000073587               0.000772211               0.999999990              -0.000083076               0.000804360               0.999999990              -0.000091787               0.000837586               0.999999990              -0.000099005               0.000871327               0.999999990              -0.000104295               0.000905013               0.999999990              -0.000107649               0.000938515               0.999999990              -0.000109429               0.000971861               0.999999990              -0.000110038               0.001005285               0.999999990              -0.000109946               0.001038964               0.999999990              -0.000075131               0.000735860               0.999999990              -0.000035901               0.000714730               0.999999990              -0.000022338               0.000705993               0.999999990              -0.000019776               0.000708155               0.999999990              -0.000022230               0.000718687               0.999999990              -0.000027312               0.000735469               0.999999990              -0.000034022               0.000757044               0.999999990              -0.000041676               0.000782350               0.999999990              -0.000049678               0.000810400               0.999999990              -0.000057628               0.000840502               0.999999990              -0.000065063               0.000872078               0.999999990              -0.000071388               0.000904601               0.999999990              -0.000075822               0.000937485               0.999999990              -0.000078232               0.000970232               0.999999990              -0.000078419               0.001002767               0.999999990              -0.000076372               0.001035209               0.999999990              -0.000072299               0.001067884               0.999999990              -0.000057231               0.000763234               0.999999990              -0.000025459               0.000753355               0.999999990              -0.000013164               0.000749174               0.999999990              -0.000009729               0.000752513               0.999999990              -0.000010608               0.000762615               0.999999990              -0.000013830               0.000778133               0.999999990              -0.000018547               0.000797974               0.999999990              -0.000024141               0.000821446               0.999999990              -0.000030203               0.000847701               0.999999990              -0.000036231               0.000876244               0.999999990              -0.000041932               0.000906656               0.999999990              -0.000046932               0.000938435               0.999999990              -0.000050447               0.000971076               0.999999990              -0.000052044               0.001003974               0.999999990              -0.000051278               0.001036802               0.999999990              -0.000047578               0.001069508               0.999999990              -0.000040378               0.001102127               0.999999990              -0.000038540               0.000782956               0.999999990              -0.000016316               0.000782162               0.999999990              -0.000006992               0.000782441               0.999999990              -0.000003749               0.000787704               0.999999990              -0.000003686               0.000798309               0.999999990              -0.000005457               0.000813537               0.999999990              -0.000008297               0.000832631               0.999999990              -0.000011936               0.000854993               0.999999990              -0.000015862               0.000880190               0.999999990              -0.000019803               0.000907760               0.999999990              -0.000023493               0.000937394               0.999999990              -0.000026824               0.000968694               0.999999990              -0.000029287               0.001001209               0.999999990              -0.000030251               0.001034548               0.999999990              -0.000029313               0.001068284               0.999999990              -0.000025653               0.001102021               0.999999990              -0.000018397               0.001135514               0.999999990              -0.000019373               0.000794827               0.999999990              -0.000007973               0.000799867               0.999999990              -0.000002962               0.000803405               0.999999990              -0.000000965               0.000810368               0.999999990              -0.000000744               0.000821667               0.999999990              -0.000001444               0.000837015               0.999999990              -0.000002795               0.000855984               0.999999990              -0.000004519               0.000878069               0.999999990              -0.000006390               0.000902821               0.999999990              -0.000008240               0.000929948               0.999999990              -0.000010046               0.000959093               0.999999990              -0.000011645               0.000989966               0.999999990              -0.000012905               0.001022342               0.999999990              -0.000013407               0.001055848               0.999999990              -0.000012855               0.001090133               0.999999990              -0.000010722               0.001124786               0.999999990              -0.000006247               0.001159304               0.999999990               0.000000000               0.000798806               0.999999990               0.000000000               0.000805841               0.999999990               0.000000000               0.000810583               0.999999990              -0.000000000               0.000818184               0.999999990              -0.000000000               0.000829759               0.999999990               0.000000000               0.000845241               0.999999990              -0.000000000               0.000864248               0.999999990              -0.000000000               0.000886315               0.999999990              -0.000000000               0.000910991               0.999999990              -0.000000000               0.000937947               0.999999990               0.000000000               0.000966915               0.999999990               0.000000000               0.000997659               0.999999990               0.000000000               0.001029910               0.999999990              -0.000000000               0.001063463               0.999999990              -0.000000000               0.001098024               0.999999990               0.000000000               0.001133057               0.999999990              -0.000000000               0.001167971               0.999999990              -0.000196405              -0.000000000               0.999999990              -0.000227687               0.000000000               0.999999990              -0.000242384               0.000000000               0.999999990              -0.000250839               0.000000000               0.999999990              -0.000257224              -0.000000000               0.999999990              -0.000263228               0.000000000               0.999999990              -0.000269693               0.000000000               0.999999990              -0.000277140               0.000000000               0.999999990              -0.000285747               0.000000000               0.999999990              -0.000295561               0.000000000               0.999999990              -0.000306524               0.000000000               0.999999990              -0.000318626               0.000000000               0.999999990              -0.000331794               0.000000000               0.999999990              -0.000345914               0.000000000               0.999999990              -0.000360798               0.000000000               0.999999990              -0.000376148              -0.000000000               0.999999990              -0.000391668               0.000000000               0.999999990              -0.000195333              -0.000078540               0.999999990              -0.000224921              -0.000067614               0.999999990              -0.000238544              -0.000063869               0.999999990              -0.000246358              -0.000063876               0.999999990              -0.000252446              -0.000065947               0.999999990              -0.000258468              -0.000069396               0.999999990              -0.000265105              -0.000073767               0.999999990              -0.000272719              -0.000078774               0.999999990              -0.000281466              -0.000084327               0.999999990              -0.000291391              -0.000090158               0.999999990              -0.000302457              -0.000096200               0.999999990              -0.000314607              -0.000102402               0.999999990              -0.000327762              -0.000108499               0.999999990              -0.000341763              -0.000114150               0.999999990              -0.000356397              -0.000119080               0.999999990              -0.000371394              -0.000123119               0.999999990              -0.000386417              -0.000125863               0.999999990              -0.000192192              -0.000156178               0.999999990              -0.000216897              -0.000134567               0.999999990              -0.000227689              -0.000127485               0.999999990              -0.000233994              -0.000127870               0.999999990              -0.000239391              -0.000132442               0.999999990              -0.000245216              -0.000139588               0.999999990              -0.000252016              -0.000148435               0.999999990              -0.000259995              -0.000158595               0.999999990              -0.000269130              -0.000169642               0.999999990              -0.000279377              -0.000181248               0.999999990              -0.000290579              -0.000193263               0.999999990              -0.000302599              -0.000205543               0.999999990              -0.000315296              -0.000217441               0.999999990              -0.000328466              -0.000228506               0.999999990              -0.000341927              -0.000238330               0.999999990              -0.000355509              -0.000246468               0.999999990              -0.000369099              -0.000252357               0.999999990              -0.000187210              -0.000232080               0.999999990              -0.000204200              -0.000200188               0.999999990              -0.000210907              -0.000190634               0.999999990              -0.000215257              -0.000192112               0.999999990              -0.000219866              -0.000199596               0.999999990              -0.000225563              -0.000210828               0.999999990              -0.000232699              -0.000224491               0.999999990              -0.000241151              -0.000239829               0.999999990              -0.000250753              -0.000256342               0.999999990              -0.000261280              -0.000273616               0.999999990              -0.000272487              -0.000291334               0.999999990              -0.000284271              -0.000309043               0.999999990              -0.000296293              -0.000326179               0.999999990              -0.000308387              -0.000342220               0.999999990              -0.000320516              -0.000356773               0.999999990              -0.000332598              -0.000369581               0.999999990              -0.000344659              -0.000380316               0.999999990              -0.000180312              -0.000305563               0.999999990              -0.000187254              -0.000264060               0.999999990              -0.000189341              -0.000253154               0.999999990              -0.000191864              -0.000256501               0.999999990              -0.000196081              -0.000267407               0.999999990              -0.000202172              -0.000283020               0.999999990              -0.000209949              -0.000301587               0.999999990              -0.000219125              -0.000322058               0.999999990              -0.000229334              -0.000343803               0.999999990              -0.000240283              -0.000366354               0.999999990              -0.000251773              -0.000389158               0.999999990              -0.000263422              -0.000411730               0.999999990              -0.000274954              -0.000433469               0.999999990              -0.000286263              -0.000454005               0.999999990              -0.000297389              -0.000473123               0.999999990              -0.000308364              -0.000490850               0.999999990              -0.000319137              -0.000507064               0.999999990              -0.000171426              -0.000375935               0.999999990              -0.000166828              -0.000326063               0.999999990              -0.000164736              -0.000314826               0.999999990              -0.000166313              -0.000320654               0.999999990              -0.000170978              -0.000335255               0.999999990              -0.000178062              -0.000355167               0.999999990              -0.000186920              -0.000378480               0.999999990              -0.000197115              -0.000403854               0.999999990              -0.000208207              -0.000430460               0.999999990              -0.000219777              -0.000457854               0.999999990              -0.000231437              -0.000485308               0.999999990              -0.000242850              -0.000512261               0.999999990              -0.000253875              -0.000538243               0.999999990              -0.000264487              -0.000563059               0.999999990              -0.000274730              -0.000586707               0.999999990              -0.000284594              -0.000609239               0.999999990              -0.000294077              -0.000630644               0.999999990              -0.000160704              -0.000442423               0.999999990              -0.000144133              -0.000386108               0.999999990              -0.000139066              -0.000375313               0.999999990              -0.000140802              -0.000383904               0.999999990              -0.000146681              -0.000402163               0.999999990              -0.000155238              -0.000426268               0.999999990              -0.000165610              -0.000453991               0.999999990              -0.000177058              -0.000483783               0.999999990              -0.000189010              -0.000514902               0.999999990              -0.000200986              -0.000546817               0.999999990              -0.000212583              -0.000578580               0.999999990              -0.000223605              -0.000609506               0.999999990              -0.000233925              -0.000639504               0.999999990              -0.000243560              -0.000668626               0.999999990              -0.000252614              -0.000696821               0.999999990              -0.000261173              -0.000724115               0.999999990              -0.000269290              -0.000750539               0.999999990              -0.000148412              -0.000504280               0.999999990              -0.000120537              -0.000443969               0.999999990              -0.000113922              -0.000434224               0.999999990              -0.000116936              -0.000445462               0.999999990              -0.000124655              -0.000467182               0.999999990              -0.000135046              -0.000495084               0.999999990              -0.000146917              -0.000526885               0.999999990              -0.000159456              -0.000560985               0.999999990              -0.000172083              -0.000596455               0.999999990              -0.000184279              -0.000632513               0.999999990              -0.000195659              -0.000668023               0.999999990              -0.000205956              -0.000702748               0.999999990              -0.000215185              -0.000736748               0.999999990              -0.000223635              -0.000770046               0.999999990              -0.000231424              -0.000802608               0.999999990              -0.000238719              -0.000834385               0.999999990              -0.000245583              -0.000865390               0.999999990              -0.000135245              -0.000560428               0.999999990              -0.000097001              -0.000499548               0.999999990              -0.000090845              -0.000490892               0.999999990              -0.000095862              -0.000504439               0.999999990              -0.000105611              -0.000529344               0.999999990              -0.000117708              -0.000560951               0.999999990              -0.000130957              -0.000596712               0.999999990              -0.000144477              -0.000634978               0.999999990              -0.000157695              -0.000674461               0.999999990              -0.000169859              -0.000714099               0.999999990              -0.000180447              -0.000753214               0.999999990              -0.000189533              -0.000791599               0.999999990              -0.000197517              -0.000829363               0.999999990              -0.000204720              -0.000866629               0.999999990              -0.000211453              -0.000903200               0.999999990              -0.000217915              -0.000938989               0.999999990              -0.000224231              -0.000973998               0.999999990              -0.000122217              -0.000612835               0.999999990              -0.000078485              -0.000558860               0.999999990              -0.000069727              -0.000545894               0.999999990              -0.000073177              -0.000554134               0.999999990              -0.000081469              -0.000573944               0.999999990              -0.000092106              -0.000600830               0.999999990              -0.000104029              -0.000632373               0.999999990              -0.000116515              -0.000666901               0.999999990              -0.000128892              -0.000703285               0.999999990              -0.000140447              -0.000740527               0.999999990              -0.000150650              -0.000777860               0.999999990              -0.000159018              -0.000814874               0.999999990              -0.000166045              -0.000851448               0.999999990              -0.000172029              -0.000887679               0.999999990              -0.000177311              -0.000923661               0.999999990              -0.000182449              -0.000959154               0.999999990              -0.000187662              -0.000993975               0.999999990              -0.000107676              -0.000660099               0.999999990              -0.000062240              -0.000615524               0.999999990              -0.000050828              -0.000601668               0.999999990              -0.000052193              -0.000605971               0.999999990              -0.000058638              -0.000621503               0.999999990              -0.000067634              -0.000644151               0.999999990              -0.000078082              -0.000671721               0.999999990              -0.000089210              -0.000702704               0.999999990              -0.000100500              -0.000735949               0.999999990              -0.000111221              -0.000770527               0.999999990              -0.000120818              -0.000805816               0.999999990              -0.000128622              -0.000841174               0.999999990              -0.000134659              -0.000876230               0.999999990              -0.000139333              -0.000911124               0.999999990              -0.000142942              -0.000945866               0.999999990              -0.000146094              -0.000980593               0.999999990              -0.000149146              -0.001015131               0.999999990              -0.000091969              -0.000701316               0.999999990              -0.000048072              -0.000668125               0.999999990              -0.000034900              -0.000655876               0.999999990              -0.000034082              -0.000658211               0.999999990              -0.000038505              -0.000670504               0.999999990              -0.000045586              -0.000689714               0.999999990              -0.000054259              -0.000713919               0.999999990              -0.000063815              -0.000741787               0.999999990              -0.000073587              -0.000772211               0.999999990              -0.000083076              -0.000804360               0.999999990              -0.000091787              -0.000837586               0.999999990              -0.000099005              -0.000871327               0.999999990              -0.000104295              -0.000905013               0.999999990              -0.000107649              -0.000938515               0.999999990              -0.000109429              -0.000971861               0.999999990              -0.000110038              -0.001005285               0.999999990              -0.000109946              -0.001038964               0.999999990              -0.000075131              -0.000735860               0.999999990              -0.000035901              -0.000714730               0.999999990              -0.000022338              -0.000705993               0.999999990              -0.000019776              -0.000708155               0.999999990              -0.000022230              -0.000718687               0.999999990              -0.000027312              -0.000735469               0.999999990              -0.000034022              -0.000757044               0.999999990              -0.000041676              -0.000782350               0.999999990              -0.000049678              -0.000810400               0.999999990              -0.000057628              -0.000840502               0.999999990              -0.000065063              -0.000872078               0.999999990              -0.000071388              -0.000904601               0.999999990              -0.000075822              -0.000937485               0.999999990              -0.000078232              -0.000970232               0.999999990              -0.000078419              -0.001002767               0.999999990              -0.000076372              -0.001035209               0.999999990              -0.000072299              -0.001067884               0.999999990              -0.000057231              -0.000763234               0.999999990              -0.000025459              -0.000753355               0.999999990              -0.000013164              -0.000749174               0.999999990              -0.000009729              -0.000752513               0.999999990              -0.000010608              -0.000762615               0.999999990              -0.000013830              -0.000778133               0.999999990              -0.000018547              -0.000797974               0.999999990              -0.000024141              -0.000821446               0.999999990              -0.000030203              -0.000847701               0.999999990              -0.000036231              -0.000876244               0.999999990              -0.000041932              -0.000906656               0.999999990              -0.000046932              -0.000938435               0.999999990              -0.000050447              -0.000971076               0.999999990              -0.000052044              -0.001003974               0.999999990              -0.000051278              -0.001036802               0.999999990              -0.000047578              -0.001069508               0.999999990              -0.000040378              -0.001102127               0.999999990              -0.000038540              -0.000782956               0.999999990              -0.000016316              -0.000782162               0.999999990              -0.000006992              -0.000782441               0.999999990              -0.000003749              -0.000787704               0.999999990              -0.000003686              -0.000798309               0.999999990              -0.000005457              -0.000813537               0.999999990              -0.000008297              -0.000832631               0.999999990              -0.000011936              -0.000854993               0.999999990              -0.000015862              -0.000880190               0.999999990              -0.000019803              -0.000907760               0.999999990              -0.000023493              -0.000937394               0.999999990              -0.000026824              -0.000968694               0.999999990              -0.000029287              -0.001001209               0.999999990              -0.000030251              -0.001034548               0.999999990              -0.000029313              -0.001068284               0.999999990              -0.000025653              -0.001102021               0.999999990              -0.000018397              -0.001135514               0.999999990              -0.000019373              -0.000794827               0.999999990              -0.000007973              -0.000799867               0.999999990              -0.000002962              -0.000803405               0.999999990              -0.000000965              -0.000810368               0.999999990              -0.000000744              -0.000821667               0.999999990              -0.000001444              -0.000837015               0.999999990              -0.000002795              -0.000855984               0.999999990              -0.000004519              -0.000878069               0.999999990              -0.000006390              -0.000902821               0.999999990              -0.000008240              -0.000929948               0.999999990              -0.000010046              -0.000959093               0.999999990              -0.000011645              -0.000989966               0.999999990              -0.000012905              -0.001022342               0.999999990              -0.000013407              -0.001055848               0.999999990              -0.000012855              -0.001090133               0.999999990              -0.000010722              -0.001124786               0.999999990              -0.000006247              -0.001159304               0.999999990               0.000000000              -0.000798806               0.999999990              -0.000000000              -0.000805841               0.999999990              -0.000000000              -0.000810583               0.999999990               0.000000000              -0.000818184               0.999999990              -0.000000000              -0.000829759               0.999999990              -0.000000000              -0.000845241               0.999999990               0.000000000              -0.000864248               0.999999990               0.000000000              -0.000886315               0.999999990              -0.000000000              -0.000910991               0.999999990               0.000000000              -0.000937947               0.999999990              -0.000000000              -0.000966915               0.999999990              -0.000000000              -0.000997659               0.999999990              -0.000000000              -0.001029910               0.999999990              -0.000000000              -0.001063463               0.999999990               0.000000000              -0.001098024               0.999999990               0.000000000              -0.001133057               0.999999990              -0.000000000              -0.001167971               0.999999990               0.000196405              -0.000000000               0.999999990               0.000227687               0.000000000               0.999999990               0.000242384              -0.000000000               0.999999990               0.000250839              -0.000000000               0.999999990               0.000257224              -0.000000000               0.999999990               0.000263228              -0.000000000               0.999999990               0.000269693              -0.000000000               0.999999990               0.000277140              -0.000000000               0.999999990               0.000285747              -0.000000000               0.999999990               0.000295561               0.000000000               0.999999990               0.000306524              -0.000000000               0.999999990               0.000318626               0.000000000               0.999999990               0.000331794               0.000000000               0.999999990               0.000345914               0.000000000               0.999999990               0.000360798              -0.000000000               0.999999990               0.000376148              -0.000000000               0.999999990               0.000391668              -0.000000000               0.999999990               0.000195333              -0.000078540               0.999999990               0.000224921              -0.000067614               0.999999990               0.000238544              -0.000063869               0.999999990               0.000246358              -0.000063876               0.999999990               0.000252446              -0.000065947               0.999999990               0.000258468              -0.000069396               0.999999990               0.000265105              -0.000073767               0.999999990               0.000272719              -0.000078774               0.999999990               0.000281466              -0.000084327               0.999999990               0.000291391              -0.000090158               0.999999990               0.000302457              -0.000096200               0.999999990               0.000314607              -0.000102402               0.999999990               0.000327762              -0.000108499               0.999999990               0.000341763              -0.000114150               0.999999990               0.000356397              -0.000119080               0.999999990               0.000371394              -0.000123119               0.999999990               0.000386417              -0.000125863               0.999999990               0.000192192              -0.000156178               0.999999990               0.000216897              -0.000134567               0.999999990               0.000227689              -0.000127485               0.999999990               0.000233994              -0.000127870               0.999999990               0.000239391              -0.000132442               0.999999990               0.000245216              -0.000139588               0.999999990               0.000252016              -0.000148435               0.999999990               0.000259995              -0.000158595               0.999999990               0.000269130              -0.000169642               0.999999990               0.000279377              -0.000181248               0.999999990               0.000290579              -0.000193263               0.999999990               0.000302599              -0.000205543               0.999999990               0.000315296              -0.000217441               0.999999990               0.000328466              -0.000228506               0.999999990               0.000341927              -0.000238330               0.999999990               0.000355509              -0.000246468               0.999999990               0.000369099              -0.000252357               0.999999990               0.000187210              -0.000232080               0.999999990               0.000204200              -0.000200188               0.999999990               0.000210907              -0.000190634               0.999999990               0.000215257              -0.000192112               0.999999990               0.000219866              -0.000199596               0.999999990               0.000225563              -0.000210828               0.999999990               0.000232699              -0.000224491               0.999999990               0.000241151              -0.000239829               0.999999990               0.000250753              -0.000256342               0.999999990               0.000261280              -0.000273616               0.999999990               0.000272487              -0.000291334               0.999999990               0.000284271              -0.000309043               0.999999990               0.000296293              -0.000326179               0.999999990               0.000308387              -0.000342220               0.999999990               0.000320516              -0.000356773               0.999999990               0.000332598              -0.000369581               0.999999990               0.000344659              -0.000380316               0.999999990               0.000180312              -0.000305563               0.999999990               0.000187254              -0.000264060               0.999999990               0.000189341              -0.000253154               0.999999990               0.000191864              -0.000256501               0.999999990               0.000196081              -0.000267407               0.999999990               0.000202172              -0.000283020               0.999999990               0.000209949              -0.000301587               0.999999990               0.000219125              -0.000322058               0.999999990               0.000229334              -0.000343803               0.999999990               0.000240283              -0.000366354               0.999999990               0.000251773              -0.000389158               0.999999990               0.000263422              -0.000411730               0.999999990               0.000274954              -0.000433469               0.999999990               0.000286263              -0.000454005               0.999999990               0.000297389              -0.000473123               0.999999990               0.000308364              -0.000490850               0.999999990               0.000319137              -0.000507064               0.999999990               0.000171426              -0.000375935               0.999999990               0.000166828              -0.000326063               0.999999990               0.000164736              -0.000314826               0.999999990               0.000166313              -0.000320654               0.999999990               0.000170978              -0.000335255               0.999999990               0.000178062              -0.000355167               0.999999990               0.000186920              -0.000378480               0.999999990               0.000197115              -0.000403854               0.999999990               0.000208207              -0.000430460               0.999999990               0.000219777              -0.000457854               0.999999990               0.000231437              -0.000485308               0.999999990               0.000242850              -0.000512261               0.999999990               0.000253875              -0.000538243               0.999999990               0.000264487              -0.000563059               0.999999990               0.000274730              -0.000586707               0.999999990               0.000284594              -0.000609239               0.999999990               0.000294077              -0.000630644               0.999999990               0.000160704              -0.000442423               0.999999990               0.000144133              -0.000386108               0.999999990               0.000139066              -0.000375313               0.999999990               0.000140802              -0.000383904               0.999999990               0.000146681              -0.000402163               0.999999990               0.000155238              -0.000426268               0.999999990               0.000165610              -0.000453991               0.999999990               0.000177058              -0.000483783               0.999999990               0.000189010              -0.000514902               0.999999990               0.000200986              -0.000546817               0.999999990               0.000212583              -0.000578580               0.999999990               0.000223605              -0.000609506               0.999999990               0.000233925              -0.000639504               0.999999990               0.000243560              -0.000668626               0.999999990               0.000252614              -0.000696821               0.999999990               0.000261173              -0.000724115               0.999999990               0.000269290              -0.000750539               0.999999990               0.000148412              -0.000504280               0.999999990               0.000120537              -0.000443969               0.999999990               0.000113922              -0.000434224               0.999999990               0.000116936              -0.000445462               0.999999990               0.000124655              -0.000467182               0.999999990               0.000135046              -0.000495084               0.999999990               0.000146917              -0.000526885               0.999999990               0.000159456              -0.000560985               0.999999990               0.000172083              -0.000596455               0.999999990               0.000184279              -0.000632513               0.999999990               0.000195659              -0.000668023               0.999999990               0.000205956              -0.000702748               0.999999990               0.000215185              -0.000736748               0.999999990               0.000223635              -0.000770046               0.999999990               0.000231424              -0.000802608               0.999999990               0.000238719              -0.000834385               0.999999990               0.000245583              -0.000865390               0.999999990               0.000135245              -0.000560428               0.999999990               0.000097001              -0.000499548               0.999999990               0.000090845              -0.000490892               0.999999990               0.000095862              -0.000504439               0.999999990               0.000105611              -0.000529344               0.999999990               0.000117708              -0.000560951               0.999999990               0.000130957              -0.000596712               0.999999990               0.000144477              -0.000634978               0.999999990               0.000157695              -0.000674461               0.999999990               0.000169859              -0.000714099               0.999999990               0.000180447              -0.000753214               0.999999990               0.000189533              -0.000791599               0.999999990               0.000197517              -0.000829363               0.999999990               0.000204720              -0.000866629               0.999999990               0.000211453              -0.000903200               0.999999990               0.000217915              -0.000938989               0.999999990               0.000224231              -0.000973998               0.999999990               0.000122217              -0.000612835               0.999999990               0.000078485              -0.000558860               0.999999990               0.000069727              -0.000545894               0.999999990               0.000073177              -0.000554134               0.999999990               0.000081469              -0.000573944               0.999999990               0.000092106              -0.000600830               0.999999990               0.000104029              -0.000632373               0.999999990               0.000116515              -0.000666901               0.999999990               0.000128892              -0.000703285               0.999999990               0.000140447              -0.000740527               0.999999990               0.000150650              -0.000777860               0.999999990               0.000159018              -0.000814874               0.999999990               0.000166045              -0.000851448               0.999999990               0.000172029              -0.000887679               0.999999990               0.000177311              -0.000923661               0.999999990               0.000182449              -0.000959154               0.999999990               0.000187662              -0.000993975               0.999999990               0.000107676              -0.000660099               0.999999990               0.000062240              -0.000615524               0.999999990               0.000050828              -0.000601668               0.999999990               0.000052193              -0.000605971               0.999999990               0.000058638              -0.000621503               0.999999990               0.000067634              -0.000644151               0.999999990               0.000078082              -0.000671721               0.999999990               0.000089210              -0.000702704               0.999999990               0.000100500              -0.000735949               0.999999990               0.000111221              -0.000770527               0.999999990               0.000120818              -0.000805816               0.999999990               0.000128622              -0.000841174               0.999999990               0.000134659              -0.000876230               0.999999990               0.000139333              -0.000911124               0.999999990               0.000142942              -0.000945866               0.999999990               0.000146094              -0.000980593               0.999999990               0.000149146              -0.001015131               0.999999990               0.000091969              -0.000701316               0.999999990               0.000048072              -0.000668125               0.999999990               0.000034900              -0.000655876               0.999999990               0.000034082              -0.000658211               0.999999990               0.000038505              -0.000670504               0.999999990               0.000045586              -0.000689714               0.999999990               0.000054259              -0.000713919               0.999999990               0.000063815              -0.000741787               0.999999990               0.000073587              -0.000772211               0.999999990               0.000083076              -0.000804360               0.999999990               0.000091787              -0.000837586               0.999999990               0.000099005              -0.000871327               0.999999990               0.000104295              -0.000905013               0.999999990               0.000107649              -0.000938515               0.999999990               0.000109429              -0.000971861               0.999999990               0.000110038              -0.001005285               0.999999990               0.000109946              -0.001038964               0.999999990               0.000075131              -0.000735860               0.999999990               0.000035901              -0.000714730               0.999999990               0.000022338              -0.000705993               0.999999990               0.000019776              -0.000708155               0.999999990               0.000022230              -0.000718687               0.999999990               0.000027312              -0.000735469               0.999999990               0.000034022              -0.000757044               0.999999990               0.000041676              -0.000782350               0.999999990               0.000049678              -0.000810400               0.999999990               0.000057628              -0.000840502               0.999999990               0.000065063              -0.000872078               0.999999990               0.000071388              -0.000904601               0.999999990               0.000075822              -0.000937485               0.999999990               0.000078232              -0.000970232               0.999999990               0.000078419              -0.001002767               0.999999990               0.000076372              -0.001035209               0.999999990               0.000072299              -0.001067884               0.999999990               0.000057231              -0.000763234               0.999999990               0.000025459              -0.000753355               0.999999990               0.000013164              -0.000749174               0.999999990               0.000009729              -0.000752513               0.999999990               0.000010608              -0.000762615               0.999999990               0.000013830              -0.000778133               0.999999990               0.000018547              -0.000797974               0.999999990               0.000024141              -0.000821446               0.999999990               0.000030203              -0.000847701               0.999999990               0.000036231              -0.000876244               0.999999990               0.000041932              -0.000906656               0.999999990               0.000046932              -0.000938435               0.999999990               0.000050447              -0.000971076               0.999999990               0.000052044              -0.001003974               0.999999990               0.000051278              -0.001036802               0.999999990               0.000047578              -0.001069508               0.999999990               0.000040378              -0.001102127               0.999999990               0.000038540              -0.000782956               0.999999990               0.000016316              -0.000782162               0.999999990               0.000006992              -0.000782441               0.999999990               0.000003749              -0.000787704               0.999999990               0.000003686              -0.000798309               0.999999990               0.000005457              -0.000813537               0.999999990               0.000008297              -0.000832631               0.999999990               0.000011936              -0.000854993               0.999999990               0.000015862              -0.000880190               0.999999990               0.000019803              -0.000907760               0.999999990               0.000023493              -0.000937394               0.999999990               0.000026824              -0.000968694               0.999999990               0.000029287              -0.001001209               0.999999990               0.000030251              -0.001034548               0.999999990               0.000029313              -0.001068284               0.999999990               0.000025653              -0.001102021               0.999999990               0.000018397              -0.001135514               0.999999990               0.000019373              -0.000794827               0.999999990               0.000007973              -0.000799867               0.999999990               0.000002962              -0.000803405               0.999999990               0.000000965              -0.000810368               0.999999990               0.000000744              -0.000821667               0.999999990               0.000001444              -0.000837015               0.999999990               0.000002795              -0.000855984               0.999999990               0.000004519              -0.000878069               0.999999990               0.000006390              -0.000902821               0.999999990               0.000008240              -0.000929948               0.999999990               0.000010046              -0.000959093               0.999999990               0.000011645              -0.000989966               0.999999990               0.000012905              -0.001022342               0.999999990               0.000013407              -0.001055848               0.999999990               0.000012855              -0.001090133               0.999999990               0.000010722              -0.001124786               0.999999990               0.000006247              -0.001159304               0.999999990               0.000000000              -0.000798806               0.999999990              -0.000000000              -0.000805841               0.999999990              -0.000000000              -0.000810583               0.999999990               0.000000000              -0.000818184               0.999999990              -0.000000000              -0.000829759               0.999999990              -0.000000000              -0.000845241               0.999999990               0.000000000              -0.000864248               0.999999990               0.000000000              -0.000886315               0.999999990              -0.000000000              -0.000910991               0.999999990               0.000000000              -0.000937947               0.999999990              -0.000000000              -0.000966915               0.999999990              -0.000000000              -0.000997659               0.999999990              -0.000000000              -0.001029910               0.999999990              -0.000000000              -0.001063463               0.999999990               0.000000000              -0.001098024               0.999999990               0.000000000              -0.001133057               0.999999990              -0.000000000              -0.001167971               0.999999990               0.000196405              -0.000000000               0.999999990               0.000227687               0.000000000               0.999999990               0.000242384              -0.000000000               0.999999990               0.000250839              -0.000000000               0.999999990               0.000257224              -0.000000000               0.999999990               0.000263228              -0.000000000               0.999999990               0.000269693              -0.000000000               0.999999990               0.000277140              -0.000000000               0.999999990               0.000285747              -0.000000000               0.999999990               0.000295561               0.000000000               0.999999990               0.000306524              -0.000000000               0.999999990               0.000318626               0.000000000               0.999999990               0.000331794               0.000000000               0.999999990               0.000345914               0.000000000               0.999999990               0.000360798              -0.000000000               0.999999990               0.000376148              -0.000000000               0.999999990               0.000391668              -0.000000000               0.999999990               0.000195333               0.000078540               0.999999990               0.000224921               0.000067614               0.999999990               0.000238544               0.000063869               0.999999990               0.000246358               0.000063876               0.999999990               0.000252446               0.000065947               0.999999990               0.000258468               0.000069396               0.999999990               0.000265105               0.000073767               0.999999990               0.000272719               0.000078774               0.999999990               0.000281466               0.000084327               0.999999990               0.000291391               0.000090158               0.999999990               0.000302457               0.000096200               0.999999990               0.000314607               0.000102402               0.999999990               0.000327762               0.000108499               0.999999990               0.000341763               0.000114150               0.999999990               0.000356397               0.000119080               0.999999990               0.000371394               0.000123119               0.999999990               0.000386417               0.000125863               0.999999990               0.000192192               0.000156178               0.999999990               0.000216897               0.000134567               0.999999990               0.000227689               0.000127485               0.999999990               0.000233994               0.000127870               0.999999990               0.000239391               0.000132442               0.999999990               0.000245216               0.000139588               0.999999990               0.000252016               0.000148435               0.999999990               0.000259995               0.000158595               0.999999990               0.000269130               0.000169642               0.999999990               0.000279377               0.000181248               0.999999990               0.000290579               0.000193263               0.999999990               0.000302599               0.000205543               0.999999990               0.000315296               0.000217441               0.999999990               0.000328466               0.000228506               0.999999990               0.000341927               0.000238330               0.999999990               0.000355509               0.000246468               0.999999990               0.000369099               0.000252357               0.999999990               0.000187210               0.000232080               0.999999990               0.000204200               0.000200188               0.999999990               0.000210907               0.000190634               0.999999990               0.000215257               0.000192112               0.999999990               0.000219866               0.000199596               0.999999990               0.000225563               0.000210828               0.999999990               0.000232699               0.000224491               0.999999990               0.000241151               0.000239829               0.999999990               0.000250753               0.000256342               0.999999990               0.000261280               0.000273616               0.999999990               0.000272487               0.000291334               0.999999990               0.000284271               0.000309043               0.999999990               0.000296293               0.000326179               0.999999990               0.000308387               0.000342220               0.999999990               0.000320516               0.000356773               0.999999990               0.000332598               0.000369581               0.999999990               0.000344659               0.000380316               0.999999990               0.000180312               0.000305563               0.999999990               0.000187254               0.000264060               0.999999990               0.000189341               0.000253154               0.999999990               0.000191864               0.000256501               0.999999990               0.000196081               0.000267407               0.999999990               0.000202172               0.000283020               0.999999990               0.000209949               0.000301587               0.999999990               0.000219125               0.000322058               0.999999990               0.000229334               0.000343803               0.999999990               0.000240283               0.000366354               0.999999990               0.000251773               0.000389158               0.999999990               0.000263422               0.000411730               0.999999990               0.000274954               0.000433469               0.999999990               0.000286263               0.000454005               0.999999990               0.000297389               0.000473123               0.999999990               0.000308364               0.000490850               0.999999990               0.000319137               0.000507064               0.999999990               0.000171426               0.000375935               0.999999990               0.000166828               0.000326063               0.999999990               0.000164736               0.000314826               0.999999990               0.000166313               0.000320654               0.999999990               0.000170978               0.000335255               0.999999990               0.000178062               0.000355167               0.999999990               0.000186920               0.000378480               0.999999990               0.000197115               0.000403854               0.999999990               0.000208207               0.000430460               0.999999990               0.000219777               0.000457854               0.999999990               0.000231437               0.000485308               0.999999990               0.000242850               0.000512261               0.999999990               0.000253875               0.000538243               0.999999990               0.000264487               0.000563059               0.999999990               0.000274730               0.000586707               0.999999990               0.000284594               0.000609239               0.999999990               0.000294077               0.000630644               0.999999990               0.000160704               0.000442423               0.999999990               0.000144133               0.000386108               0.999999990               0.000139066               0.000375313               0.999999990               0.000140802               0.000383904               0.999999990               0.000146681               0.000402163               0.999999990               0.000155238               0.000426268               0.999999990               0.000165610               0.000453991               0.999999990               0.000177058               0.000483783               0.999999990               0.000189010               0.000514902               0.999999990               0.000200986               0.000546817               0.999999990               0.000212583               0.000578580               0.999999990               0.000223605               0.000609506               0.999999990               0.000233925               0.000639504               0.999999990               0.000243560               0.000668626               0.999999990               0.000252614               0.000696821               0.999999990               0.000261173               0.000724115               0.999999990               0.000269290               0.000750539               0.999999990               0.000148412               0.000504280               0.999999990               0.000120537               0.000443969               0.999999990               0.000113922               0.000434224               0.999999990               0.000116936               0.000445462               0.999999990               0.000124655               0.000467182               0.999999990               0.000135046               0.000495084               0.999999990               0.000146917               0.000526885               0.999999990               0.000159456               0.000560985               0.999999990               0.000172083               0.000596455               0.999999990               0.000184279               0.000632513               0.999999990               0.000195659               0.000668023               0.999999990               0.000205956               0.000702748               0.999999990               0.000215185               0.000736748               0.999999990               0.000223635               0.000770046               0.999999990               0.000231424               0.000802608               0.999999990               0.000238719               0.000834385               0.999999990               0.000245583               0.000865390               0.999999990               0.000135245               0.000560428               0.999999990               0.000097001               0.000499548               0.999999990               0.000090845               0.000490892               0.999999990               0.000095862               0.000504439               0.999999990               0.000105611               0.000529344               0.999999990               0.000117708               0.000560951               0.999999990               0.000130957               0.000596712               0.999999990               0.000144477               0.000634978               0.999999990               0.000157695               0.000674461               0.999999990               0.000169859               0.000714099               0.999999990               0.000180447               0.000753214               0.999999990               0.000189533               0.000791599               0.999999990               0.000197517               0.000829363               0.999999990               0.000204720               0.000866629               0.999999990               0.000211453               0.000903200               0.999999990               0.000217915               0.000938989               0.999999990               0.000224231               0.000973998               0.999999990               0.000122217               0.000612835               0.999999990               0.000078485               0.000558860               0.999999990               0.000069727               0.000545894               0.999999990               0.000073177               0.000554134               0.999999990               0.000081469               0.000573944               0.999999990               0.000092106               0.000600830               0.999999990               0.000104029               0.000632373               0.999999990               0.000116515               0.000666901               0.999999990               0.000128892               0.000703285               0.999999990               0.000140447               0.000740527               0.999999990               0.000150650               0.000777860               0.999999990               0.000159018               0.000814874               0.999999990               0.000166045               0.000851448               0.999999990               0.000172029               0.000887679               0.999999990               0.000177311               0.000923661               0.999999990               0.000182449               0.000959154               0.999999990               0.000187662               0.000993975               0.999999990               0.000107676               0.000660099               0.999999990               0.000062240               0.000615524               0.999999990               0.000050828               0.000601668               0.999999990               0.000052193               0.000605971               0.999999990               0.000058638               0.000621503               0.999999990               0.000067634               0.000644151               0.999999990               0.000078082               0.000671721               0.999999990               0.000089210               0.000702704               0.999999990               0.000100500               0.000735949               0.999999990               0.000111221               0.000770527               0.999999990               0.000120818               0.000805816               0.999999990               0.000128622               0.000841174               0.999999990               0.000134659               0.000876230               0.999999990               0.000139333               0.000911124               0.999999990               0.000142942               0.000945866               0.999999990               0.000146094               0.000980593               0.999999990               0.000149146               0.001015131               0.999999990               0.000091969               0.000701316               0.999999990               0.000048072               0.000668125               0.999999990               0.000034900               0.000655876               0.999999990               0.000034082               0.000658211               0.999999990               0.000038505               0.000670504               0.999999990               0.000045586               0.000689714               0.999999990               0.000054259               0.000713919               0.999999990               0.000063815               0.000741787               0.999999990               0.000073587               0.000772211               0.999999990               0.000083076               0.000804360               0.999999990               0.000091787               0.000837586               0.999999990               0.000099005               0.000871327               0.999999990               0.000104295               0.000905013               0.999999990               0.000107649               0.000938515               0.999999990               0.000109429               0.000971861               0.999999990               0.000110038               0.001005285               0.999999990               0.000109946               0.001038964               0.999999990               0.000075131               0.000735860               0.999999990               0.000035901               0.000714730               0.999999990               0.000022338               0.000705993               0.999999990               0.000019776               0.000708155               0.999999990               0.000022230               0.000718687               0.999999990               0.000027312               0.000735469               0.999999990               0.000034022               0.000757044               0.999999990               0.000041676               0.000782350               0.999999990               0.000049678               0.000810400               0.999999990               0.000057628               0.000840502               0.999999990               0.000065063               0.000872078               0.999999990               0.000071388               0.000904601               0.999999990               0.000075822               0.000937485               0.999999990               0.000078232               0.000970232               0.999999990               0.000078419               0.001002767               0.999999990               0.000076372               0.001035209               0.999999990               0.000072299               0.001067884               0.999999990               0.000057231               0.000763234               0.999999990               0.000025459               0.000753355               0.999999990               0.000013164               0.000749174               0.999999990               0.000009729               0.000752513               0.999999990               0.000010608               0.000762615               0.999999990               0.000013830               0.000778133               0.999999990               0.000018547               0.000797974               0.999999990               0.000024141               0.000821446               0.999999990               0.000030203               0.000847701               0.999999990               0.000036231               0.000876244               0.999999990               0.000041932               0.000906656               0.999999990               0.000046932               0.000938435               0.999999990               0.000050447               0.000971076               0.999999990               0.000052044               0.001003974               0.999999990               0.000051278               0.001036802               0.999999990               0.000047578               0.001069508               0.999999990               0.000040378               0.001102127               0.999999990               0.000038540               0.000782956               0.999999990               0.000016316               0.000782162               0.999999990               0.000006992               0.000782441               0.999999990               0.000003749               0.000787704               0.999999990               0.000003686               0.000798309               0.999999990               0.000005457               0.000813537               0.999999990               0.000008297               0.000832631               0.999999990               0.000011936               0.000854993               0.999999990               0.000015862               0.000880190               0.999999990               0.000019803               0.000907760               0.999999990               0.000023493               0.000937394               0.999999990               0.000026824               0.000968694               0.999999990               0.000029287               0.001001209               0.999999990               0.000030251               0.001034548               0.999999990               0.000029313               0.001068284               0.999999990               0.000025653               0.001102021               0.999999990               0.000018397               0.001135514               0.999999990               0.000019373               0.000794827               0.999999990               0.000007973               0.000799867               0.999999990               0.000002962               0.000803405               0.999999990               0.000000965               0.000810368               0.999999990               0.000000744               0.000821667               0.999999990               0.000001444               0.000837015               0.999999990               0.000002795               0.000855984               0.999999990               0.000004519               0.000878069               0.999999990               0.000006390               0.000902821               0.999999990               0.000008240               0.000929948               0.999999990               0.000010046               0.000959093               0.999999990               0.000011645               0.000989966               0.999999990               0.000012905               0.001022342               0.999999990               0.000013407               0.001055848               0.999999990               0.000012855               0.001090133               0.999999990               0.000010722               0.001124786               0.999999990               0.000006247               0.001159304               0.999999990               0.000000000               0.000798806               0.999999990               0.000000000               0.000805841               0.999999990               0.000000000               0.000810583               0.999999990              -0.000000000               0.000818184               0.999999990              -0.000000000               0.000829759               0.999999990               0.000000000               0.000845241               0.999999990              -0.000000000               0.000864248               0.999999990              -0.000000000               0.000886315               0.999999990              -0.000000000               0.000910991               0.999999990              -0.000000000               0.000937947               0.999999990               0.000000000               0.000966915               0.999999990               0.000000000               0.000997659               0.999999990               0.000000000               0.001029910               0.999999990              -0.000000000               0.001063463               0.999999990              -0.000000000               0.001098024               0.999999990               0.000000000               0.001133057               0.999999990              -0.000000000               0.001167971               0.999999990 </DataArray>
<DataArray type="Float64"                                    Name="defo"                                                      NumberOfComponents=" 3" format="ascii">
             -0.000196405              -0.000000000               0.999999990              -0.000227687               0.000000000               0.999999990              -0.000242384               0.000000000               0.999999990              -0.000250839               0.000000000               0.999999990              -0.000257224              -0.000000000               0.999999990              -0.000263228               0.000000000               0.999999990              -0.000269693               0.000000000               0.999999990              -0.000277140               0.000000000               0.999999990              -0.000285747               0.000000000               0.999999990              -0.000295561               0.000000000               0.999999990              -0.000306524               0.000000000               0.999999990              -0.000318626               0.000000000               0.999999990              -0.000331794               0.000000000               0.999999990              -0.000345914               0.000000000               0.999999990              -0.000360798               0.000000000               0.999999990              -0.000376148              -0.000000000               0.999999990              -0.000391668               0.000000000               0.999999990              -0.000195333               0.000078540               0.999999990              -0.000224921               0.000067614               0.999999990              -0.000238544               0.000063869               0.999999990              -0.000246358               0.000063876               0.999999990              -0.000252446               0.000065947               0.999999990              -0.000258468               0.000069396               0.999999990              -0.000265105               0.000073767               0.999999990              -0.000272719               0.000078774               0.999999990              -0.000281466               0.000084327               0.999999990              -0.000291391               0.000090158               0.999999990              -0.000302457               0.000096200               0.999999990              -0.000314607               0.000102402               0.999999990              -0.000327762               0.000108499               0.999999990              -0.000341763               0.000114150               0.999999990              -0.000356397               0.000119080               0.999999990              -0.000371394               0.000123119               0.999999990              -0.000386417               0.000125863               0.999999990              -0.000192192               0.000156178               0.999999990              -0.000216897               0.000134567               0.999999990              -0.000227689               0.000127485               0.999999990              -0.000233994               0.000127870               0.999999990              -0.000239391               0.000132442               0.999999990              -0.000245216               0.000139588               0.999999990              -0.000252016               0.000148435               0.999999990              -0.000259995               0.000158595               0.999999990              -0.000269130               0.000169642               0.999999990              -0.000279377               0.000181248               0.999999990              -0.000290579               0.000193263               0.999999990              -0.000302599               0.000205543               0.999999990              -0.000315296               0.000217441               0.999999990              -0.000328466               0.000228506               0.999999990              -0.000341927               0.000238330               0.999999990              -0.000355509               0.000246468               0.999999990              -0.000369099               0.000252357               0.999999990              -0.000187210               0.000232080               0.999999990              -0.000204200               0.000200188               0.999999990              -0.000210907               0.000190634               0.999999990              -0.000215257               0.000192112               0.999999990              -0.000219866               0.000199596               0.999999990              -0.000225563               0.000210828               0.999999990              -0.000232699               0.000224491               0.999999990              -0.000241151               0.000239829               0.999999990              -0.000250753               0.000256342               0.999999990              -0.000261280               0.000273616               0.999999990              -0.000272487               0.000291334               0.999999990              -0.000284271               0.000309043               0.999999990              -0.000296293               0.000326179               0.999999990              -0.000308387               0.000342220               0.999999990              -0.000320516               0.000356773               0.999999990              -0.000332598               0.000369581               0.999999990              -0.000344659               0.000380316               0.999999990              -0.000180312               0.000305563               0.999999990              -0.000187254               0.000264060               0.999999990              -0.000189341               0.000253154               0.999999990              -0.000191864               0.000256501               0.999999990              -0.000196081               0.000267407               0.999999990              -0.000202172               0.000283020               0.999999990              -0.000209949               0.000301587               0.999999990              -0.000219125               0.000322058               0.999999990              -0.000229334               0.000343803               0.999999990              -0.000240283               0.000366354               0.999999990              -0.000251773               0.000389158               0.999999990              -0.000263422               0.000411730               0.999999990              -0.000274954               0.000433469               0.999999990              -0.000286263               0.000454005               0.999999990              -0.000297389               0.000473123               0.999999990              -0.000308364               0.000490850               0.999999990              -0.000319137               0.000507064               0.999999990              -0.000171426               0.000375935               0.999999990              -0.000166828               0.000326063               0.999999990              -0.000164736               0.000314826               0.999999990              -0.000166313               0.000320654               0.999999990              -0.000170978               0.000335255               0.999999990              -0.000178062               0.000355167               0.999999990              -0.000186920               0.000378480               0.999999990              -0.000197115               0.000403854               0.999999990              -0.000208207               0.000430460               0.999999990              -0.000219777               0.000457854               0.999999990              -0.000231437               0.000485308               0.999999990              -0.000242850               0.000512261               0.999999990              -0.000253875               0.000538243               0.999999990              -0.000264487               0.000563059               0.999999990              -0.000274730               0.000586707               0.999999990              -0.000284594               0.000609239               0.999999990              -0.000294077               0.000630644               0.999999990              -0.000160704               0.000442423               0.999999990              -0.000144133               0.000386108               0.999999990              -0.000139066               0.000375313               0.999999990              -0.000140802               0.000383904               0.999999990              -0.000146681               0.000402163               0.999999990              -0.000155238               0.000426268               0.999999990              -0.000165610               0.000453991               0.999999990              -0.000177058               0.000483783               0.999999990              -0.000189010               0.000514902               0.999999990              -0.000200986               0.000546817               0.999999990              -0.000212583               0.000578580               0.999999990              -0.000223605               0.000609506               0.999999990              -0.000233925               0.000639504               0.999999990              -0.000243560               0.000668626               0.999999990              -0.000252614               0.000696821               0.999999990              -0.000261173               0.000724115               0.999999990              -0.000269290               0.000750539               0.999999990              -0.000148412               0.000504280               0.999999990              -0.000120537               0.000443969               0.999999990              -0.000113922               0.000434224               0.999999990              -0.000116936               0.000445462               0.999999990              -0.000124655               0.000467182               0.999999990              -0.000135046               0.000495084               0.999999990              -0.000146917               0.000526885               0.999999990              -0.000159456               0.000560985               0.999999990              -0.000172083               0.000596455               0.999999990              -0.000184279               0.000632513               0.999999990              -0.000195659               0.000668023               0.999999990              -0.000205956               0.000702748               0.999999990              -0.000215185               0.000736748               0.999999990              -0.000223635               0.000770046               0.999999990              -0.000231424               0.000802608               0.999999990              -0.000238719               0.000834385               0.999999990              -0.000245583               0.000865390               0.999999990              -0.000135245               0.000560428               0.999999990              -0.000097001               0.000499548               0.999999990              -0.000090845               0.000490892               0.999999990              -0.000095862               0.000504439               0.999999990              -0.000105611               0.000529344               0.999999990              -0.000117708               0.000560951               0.999999990              -0.000130957               0.000596712               0.999999990              -0.000144477               0.000634978               0.999999990              -0.000157695               0.000674461               0.999999990              -0.000169859               0.000714099               0.999999990              -0.000180447               0.000753214               0.999999990              -0.000189533               0.000791599               0.999999990              -0.000197517               0.000829363               0.999999990              -0.000204720               0.000866629               0.999999990              -0.000211453               0.000903200               0.999999990              -0.000217915               0.000938989               0.999999990              -0.000224231               0.000973998               0.999999990              -0.000122217               0.000612835               0.999999990              -0.000078485               0.000558860               0.999999990              -0.000069727               0.000545894               0.999999990              -0.000073177               0.000554134               0.999999990              -0.000081469               0.000573944               0.999999990              -0.000092106               0.000600830               0.999999990              -0.000104029               0.000632373               0.999999990              -0.000116515               0.000666901               0.999999990              -0.000128892               0.000703285               0.999999990              -0.000140447               0.000740527               0.999999990              -0.000150650               0.000777860               0.999999990              -0.000159018               0.000814874               0.999999990              -0.000166045               0.000851448               0.999999990              -0.000172029               0.000887679               0.999999990              -0.000177311               0.000923661               0.999999990              -0.000182449               0.000959154               0.999999990              -0.000187662               0.000993975               0.999999990              -0.000107676               0.000660099               0.999999990              -0.000062240               0.000615524               0.999999990              -0.000050828               0.000601668               0.999999990              -0.000052193               0.000605971               0.999999990              -0.000058638               0.000621503               0.999999990              -0.000067634               0.000644151               0.999999990              -0.000078082               0.000671721               0.999999990              -0.000089210               0.000702704               0.999999990              -0.000100500               0.000735949               0.999999990              -0.000111221               0.000770527               0.999999990              -0.000120818               0.000805816               0.999999990              -0.000128622               0.000841174               0.999999990              -0.000134659               0.000876230               0.999999990              -0.000139333               0.000911124               0.999999990              -0.000142942               0.000945866               0.999999990              -0.000146094               0.000980593               0.999999990              -0.000149146               0.001015131               0.999999990              -0.000091969               0.000701316               0.999999990              -0.000048072               0.000668125               0.999999990              -0.000034900               0.000655876               0.999999990              -0.000034082               0.000658211               0.999999990              -0.000038505               0.000670504               0.999999990              -0.000045586               0.000689714               0.999999990              -0.000054259               0.000713919               0.999999990              -0.000063815               0.000741787               0.999999990              -0.000073587               0.000772211               0.999999990              -0.000083076               0.000804360               0.999999990              -0.000091787               0.000837586               0.999999990              -0.000099005               0.000871327               0.999999990              -0.000104295               0.000905013               0.999999990              -0.000107649               0.000938515               0.999999990              -0.000109429               0.000971861               0.999999990              -0.000110038               0.001005285               0.999999990              -0.000109946               0.001038964               0.999999990              -0.000075131               0.000735860               0.999999990              -0.000035901               0.000714730               0.999999990              -0.000022338               0.000705993               0.999999990              -0.000019776               0.000708155               0.999999990              -0.000022230               0.000718687               0.999999990              -0.000027312               0.000735469               0.999999990              -0.000034022               0.000757044               0.999999990              -0.000041676               0.000782350               0.999999990              -0.000049678               0.000810400               0.999999990              -0.000057628               0.000840502               0.999999990              -0.000065063               0.000872078               0.999999990              -0.000071388               0.000904601               0.999999990              -0.000075822               0.000937485               0.999999990              -0.000078232               0.000970232               0.999999990              -0.000078419               0.001002767               0.999999990              -0.000076372               0.001035209               0.999999990              -0.000072299               0.001067884               0.999999990              -0.000057231               0.000763234               0.999999990              -0.000025459               0.000753355               0.999999990              -0.000013164               0.000749174               0.999999990              -0.000009729               0.000752513               0.999999990              -0.000010608               0.000762615               0.999999990              -0.000013830               0.000778133               0.999999990              -0.000018547               0.000797974               0.999999990              -0.000024141               0.000821446               0.999999990              -0.000030203               0.000847701               0.999999990              -0.000036231               0.000876244               0.999999990              -0.000041932               0.000906656               0.999999990              -0.000046932               0.000938435               0.999999990              -0.000050447               0.000971076               0.999999990              -0.000052044               0.001003974               0.999999990              -0.000051278               0.001036802               0.999999990              -0.000047578               0.001069508               0.999999990              -0.000040378               0.001102127               0.999999990              -0.000038540               0.000782956               0.999999990              -0.000016316               0.000782162               0.999999990              -0.000006992               0.000782441               0.999999990              -0.000003749               0.000787704               0.999999990              -0.000003686               0.000798309               0.999999990              -0.000005457               0.000813537               0.999999990              -0.000008297               0.000832631               0.999999990              -0.000011936               0.000854993               0.999999990              -0.000015862               0.000880190               0.999999990              -0.000019803               0.000907760               0.999999990              -0.000023493               0.000937394               0.999999990              -0.000026824               0.000968694               0.999999990              -0.000029287               0.001001209               0.999999990              -0.000030251               0.001034548               0.999999990              -0.000029313               0.001068284               0.999999990              -0.000025653               0.001102021               0.999999990              -0.000018397               0.001135514               0.999999990              -0.000019373               0.000794827               0.999999990              -0.000007973               0.000799867               0.999999990              -0.000002962               0.000803405               0.999999990              -0.000000965               0.000810368               0.999999990              -0.000000744               0.000821667               0.999999990              -0.000001444               0.000837015               0.999999990              -0.000002795               0.000855984               0.999999990              -0.000004519               0.000878069               0.999999990              -0.000006390               0.000902821               0.999999990              -0.000008240               0.000929948               0.999999990              -0.000010046               0.000959093               0.999999990              -0.000011645               0.000989966               0.999999990              -0.000012905               0.001022342               0.999999990              -0.000013407               0.001055848               0.999999990              -0.000012855               0.001090133               0.999999990              -0.000010722               0.001124786               0.999999990              -0.000006247               0.001159304               0.999999990               0.000000000               0.000798806               0.999999990               0.000000000               0.000805841               0.999999990               0.000000000               0.000810583               0.999999990              -0.000000000               0.000818184               0.999999990              -0.000000000               0.000829759               0.999999990               0.000000000               0.000845241               0.999999990              -0.000000000               0.000864248               0.999999990              -0.000000000               0.000886315               0.999999990              -0.000000000               0.000910991               0.999999990              -0.000000000               0.000937947               0.999999990               0.000000000               0.000966915               0.999999990               0.000000000               0.000997659               0.999999990               0.000000000               0.001029910               0.999999990              -0.000000000               0.001063463               0.999999990              -0.000000000               0.001098024               0.999999990               0.000000000               0.001133057               0.999999990              -0.000000000               0.001167971               0.999999990              -0.000196405              -0.000000000               0.999999990              -0.000227687               0.000000000               0.999999990              -0.000242384               0.000000000               0.999999990              -0.000250839               0.000000000               0.999999990              -0.000257224              -0.000000000               0.999999990              -0.000263228               0.000000000               0.999999990              -0.000269693               0.000000000               0.999999990              -0.000277140               0.000000000               0.999999990              -0.000285747               0.000000000               0.999999990              -0.000295561               0.000000000               0.999999990              -0.000306524               0.000000000               0.999999990              -0.000318626               0.000000000               0.999999990              -0.000331794               0.000000000               0.999999990              -0.000345914               0.000000000               0.999999990              -0.000360798               0.000000000               0.999999990              -0.000376148              -0.000000000               0.999999990              -0.000391668               0.000000000               0.999999990              -0.000195333              -0.000078540               0.999999990              -0.000224921              -0.000067614               0.999999990              -0.000238544              -0.000063869               0.999999990              -0.000246358              -0.000063876               0.999999990              -0.000252446              -0.000065947               0.999999990              -0.000258468              -0.000069396               0.999999990              -0.000265105              -0.000073767               0.999999990              -0.000272719              -0.000078774               0.999999990              -0.000281466              -0.000084327               0.999999990              -0.000291391              -0.000090158               0.999999990              -0.000302457              -0.000096200               0.999999990              -0.000314607              -0.000102402               0.999999990              -0.000327762              -0.000108499               0.999999990              -0.000341763              -0.000114150               0.999999990              -0.000356397              -0.000119080               0.999999990              -0.000371394              -0.000123119               0.999999990              -0.000386417              -0.000125863               0.999999990              -0.000192192              -0.000156178               0.999999990              -0.000216897              -0.000134567               0.999999990              -0.000227689              -0.000127485               0.999999990              -0.000233994              -0.000127870               0.999999990              -0.000239391              -0.000132442               0.999999990              -0.000245216              -0.000139588               0.999999990              -0.000252016              -0.000148435               0.999999990              -0.000259995              -0.000158595               0.999999990              -0.000269130              -0.000169642               0.999999990              -0.000279377              -0.000181248               0.999999990              -0.000290579              -0.000193263               0.999999990              -0.000302599              -0.000205543               0.999999990              -0.000315296              -0.000217441               0.999999990              -0.000328466              -0.000228506               0.999999990              -0.000341927              -0.000238330               0.999999990              -0.000355509              -0.000246468               0.999999990              -0.000369099              -0.000252357               0.999999990              -0.000187210              -0.000232080               0.999999990              -0.000204200              -0.000200188               0.999999990              -0.000210907              -0.000190634               0.999999990              -0.000215257              -0.000192112               0.999999990              -0.000219866              -0.000199596               0.999999990              -0.000225563              -0.000210828               0.999999990              -0.000232699              -0.000224491               0.999999990              -0.000241151              -0.000239829               0.999999990              -0.000250753              -0.000256342               0.999999990              -0.000261280              -0.000273616               0.999999990              -0.000272487              -0.000291334               0.999999990              -0.000284271              -0.000309043               0.999999990              -0.000296293              -0.000326179               0.999999990              -0.000308387              -0.000342220               0.999999990              -0.000320516              -0.000356773               0.999999990              -0.000332598              -0.000369581               0.999999990              -0.000344659              -0.000380316               0.999999990              -0.000180312              -0.000305563               0.999999990              -0.000187254              -0.000264060               0.999999990              -0.000189341              -0.000253154               0.999999990              -0.000191864              -0.000256501               0.999999990              -0.000196081              -0.000267407               0.999999990              -0.000202172              -0.000283020               0.999999990              -0.000209949              -0.000301587               0.999999990              -0.000219125              -0.000322058               0.999999990              -0.000229334              -0.000343803               0.999999990              -0.000240283              -0.000366354               0.999999990              -0.000251773              -0.000389158               0.999999990              -0.000263422              -0.000411730               0.999999990              -0.000274954              -0.000433469               0.999999990              -0.000286263              -0.000454005               0.999999990              -0.000297389              -0.000473123               0.999999990              -0.000308364              -0.000490850               0.999999990              -0.000319137              -0.000507064               0.999999990              -0.000171426              -0.000375935               0.999999990              -0.000166828              -0.000326063               0.999999990              -0.000164736              -0.000314826               0.999999990              -0.000166313              -0.000320654               0.999999990              -0.000170978              -0.000335255               0.999999990              -0.000178062              -0.000355167               0.999999990              -0.000186920              -0.000378480               0.999999990              -0.000197115              -0.000403854               0.999999990              -0.000208207              -0.000430460               0.999999990              -0.000219777              -0.000457854               0.999999990              -0.000231437              -0.000485308               0.999999990              -0.000242850              -0.000512261               0.999999990              -0.000253875              -0.000538243               0.999999990              -0.000264487              -0.000563059               0.999999990              -0.000274730              -0.000586707               0.999999990              -0.000284594              -0.000609239               0.999999990              -0.000294077              -0.000630644               0.999999990              -0.000160704              -0.000442423               0.999999990              -0.000144133              -0.000386108               0.999999990              -0.000139066              -0.000375313               0.999999990              -0.000140802              -0.000383904               0.999999990              -0.000146681              -0.000402163               0.999999990              -0.000155238              -0.000426268               0.999999990              -0.000165610              -0.000453991               0.999999990              -0.000177058              -0.000483783               0.999999990              -0.000189010              -0.000514902               0.999999990              -0.000200986              -0.000546817               0.999999990              -0.000212583              -0.000578580               0.999999990              -0.000223605              -0.000609506               0.999999990              -0.000233925              -0.000639504               0.999999990              -0.000243560              -0.000668626               0.999999990              -0.000252614              -0.000696821               0.999999990              -0.000261173              -0.000724115               0.999999990              -0.000269290              -0.000750539               0.999999990              -0.000148412              -0.000504280               0.999999990              -0.000120537              -0.000443969               0.999999990              -0.000113922              -0.000434224               0.999999990              -0.000116936              -0.000445462               0.999999990              -0.000124655              -0.000467182               0.999999990              -0.000135046              -0.000495084               0.999999990              -0.000146917              -0.000526885               0.999999990              -0.000159456              -0.000560985               0.999999990              -0.000172083              -0.000596455               0.999999990              -0.000184279              -0.000632513               0.999999990              -0.000195659              -0.000668023               0.999999990              -0.000205956              -0.000702748               0.999999990              -0.000215185              -0.000736748               0.999999990              -0.000223635              -0.000770046               0.999999990              -0.000231424              -0.000802608               0.999999990              -0.000238719              -0.000834385               0.999999990              -0.000245583              -0.000865390               0.999999990              -0.000135245              -0.000560428               0.999999990              -0.000097001              -0.000499548               0.999999990              -0.000090845              -0.000490892               0.999999990              -0.000095862              -0.000504439               0.999999990              -0.000105611              -0.000529344               0.999999990              -0.000117708              -0.000560951               0.999999990              -0.000130957              -0.000596712               0.999999990              -0.000144477              -0.000634978               0.999999990              -0.000157695              -0.000674461               0.999999990              -0.000169859              -0.000714099               0.999999990              -0.000180447              -0.000753214               0.999999990              -0.000189533              -0.000791599               0.999999990              -0.000197517              -0.000829363               0.999999990              -0.000204720              -0.000866629               0.999999990              -0.000211453              -0.000903200               0.999999990              -0.000217915              -0.000938989               0.999999990              -0.000224231              -0.000973998               0.999999990              -0.000122217              -0.000612835               0.999999990              -0.000078485              -0.000558860               0.999999990              -0.000069727              -0.000545894               0.999999990              -0.000073177              -0.000554134               0.999999990              -0.000081469              -0.000573944               0.999999990              -0.000092106              -0.000600830               0.999999990              -0.000104029              -0.000632373               0.999999990              -0.000116515              -0.000666901               0.999999990              -0.000128892              -0.000703285               0.999999990              -0.000140447              -0.000740527               0.999999990              -0.000150650              -0.000777860               0.999999990              -0.000159018              -0.000814874               0.999999990              -0.000166045              -0.000851448               0.999999990              -0.000172029              -0.000887679               0.999999990              -0.000177311              -0.000923661               0.999999990              -0.000182449              -0.000959154               0.999999990              -0.000187662              -0.000993975               0.999999990              -0.000107676              -0.000660099               0.999999990              -0.000062240              -0.000615524               0.999999990              -0.000050828              -0.000601668               0.999999990              -0.000052193              -0.000605971               0.999999990              -0.000058638              -0.000621503               0.999999990              -0.000067634              -0.000644151               0.999999990              -0.000078082              -0.000671721               0.999999990              -0.000089210              -0.000702704               0.999999990              -0.000100500              -0.000735949               0.999999990              -0.000111221              -0.000770527               0.999999990              -0.000120818              -0.000805816               0.999999990              -0.000128622              -0.000841174               0.999999990              -0.000134659              -0.000876230               0.999999990              -0.000139333              -0.000911124               0.999999990              -0.000142942              -0.000945866               0.999999990              -0.000146094              -0.000980593               0.999999990              -0.000149146              -0.001015131               0.999999990              -0.000091969              -0.000701316               0.999999990              -0.000048072              -0.000668125               0.999999990              -0.000034900              -0.000655876               0.999999990              -0.000034082              -0.000658211               0.999999990              -0.000038505              -0.000670504               0.999999990              -0.000045586              -0.000689714               0.999999990              -0.000054259              -0.000713919               0.999999990              -0.000063815              -0.000741787               0.999999990              -0.000073587              -0.000772211               0.999999990              -0.000083076              -0.000804360               0.999999990              -0.000091787              -0.000837586               0.999999990              -0.000099005              -0.000871327               0.999999990              -0.000104295              -0.000905013               0.999999990              -0.000107649              -0.000938515               0.999999990              -0.000109429              -0.000971861               0.999999990              -0.000110038              -0.001005285               0.999999990              -0.000109946              -0.001038964               0.999999990              -0.000075131              -0.000735860               0.999999990              -0.000035901              -0.000714730               0.999999990              -0.000022338              -0.000705993               0.999999990              -0.000019776              -0.000708155               0.999999990              -0.000022230              -0.000718687               0.999999990              -0.000027312              -0.000735469               0.999999990              -0.000034022              -0.000757044               0.999999990              -0.000041676              -0.000782350               0.999999990              -0.000049678              -0.000810400               0.999999990              -0.000057628              -0.000840502               0.999999990              -0.000065063              -0.000872078               0.999999990              -0.000071388              -0.000904601               0.999999990              -0.000075822              -0.000937485               0.999999990              -0.000078232              -0.000970232               0.999999990              -0.000078419              -0.001002767               0.999999990              -0.000076372              -0.001035209               0.999999990              -0.000072299              -0.001067884               0.999999990              -0.000057231              -0.000763234               0.999999990              -0.000025459              -0.000753355               0.999999990              -0.000013164              -0.000749174               0.999999990              -0.000009729              -0.000752513               0.999999990              -0.000010608              -0.000762615               0.999999990              -0.000013830              -0.000778133               0.999999990              -0.000018547              -0.000797974               0.999999990              -0.000024141              -0.000821446               0.999999990              -0.000030203              -0.000847701               0.999999990              -0.000036231              -0.000876244               0.999999990              -0.000041932              -0.000906656               0.999999990              -0.000046932              -0.000938435               0.999999990              -0.000050447              -0.000971076               0.999999990              -0.000052044              -0.001003974               0.999999990              -0.000051278              -0.001036802               0.999999990              -0.000047578              -0.001069508               0.999999990              -0.000040378              -0.001102127               0.999999990              -0.000038540              -0.000782956               0.999999990              -0.000016316              -0.000782162               0.999999990              -0.000006992              -0.000782441               0.999999990              -0.000003749              -0.000787704               0.999999990              -0.000003686              -0.000798309               0.999999990              -0.000005457              -0.000813537               0.999999990              -0.000008297              -0.000832631               0.999999990              -0.000011936              -0.000854993               0.999999990              -0.000015862              -0.000880190               0.999999990              -0.000019803              -0.000907760               0.999999990              -0.000023493              -0.000937394               0.999999990              -0.000026824              -0.000968694               0.999999990              -0.000029287              -0.001001209               0.999999990              -0.000030251              -0.001034548               0.999999990              -0.000029313              -0.001068284               0.999999990              -0.000025653              -0.001102021               0.999999990              -0.000018397              -0.001135514               0.999999990              -0.000019373              -0.000794827               0.999999990              -0.000007973              -0.000799867               0.999999990              -0.000002962              -0.000803405               0.999999990              -0.000000965              -0.000810368               0.999999990              -0.000000744              -0.000821667               0.999999990              -0.000001444              -0.000837015               0.999999990              -0.000002795              -0.000855984               0.999999990              -0.000004519              -0.000878069               0.999999990              -0.000006390              -0.000902821               0.999999990              -0.000008240              -0.000929948               0.999999990              -0.000010046              -0.000959093               0.999999990              -0.000011645              -0.000989966               0.999999990              -0.000012905              -0.001022342               0.999999990              -0.000013407              -0.001055848               0.999999990              -0.000012855              -0.001090133               0.999999990              -0.000010722              -0.001124786               0.999999990              -0.000006247              -0.001159304               0.999999990               0.000000000              -0.000798806               0.999999990              -0.000000000              -0.000805841               0.999999990              -0.000000000              -0.000810583               0.999999990               0.000000000              -0.000818184               0.999999990              -0.000000000              -0.000829759               0.999999990              -0.000000000              -0.000845241               0.999999990               0.000000000              -0.000864248               0.999999990               0.000000000              -0.000886315               0.999999990              -0.000000000              -0.000910991               0.999999990               0.000000000              -0.000937947               0.999999990              -0.000000000              -0.000966915               0.999999990              -0.000000000              -0.000997659               0.999999990              -0.000000000              -0.001029910               0.999999990              -0.000000000              -0.001063463               0.999999990               0.000000000              -0.001098024               0.999999990               0.000000000              -0.001133057               0.999999990              -0.000000000              -0.001167971               0.999999990               0.000196405              -0.000000000               0.999999990               0.000227687               0.000000000               0.999999990               0.000242384              -0.000000000               0.999999990               0.000250839              -0.000000000               0.999999990               0.000257224              -0.000000000               0.999999990               0.000263228              -0.000000000               0.999999990               0.000269693              -0.000000000               0.999999990               0.000277140              -0.000000000               0.999999990               0.000285747              -0.000000000               0.999999990               0.000295561               0.000000000               0.999999990               0.000306524              -0.000000000               0.999999990               0.000318626               0.000000000               0.999999990               0.000331794               0.000000000               0.999999990               0.000345914               0.000000000               0.999999990               0.000360798              -0.000000000               0.999999990               0.000376148              -0.000000000               0.999999990               0.000391668              -0.000000000               0.999999990               0.000195333              -0.000078540               0.999999990               0.000224921              -0.000067614               0.999999990               0.000238544              -0.000063869               0.999999990               0.000246358              -0.000063876               0.999999990               0.000252446              -0.000065947               0.999999990               0.000258468              -0.000069396               0.999999990               0.000265105              -0.000073767               0.999999990               0.000272719              -0.000078774               0.999999990               0.000281466              -0.000084327               0.999999990               0.000291391              -0.000090158               0.999999990               0.000302457              -0.000096200               0.999999990               0.000314607              -0.000102402               0.999999990               0.000327762              -0.000108499               0.999999990               0.000341763              -0.000114150               0.999999990               0.000356397              -0.000119080               0.999999990               0.000371394              -0.000123119               0.999999990               0.000386417              -0.000125863               0.999999990               0.000192192              -0.000156178               0.999999990               0.000216897              -0.000134567               0.999999990               0.000227689              -0.000127485               0.999999990               0.000233994              -0.000127870               0.999999990               0.000239391              -0.000132442               0.999999990               0.000245216              -0.000139588               0.999999990               0.000252016              -0.000148435               0.999999990               0.000259995              -0.000158595               0.999999990               0.000269130              -0.000169642               0.999999990               0.000279377              -0.000181248               0.999999990               0.000290579              -0.000193263               0.999999990               0.000302599              -0.000205543               0.999999990               0.000315296              -0.000217441               0.999999990               0.000328466              -0.000228506               0.999999990               0.000341927              -0.000238330               0.999999990               0.000355509              -0.000246468               0.999999990               0.000369099              -0.000252357               0.999999990               0.000187210              -0.000232080               0.999999990               0.000204200              -0.000200188               0.999999990               0.000210907              -0.000190634               0.999999990               0.000215257              -0.000192112               0.999999990               0.000219866              -0.000199596               0.999999990               0.000225563              -0.000210828               0.999999990               0.000232699              -0.000224491               0.999999990               0.000241151              -0.000239829               0.999999990               0.000250753              -0.000256342               0.999999990               0.000261280              -0.000273616               0.999999990               0.000272487              -0.000291334               0.999999990               0.000284271              -0.000309043               0.999999990               0.000296293              -0.000326179               0.999999990               0.000308387              -0.000342220               0.999999990               0.000320516              -0.000356773               0.999999990               0.000332598              -0.000369581               0.999999990               0.000344659              -0.000380316               0.999999990               0.000180312              -0.000305563               0.999999990               0.000187254              -0.000264060               0.999999990               0.000189341              -0.000253154               0.999999990               0.000191864              -0.000256501               0.999999990               0.000196081              -0.000267407               0.999999990               0.000202172              -0.000283020               0.999999990               0.000209949              -0.000301587               0.999999990               0.000219125              -0.000322058               0.999999990               0.000229334              -0.000343803               0.999999990               0.000240283              -0.000366354               0.999999990               0.000251773              -0.000389158               0.999999990               0.000263422              -0.000411730               0.999999990               0.000274954              -0.000433469               0.999999990               0.000286263              -0.000454005               0.999999990               0.000297389              -0.000473123               0.999999990               0.000308364              -0.000490850               0.999999990               0.000319137              -0.000507064               0.999999990               0.000171426              -0.000375935               0.999999990               0.000166828              -0.000326063               0.999999990               0.000164736              -0.000314826               0.999999990               0.000166313              -0.000320654               0.999999990               0.000170978              -0.000335255               0.999999990               0.000178062              -0.000355167               0.999999990               0.000186920              -0.000378480               0.999999990               0.000197115              -0.000403854               0.999999990               0.000208207              -0.000430460               0.999999990               0.000219777              -0.000457854               0.999999990               0.000231437              -0.000485308               0.999999990               0.000242850              -0.000512261               0.999999990               0.000253875              -0.000538243               0.999999990               0.000264487              -0.000563059               0.999999990               0.000274730              -0.000586707               0.999999990               0.000284594              -0.000609239               0.999999990               0.000294077              -0.000630644               0.999999990               0.000160704              -0.000442423               0.999999990               0.000144133              -0.000386108               0.999999990               0.000139066              -0.000375313               0.999999990               0.000140802              -0.000383904               0.999999990               0.000146681              -0.000402163               0.999999990               0.000155238              -0.000426268               0.999999990               0.000165610              -0.000453991               0.999999990               0.000177058              -0.000483783               0.999999990               0.000189010              -0.000514902               0.999999990               0.000200986              -0.000546817               0.999999990               0.000212583              -0.000578580               0.999999990               0.000223605              -0.000609506               0.999999990               0.000233925              -0.000639504               0.999999990               0.000243560              -0.000668626               0.999999990               0.000252614              -0.000696821               0.999999990               0.000261173              -0.000724115               0.999999990               0.000269290              -0.000750539               0.999999990               0.000148412              -0.000504280               0.999999990               0.000120537              -0.000443969               0.999999990               0.000113922              -0.000434224               0.999999990               0.000116936              -0.000445462               0.999999990               0.000124655              -0.000467182               0.999999990               0.000135046              -0.000495084               0.999999990               0.000146917              -0.000526885               0.999999990               0.000159456              -0.000560985               0.999999990               0.000172083              -0.000596455               0.999999990               0.000184279              -0.000632513               0.999999990               0.000195659              -0.000668023               0.999999990               0.000205956              -0.000702748               0.999999990               0.000215185              -0.000736748               0.999999990               0.000223635              -0.000770046               0.999999990               0.000231424              -0.000802608               0.999999990               0.000238719              -0.000834385               0.999999990               0.000245583              -0.000865390               0.999999990               0.000135245              -0.000560428               0.999999990               0.000097001              -0.000499548               0.999999990               0.000090845              -0.000490892               0.999999990               0.000095862              -0.000504439               0.999999990               0.000105611              -0.000529344               0.999999990               0.000117708              -0.000560951               0.999999990               0.000130957              -0.000596712               0.999999990               0.000144477              -0.000634978               0.999999990               0.000157695              -0.000674461               0.999999990               0.000169859              -0.000714099               0.999999990               0.000180447              -0.000753214               0.999999990               0.000189533              -0.000791599               0.999999990               0.000197517              -0.000829363               0.999999990               0.000204720              -0.000866629               0.999999990               0.000211453              -0.000903200               0.999999990               0.000217915              -0.000938989               0.999999990               0.000224231              -0.000973998               0.999999990               0.000122217              -0.000612835               0.999999990               0.000078485              -0.000558860               0.999999990               0.000069727              -0.000545894               0.999999990               0.000073177              -0.000554134               0.999999990               0.000081469              -0.000573944               0.999999990               0.000092106              -0.000600830               0.999999990               0.000104029              -0.000632373               0.999999990               0.000116515              -0.000666901               0.999999990               0.000128892              -0.000703285               0.999999990               0.000140447              -0.000740527               0.999999990               0.000150650              -0.000777860               0.999999990               0.000159018              -0.000814874               0.999999990               0.000166045              -0.000851448               0.999999990               0.000172029              -0.000887679               0.999999990               0.000177311              -0.000923661               0.999999990               0.000182449              -0.000959154               0.999999990               0.000187662              -0.000993975               0.999999990               0.000107676              -0.000660099               0.999999990               0.000062240              -0.000615524               0.999999990               0.000050828              -0.000601668               0.999999990               0.000052193              -0.000605971               0.999999990               0.000058638              -0.000621503               0.999999990               0.000067634              -0.000644151               0.999999990               0.000078082              -0.000671721               0.999999990               0.000089210              -0.000702704               0.999999990               0.000100500              -0.000735949               0.999999990               0.000111221              -0.000770527               0.999999990               0.000120818              -0.000805816               0.999999990               0.000128622              -0.000841174               0.999999990               0.000134659              -0.000876230               0.999999990               0.000139333              -0.000911124               0.999999990               0.000142942              -0.000945866               0.999999990               0.000146094              -0.000980593               0.999999990               0.000149146              -0.001015131               0.999999990               0.000091969              -0.000701316               0.999999990               0.000048072              -0.000668125               0.999999990               0.000034900              -0.000655876               0.999999990               0.000034082              -0.000658211               0.999999990               0.000038505              -0.000670504               0.999999990               0.000045586              -0.000689714               0.999999990               0.000054259              -0.000713919               0.999999990               0.000063815              -0.000741787               0.999999990               0.000073587              -0.000772211               0.999999990               0.000083076              -0.000804360               0.999999990               0.000091787              -0.000837586               0.999999990               0.000099005              -0.000871327               0.999999990               0.000104295              -0.000905013               0.999999990               0.000107649              -0.000938515               0.999999990               0.000109429              -0.000971861               0.999999990               0.000110038              -0.001005285               0.999999990               0.000109946              -0.001038964               0.999999990               0.000075131              -0.000735860               0.999999990               0.000035901              -0.000714730               0.999999990               0.000022338              -0.000705993               0.999999990               0.000019776              -0.000708155               0.999999990               0.000022230              -0.000718687               0.999999990               0.000027312              -0.000735469               0.999999990               0.000034022              -0.000757044               0.999999990               0.000041676              -0.000782350               0.999999990               0.000049678              -0.000810400               0.999999990               0.000057628              -0.000840502               0.999999990               0.000065063              -0.000872078               0.999999990               0.000071388              -0.000904601               0.999999990               0.000075822              -0.000937485               0.999999990               0.000078232              -0.000970232               0.999999990               0.000078419              -0.001002767               0.999999990               0.000076372              -0.001035209               0.999999990               0.000072299              -0.001067884               0.999999990               0.000057231              -0.000763234               0.999999990               0.000025459              -0.000753355               0.999999990               0.000013164              -0.000749174               0.999999990               0.000009729              -0.000752513               0.999999990               0.000010608              -0.000762615               0.999999990               0.000013830              -0.000778133               0.999999990               0.000018547              -0.000797974               0.999999990               0.000024141              -0.000821446               0.999999990               0.000030203              -0.000847701               0.999999990               0.000036231              -0.000876244               0.999999990               0.000041932              -0.000906656               0.999999990               0.000046932              -0.000938435               0.999999990               0.000050447              -0.000971076               0.999999990               0.000052044              -0.001003974               0.999999990               0.000051278              -0.001036802               0.999999990               0.000047578              -0.001069508               0.999999990               0.000040378              -0.001102127               0.999999990               0.000038540              -0.000782956               0.999999990               0.000016316              -0.000782162               0.999999990               0.000006992              -0.000782441               0.999999990               0.000003749              -0.000787704               0.999999990               0.000003686              -0.000798309               0.999999990               0.000005457              -0.000813537               0.999999990               0.000008297              -0.000832631               0.999999990               0.000011936              -0.000854993               0.999999990               0.000015862              -0.000880190               0.999999990               0.000019803              -0.000907760               0.999999990               0.000023493              -0.000937394               0.999999990               0.000026824              -0.000968694               0.999999990               0.000029287              -0.001001209               0.999999990               0.000030251              -0.001034548               0.999999990               0.000029313              -0.001068284               0.999999990               0.000025653              -0.001102021               0.999999990               0.000018397              -0.001135514               0.999999990               0.000019373              -0.000794827               0.999999990               0.000007973              -0.000799867               0.999999990               0.000002962              -0.000803405               0.999999990               0.000000965              -0.000810368               0.999999990               0.000000744              -0.000821667               0.999999990               0.000001444              -0.000837015               0.999999990               0.000002795              -0.000855984               0.999999990               0.000004519              -0.000878069               0.999999990               0.000006390              -0.000902821               0.999999990               0.000008240              -0.000929948               0.999999990               0.000010046              -0.000959093               0.999999990               0.000011645              -0.000989966               0.999999990               0.000012905              -0.001022342               0.999999990               0.000013407              -0.001055848               0.999999990               0.000012855              -0.001090133               0.999999990               0.000010722              -0.001124786               0.999999990               0.000006247              -0.001159304               0.999999990               0.000000000              -0.000798806               0.999999990              -0.000000000              -0.000805841               0.999999990              -0.000000000              -0.000810583               0.999999990               0.000000000              -0.000818184               0.999999990              -0.000000000              -0.000829759               0.999999990              -0.000000000              -0.000845241               0.999999990               0.000000000              -0.000864248               0.999999990               0.000000000              -0.000886315               0.999999990              -0.000000000              -0.000910991               0.999999990               0.000000000              -0.000937947               0.999999990              -0.000000000              -0.000966915               0.999999990              -0.000000000              -0.000997659               0.999999990              -0.000000000              -0.001029910               0.999999990              -0.000000000              -0.001063463               0.999999990               0.000000000              -0.001098024               0.999999990               0.000000000              -0.001133057               0.999999990              -0.000000000              -0.001167971               0.999999990               0.000196405              -0.000000000               0.999999990               0.000227687               0.000000000               0.999999990               0.000242384              -0.000000000               0.999999990               0.000250839              -0.000000000               0.999999990               0.000257224              -0.000000000               0.999999990               0.000263228              -0.000000000               0.999999990               0.000269693              -0.000000000               0.999999990               0.000277140              -0.000000000               0.999999990               0.000285747              -0.000000000               0.999999990               0.000295561               0.000000000               0.999999990               0.000306524              -0.000000000               0.999999990               0.000318626               0.000000000               0.999999990               0.000331794               0.000000000               0.999999990               0.000345914               0.000000000               0.999999990               0.000360798              -0.000000000               0.999999990               0.000376148              -0.000000000               0.999999990               0.000391668              -0.000000000               0.999999990               0.000195333               0.000078540               0.999999990               0.000224921               0.000067614               0.999999990               0.000238544               0.000063869               0.999999990               0.000246358               0.000063876               0.999999990               0.000252446               0.000065947               0.999999990               0.000258468               0.000069396               0.999999990               0.000265105               0.000073767               0.999999990               0.000272719               0.000078774               0.999999990               0.000281466               0.000084327               0.999999990               0.000291391               0.000090158               0.999999990               0.000302457               0.000096200               0.999999990               0.000314607               0.000102402               0.999999990               0.000327762               0.000108499               0.999999990               0.000341763               0.000114150               0.999999990               0.000356397               0.000119080               0.999999990               0.000371394               0.000123119               0.999999990               0.000386417               0.000125863               0.999999990               0.000192192               0.000156178               0.999999990               0.000216897               0.000134567               0.999999990               0.000227689               0.000127485               0.999999990               0.000233994               0.000127870               0.999999990               0.000239391               0.000132442               0.999999990               0.000245216               0.000139588               0.999999990               0.000252016               0.000148435               0.999999990               0.000259995               0.000158595               0.999999990               0.000269130               0.000169642               0.999999990               0.000279377               0.000181248               0.999999990               0.000290579               0.000193263               0.999999990               0.000302599               0.000205543               0.999999990               0.000315296               0.000217441               0.999999990               0.000328466               0.000228506               0.999999990               0.000341927               0.000238330               0.999999990               0.000355509               0.000246468               0.999999990               0.000369099               0.000252357               0.999999990               0.000187210               0.000232080               0.999999990               0.000204200               0.000200188               0.999999990               0.000210907               0.000190634               0.999999990               0.000215257               0.000192112               0.999999990               0.000219866               0.000199596               0.999999990               0.000225563               0.000210828               0.999999990               0.000232699               0.000224491               0.999999990               0.000241151               0.000239829               0.999999990               0.000250753               0.000256342               0.999999990               0.000261280               0.000273616               0.999999990               0.000272487               0.000291334               0.999999990               0.000284271               0.000309043               0.999999990               0.000296293               0.000326179               0.999999990               0.000308387               0.000342220               0.999999990               0.000320516               0.000356773               0.999999990               0.000332598               0.000369581               0.999999990               0.000344659               0.000380316               0.999999990               0.000180312               0.000305563               0.999999990               0.000187254               0.000264060               0.999999990               0.000189341               0.000253154               0.999999990               0.000191864               0.000256501               0.999999990               0.000196081               0.000267407               0.999999990               0.000202172               0.000283020               0.999999990               0.000209949               0.000301587               0.999999990               0.000219125               0.000322058               0.999999990               0.000229334               0.000343803               0.999999990               0.000240283               0.000366354               0.999999990               0.000251773               0.000389158               0.999999990               0.000263422               0.000411730               0.999999990               0.000274954               0.000433469               0.999999990               0.000286263               0.000454005               0.999999990               0.000297389               0.000473123               0.999999990               0.000308364               0.000490850               0.999999990               0.000319137               0.000507064               0.999999990               0.000171426               0.000375935               0.999999990               0.000166828               0.000326063               0.999999990               0.000164736               0.000314826               0.999999990               0.000166313               0.000320654               0.999999990               0.000170978               0.000335255               0.999999990               0.000178062               0.000355167               0.999999990               0.000186920               0.000378480               0.999999990               0.000197115               0.000403854               0.999999990               0.000208207               0.000430460               0.999999990               0.000219777               0.000457854               0.999999990               0.000231437               0.000485308               0.999999990               0.000242850               0.000512261               0.999999990               0.000253875               0.000538243               0.999999990               0.000264487               0.000563059               0.999999990               0.000274730               0.000586707               0.999999990               0.000284594               0.000609239               0.999999990               0.000294077               0.000630644               0.999999990               0.000160704               0.000442423               0.999999990               0.000144133               0.000386108               0.999999990               0.000139066               0.000375313               0.999999990               0.000140802               0.000383904               0.999999990               0.000146681               0.000402163               0.999999990               0.000155238               0.000426268               0.999999990               0.000165610               0.000453991               0.999999990               0.000177058               0.000483783               0.999999990               0.000189010               0.000514902               0.999999990               0.000200986               0.000546817               0.999999990               0.000212583               0.000578580               0.999999990               0.000223605               0.000609506               0.999999990               0.000233925               0.000639504               0.999999990               0.000243560               0.000668626               0.999999990               0.000252614               0.000696821               0.999999990               0.000261173               0.000724115               0.999999990               0.000269290               0.000750539               0.999999990               0.000148412               0.000504280               0.999999990               0.000120537               0.000443969               0.999999990               0.000113922               0.000434224               0.999999990               0.000116936               0.000445462               0.999999990               0.000124655               0.000467182               0.999999990               0.000135046               0.000495084               0.999999990               0.000146917               0.000526885               0.999999990               0.000159456               0.000560985               0.999999990               0.000172083               0.000596455               0.999999990               0.000184279               0.000632513               0.999999990               0.000195659               0.000668023               0.999999990               0.000205956               0.000702748               0.999999990               0.000215185               0.000736748               0.999999990               0.000223635               0.000770046               0.999999990               0.000231424               0.000802608               0.999999990               0.000238719               0.000834385               0.999999990               0.000245583               0.000865390               0.999999990               0.000135245               0.000560428               0.999999990               0.000097001               0.000499548               0.999999990               0.000090845               0.000490892               0.999999990               0.000095862               0.000504439               0.999999990               0.000105611               0.000529344               0.999999990               0.000117708               0.000560951               0.999999990               0.000130957               0.000596712               0.999999990               0.000144477               0.000634978               0.999999990               0.000157695               0.000674461               0.999999990               0.000169859               0.000714099               0.999999990               0.000180447               0.000753214               0.999999990               0.000189533               0.000791599               0.999999990               0.000197517               0.000829363               0.999999990               0.000204720               0.000866629               0.999999990               0.000211453               0.000903200               0.999999990               0.000217915               0.000938989               0.999999990               0.000224231               0.000973998               0.999999990               0.000122217               0.000612835               0.999999990               0.000078485               0.000558860               0.999999990               0.000069727               0.000545894               0.999999990               0.000073177               0.000554134               0.999999990               0.000081469               0.000573944               0.999999990               0.000092106               0.000600830               0.999999990               0.000104029               0.000632373               0.999999990               0.000116515               0.000666901               0.999999990               0.000128892               0.000703285               0.999999990               0.000140447               0.000740527               0.999999990               0.000150650               0.000777860               0.999999990               0.000159018               0.000814874               0.999999990               0.000166045               0.000851448               0.999999990               0.000172029               0.000887679               0.999999990               0.000177311               0.000923661               0.999999990               0.000182449               0.000959154               0.999999990               0.000187662               0.000993975               0.999999990               0.000107676               0.000660099               0.999999990               0.000062240               0.000615524               0.999999990               0.000050828               0.000601668               0.999999990               0.000052193               0.000605971               0.999999990               0.000058638               0.000621503               0.999999990               0.000067634               0.000644151               0.999999990               0.000078082               0.000671721               0.999999990               0.000089210               0.000702704               0.999999990               0.000100500               0.000735949               0.999999990               0.000111221               0.000770527               0.999999990               0.000120818               0.000805816               0.999999990               0.000128622               0.000841174               0.999999990               0.000134659               0.000876230               0.999999990               0.000139333               0.000911124               0.999999990               0.000142942               0.000945866               0.999999990               0.000146094               0.000980593               0.999999990               0.000149146               0.001015131               0.999999990               0.000091969               0.000701316               0.999999990               0.000048072               0.000668125               0.999999990               0.000034900               0.000655876               0.999999990               0.000034082               0.000658211               0.999999990               0.000038505               0.000670504               0.999999990               0.000045586               0.000689714               0.999999990               0.000054259               0.000713919               0.999999990               0.000063815               0.000741787               0.999999990               0.000073587               0.000772211               0.999999990               0.000083076               0.000804360               0.999999990               0.000091787               0.000837586               0.999999990               0.000099005               0.000871327               0.999999990               0.000104295               0.000905013               0.999999990               0.000107649               0.000938515               0.999999990               0.000109429               0.000971861               0.999999990               0.000110038               0.001005285               0.999999990               0.000109946               0.001038964               0.999999990               0.000075131               0.000735860               0.999999990               0.000035901               0.000714730               0.999999990               0.000022338               0.000705993               0.999999990               0.000019776               0.000708155               0.999999990               0.000022230               0.000718687               0.999999990               0.000027312               0.000735469               0.999999990               0.000034022               0.000757044               0.999999990               0.000041676               0.000782350               0.999999990               0.000049678               0.000810400               0.999999990               0.000057628               0.000840502               0.999999990               0.000065063               0.000872078               0.999999990               0.000071388               0.000904601               0.999999990               0.000075822               0.000937485               0.999999990               0.000078232               0.000970232               0.999999990               0.000078419               0.001002767               0.999999990               0.000076372               0.001035209               0.999999990               0.000072299               0.001067884               0.999999990               0.000057231               0.000763234               0.999999990               0.000025459               0.000753355               0.999999990               0.000013164               0.000749174               0.999999990               0.000009729               0.000752513               0.999999990               0.000010608               0.000762615               0.999999990               0.000013830               0.000778133               0.999999990               0.000018547               0.000797974               0.999999990               0.000024141               0.000821446               0.999999990               0.000030203               0.000847701               0.999999990               0.000036231               0.000876244               0.999999990               0.000041932               0.000906656               0.999999990               0.000046932               0.000938435               0.999999990               0.000050447               0.000971076               0.999999990               0.000052044               0.001003974               0.999999990               0.000051278               0.001036802               0.999999990               0.000047578               0.001069508               0.999999990               0.000040378               0.001102127               0.999999990               0.000038540               0.000782956               0.999999990               0.000016316               0.000782162               0.999999990               0.000006992               0.000782441               0.999999990               0.000003749               0.000787704               0.999999990               0.000003686               0.000798309               0.999999990               0.000005457               0.000813537               0.999999990               0.000008297               0.000832631               0.999999990               0.000011936               0.000854993               0.999999990               0.000015862               0.000880190               0.999999990               0.000019803               0.000907760               0.999999990               0.000023493               0.000937394               0.999999990               0.000026824               0.000968694               0.999999990               0.000029287               0.001001209               0.999999990               0.000030251               0.001034548               0.999999990               0.000029313               0.001068284               0.999999990               0.000025653               0.001102021               0.999999990               0.000018397               0.001135514               0.999999990               0.000019373               0.000794827               0.999999990               0.000007973               0.000799867               0.999999990               0.000002962               0.000803405               0.999999990               0.000000965               0.000810368               0.999999990               0.000000744               0.000821667               0.999999990               0.000001444               0.000837015               0.999999990               0.000002795               0.000855984               0.999999990               0.000004519               0.000878069               0.999999990               0.000006390               0.000902821               0.999999990               0.000008240               0.000929948               0.999999990               0.000010046               0.000959093               0.999999990               0.000011645               0.000989966               0.999999990               0.000012905               0.001022342               0.999999990               0.000013407               0.001055848               0.999999990               0.000012855               0.001090133               0.999999990               0.000010722               0.001124786               0.999999990               0.000006247               0.001159304               0.999999990               0.000000000               0.000798806               0.999999990               0.000000000               0.000805841               0.999999990               0.000000000               0.000810583               0.999999990              -0.000000000               0.000818184               0.999999990              -0.000000000               0.000829759               0.999999990               0.000000000               0.000845241               0.999999990              -0.000000000               0.000864248               0.999999990              -0.000000000               0.000886315               0.999999990              -0.000000000               0.000910991               0.999999990              -0.000000000               0.000937947               0.999999990               0.000000000               0.000966915               0.999999990               0.000000000               0.000997659               0.999999990               0.000000000               0.001029910               0.999999990              -0.000000000               0.001063463               0.999999990              -0.000000000               0.001098024               0.999999990               0.000000000               0.001133057               0.999999990              -0.000000000               0.001167971               0.999999990 </DataArray>
<DataArray type="Float64"                                    Name="stress"                                                      NumberOfComponents="10" format="ascii">
              0.001284003               0.014579466               0.000000000              -0.001340929               0.005306750               0.003965821               0.000000000               0.000000000               0.000000000               0.000000000               0.001361751               0.011801980               0.000000000              -0.000964588               0.004255483               0.003290895               0.000000000               0.000000000               0.000000000               0.000000000               0.001871632               0.009558667              -0.000000000              -0.000492970               0.003350514               0.002857544               0.000000000               0.000000000               0.000000000               0.000000000               0.001906540               0.008304324              -0.000000000              -0.000323087               0.002875776               0.002552689               0.000000000               0.000000000               0.000000000               0.000000000               0.001776505               0.007535443              -0.000000000              -0.000275740               0.002603703               0.002327962               0.000000000               0.000000000               0.000000000               0.000000000               0.001598015               0.007039581              -0.000000000              -0.000280691               0.002440067               0.002159376               0.000000000               0.000000000               0.000000000               0.000000000               0.001400606               0.006702618               0.000000000              -0.000312599               0.002338383               0.002025784               0.000000000               0.000000000               0.000000000               0.000000000               0.001199218               0.006463873               0.000000000              -0.000358277               0.002274028               0.001915752               0.000000000               0.000000000               0.000000000               0.000000000               0.001007483               0.006292790               0.000000000              -0.000408792               0.002233839               0.001825048               0.000000000               0.000000000               0.000000000               0.000000000               0.000829492               0.006162709              -0.000000000              -0.000459278               0.002207308               0.001748031               0.000000000               0.000000000               0.000000000               0.000000000               0.000664805               0.006059939              -0.000000000              -0.000508189               0.002189356               0.001681167               0.000000000               0.000000000               0.000000000               0.000000000               0.000511360               0.005974223               0.000000000              -0.000555016               0.002176393               0.001621377               0.000000000               0.000000000               0.000000000               0.000000000               0.000370230               0.005890566               0.000000000              -0.000597483               0.002162663               0.001565180               0.000000000               0.000000000               0.000000000               0.000000000               0.000243518               0.005794153               0.000000000              -0.000632948               0.002142348               0.001509400               0.000000000               0.000000000               0.000000000               0.000000000               0.000137963               0.005677457              -0.000000000              -0.000657944               0.002111781               0.001453837               0.000000000               0.000000000               0.000000000               0.000000000               0.000058796               0.005536334              -0.000000000              -0.000669992               0.002068757               0.001398765               0.000000000               0.000000000               0.000000000               0.000000000               0.000014560               0.005425373               0.000000000              -0.000672710               0.002032676               0.001359966               0.000000000               0.000000000               0.000000000               0.000000000               0.001350880               0.014307429              -0.001054139              -0.001281846               0.005196377               0.003914532               0.000000000               0.000000000               0.000000000               0.000000000               0.001367866               0.011618176              -0.000617375              -0.000939320               0.004185793               0.003246473               0.000000000               0.000000000               0.000000000               0.000000000               0.001810434               0.009464216              -0.000174128              -0.000504113               0.003322745               0.002818632               0.000000000               0.000000000               0.000000000               0.000000000               0.001814289               0.008256851               0.000021939              -0.000351747               0.002869505               0.002517758               0.000000000               0.000000000               0.000000000               0.000000000               0.001669609               0.007516945               0.000109438              -0.000313514               0.002610128               0.002296614               0.000000000               0.000000000               0.000000000               0.000000000               0.001485015               0.007034939               0.000146712              -0.000322486               0.002452451               0.002129966               0.000000000               0.000000000               0.000000000               0.000000000               0.001292148               0.006705075               0.000158922              -0.000353578               0.002352862               0.001999284               0.000000000               0.000000000               0.000000000               0.000000000               0.001102743               0.006472598               0.000161001              -0.000395545               0.002289359               0.001893814               0.000000000               0.000000000               0.000000000               0.000000000               0.000922777               0.006301924               0.000157308              -0.000441698               0.002247853               0.001806155               0.000000000               0.000000000               0.000000000               0.000000000               0.000755665               0.006170924               0.000150731              -0.000487990               0.002219618               0.001731628               0.000000000               0.000000000               0.000000000               0.000000000               0.000602432               0.006067311               0.000145654              -0.000532501               0.002199917               0.001667416               0.000000000               0.000000000               0.000000000               0.000000000               0.000460753               0.005979275               0.000137991              -0.000574626               0.002184614               0.001609988               0.000000000               0.000000000               0.000000000               0.000000000               0.000331100               0.005890728               0.000123150              -0.000612177               0.002167616               0.001555438               0.000000000               0.000000000               0.000000000               0.000000000               0.000216908               0.005791851               0.000102103              -0.000642639               0.002144811               0.001502172               0.000000000               0.000000000               0.000000000               0.000000000               0.000122434               0.005676820               0.000076729              -0.000663688               0.002113484               0.001449796               0.000000000               0.000000000               0.000000000               0.000000000               0.000051862               0.005540399               0.000043148              -0.000673100               0.002071148               0.001398048               0.000000000               0.000000000               0.000000000               0.000000000               0.000012071               0.005435294               0.000026244              -0.000674884               0.002036708               0.001361824               0.000000000               0.000000000               0.000000000               0.000000000               0.001529834               0.013527189              -0.001988035              -0.001117209               0.004881421               0.003764212               0.000000000               0.000000000               0.000000000               0.000000000               0.001373229               0.011087932              -0.001172087              -0.000871029               0.003986283               0.003115254               0.000000000               0.000000000               0.000000000               0.000000000               0.001627837               0.009194919              -0.000350166              -0.000538925               0.003244584               0.002705659               0.000000000               0.000000000               0.000000000               0.000000000               0.001555372               0.008122768               0.000006904              -0.000432080               0.002851589               0.002419509               0.000000000               0.000000000               0.000000000               0.000000000               0.001386146               0.007456594               0.000166416              -0.000412268               0.002622929               0.002210661               0.000000000               0.000000000               0.000000000               0.000000000               0.001198500               0.007015697               0.000236428              -0.000427524               0.002481050               0.002053527               0.000000000               0.000000000               0.000000000               0.000000000               0.001016190               0.006708610               0.000263871              -0.000457504               0.002388682               0.001931178               0.000000000               0.000000000               0.000000000               0.000000000               0.000848873               0.006486102               0.000271693              -0.000492434               0.002326157               0.001833723               0.000000000               0.000000000               0.000000000               0.000000000               0.000697006               0.006316730               0.000268376              -0.000528213               0.002281627               0.001753414               0.000000000               0.000000000               0.000000000               0.000000000               0.000562039               0.006184368               0.000261663              -0.000562280               0.002248862               0.001686582               0.000000000               0.000000000               0.000000000               0.000000000               0.000442548               0.006074699               0.000256112              -0.000593380               0.002222673               0.001629293               0.000000000               0.000000000               0.000000000               0.000000000               0.000335129               0.005972850               0.000243303              -0.000620931               0.002197907               0.001576976               0.000000000               0.000000000               0.000000000               0.000000000               0.000241232               0.005870966               0.000218490              -0.000643407               0.002171438               0.001528031               0.000000000               0.000000000               0.000000000               0.000000000               0.000160869               0.005765732               0.000184441              -0.000660389               0.002142021               0.001481632               0.000000000               0.000000000               0.000000000               0.000000000               0.000094581               0.005656146               0.000140193              -0.000671549               0.002109213               0.001437664               0.000000000               0.000000000               0.000000000               0.000000000               0.000042349               0.005542485               0.000080342              -0.000676928               0.002073119               0.001396191               0.000000000               0.000000000               0.000000000               0.000000000               0.000012045               0.005465466               0.000049106              -0.000678665               0.002048025               0.001369361               0.000000000               0.000000000               0.000000000               0.000000000               0.001759918               0.012343698              -0.002697330              -0.000882993               0.004408855               0.003525863               0.000000000               0.000000000               0.000000000               0.000000000               0.001352446               0.010286632              -0.001599959              -0.000778660               0.003688396               0.002909736               0.000000000               0.000000000               0.000000000               0.000000000               0.001340738               0.008793043              -0.000506507              -0.000596352               0.003129769               0.002533417               0.000000000               0.000000000               0.000000000               0.000000000               0.001175855               0.007918218              -0.000047799              -0.000548830               0.002822323               0.002273493               0.000000000               0.000000000               0.000000000               0.000000000               0.000989088               0.007352509               0.000154870              -0.000548154               0.002633530               0.002085376               0.000000000               0.000000000               0.000000000               0.000000000               0.000813029               0.006967462               0.000244599              -0.000566045               0.002511146               0.001945101               0.000000000               0.000000000               0.000000000               0.000000000               0.000655586               0.006689287               0.000281449              -0.000590315               0.002426512               0.001836197               0.000000000               0.000000000               0.000000000               0.000000000               0.000522030               0.006475567               0.000295354              -0.000613683               0.002363062               0.001749379               0.000000000               0.000000000               0.000000000               0.000000000               0.000409703               0.006304947               0.000298120              -0.000634478               0.002313121               0.001678642               0.000000000               0.000000000               0.000000000               0.000000000               0.000317440               0.006164115               0.000295147              -0.000651473               0.002271842               0.001620369               0.000000000               0.000000000               0.000000000               0.000000000               0.000238531               0.006036309               0.000286869              -0.000665088               0.002233779               0.001568691               0.000000000               0.000000000               0.000000000               0.000000000               0.000174565               0.005912678               0.000268773              -0.000673621               0.002195413               0.001521792               0.000000000               0.000000000               0.000000000               0.000000000               0.000127357               0.005794333               0.000238183              -0.000676531               0.002156935               0.001480404               0.000000000               0.000000000               0.000000000               0.000000000               0.000085653               0.005680909               0.000196513              -0.000677992               0.002119615               0.001441623               0.000000000               0.000000000               0.000000000               0.000000000               0.000049696               0.005577928               0.000145052              -0.000678603               0.002085492               0.001406889               0.000000000               0.000000000               0.000000000               0.000000000               0.000022990               0.005495140               0.000080845              -0.000678270               0.002057785               0.001379515               0.000000000               0.000000000               0.000000000               0.000000000               0.000008108               0.005452662               0.000047297              -0.000678540               0.002043716               0.001365176               0.000000000               0.000000000               0.000000000               0.000000000               0.001954070               0.010893975              -0.003123316              -0.000628972               0.003840945               0.003211974               0.000000000               0.000000000               0.000000000               0.000000000               0.001276402               0.009323222              -0.001874929              -0.000686752               0.003336626               0.002649875               0.000000000               0.000000000               0.000000000               0.000000000               0.000978518               0.008308639              -0.000647107              -0.000671634               0.002993397               0.002321762               0.000000000               0.000000000               0.000000000               0.000000000               0.000738851               0.007654425              -0.000155209              -0.000679732               0.002778027               0.002098295               0.000000000               0.000000000               0.000000000               0.000000000               0.000555033               0.007196979               0.000060047              -0.000691483               0.002629464               0.001937980               0.000000000               0.000000000               0.000000000               0.000000000               0.000411285               0.006862659               0.000160219              -0.000703599               0.002522063               0.001818464               0.000000000               0.000000000               0.000000000               0.000000000               0.000295462               0.006606423               0.000205954              -0.000715003               0.002440453               0.001725451               0.000000000               0.000000000               0.000000000               0.000000000               0.000205072               0.006398735               0.000226780              -0.000722938               0.002373870               0.001650932               0.000000000               0.000000000               0.000000000               0.000000000               0.000137070               0.006222684               0.000237097              -0.000726432               0.002316352               0.001589919               0.000000000               0.000000000               0.000000000               0.000000000               0.000084540               0.006067952               0.000238612              -0.000726790               0.002264894               0.001538104               0.000000000               0.000000000               0.000000000               0.000000000               0.000047448               0.005923465               0.000231295              -0.000722638               0.002215348               0.001492710               0.000000000               0.000000000               0.000000000               0.000000000               0.000028242               0.005786737               0.000213749              -0.000712750               0.002166476               0.001453727               0.000000000               0.000000000               0.000000000               0.000000000               0.000020020               0.005659032               0.000184232              -0.000699870               0.002119615               0.001419745               0.000000000               0.000000000               0.000000000               0.000000000               0.000012166               0.005544646               0.000145804              -0.000688517               0.002077703               0.001389186               0.000000000               0.000000000               0.000000000               0.000000000               0.000003305               0.005450413               0.000102727              -0.000680061               0.002043473               0.001363412               0.000000000               0.000000000               0.000000000               0.000000000               0.000000464               0.005383089               0.000054472              -0.000672710               0.002018582               0.001345871               0.000000000               0.000000000               0.000000000               0.000000000              -0.000001577               0.005352038               0.000030403              -0.000669594               0.002007193               0.001337599               0.000000000               0.000000000               0.000000000               0.000000000               0.002037773               0.009310349              -0.003268501              -0.000399631               0.003236628               0.002836997               0.000000000               0.000000000               0.000000000               0.000000000               0.001132497               0.008295122              -0.002018702              -0.000612204               0.002969081               0.002356877               0.000000000               0.000000000               0.000000000               0.000000000               0.000584356               0.007780240              -0.000796642              -0.000753395               0.002844519               0.002091124               0.000000000               0.000000000               0.000000000               0.000000000               0.000310764               0.007335920              -0.000321711              -0.000800452               0.002712100               0.001911648               0.000000000               0.000000000               0.000000000               0.000000000               0.000157635               0.006975160              -0.000108491              -0.000812780               0.002595957               0.001783177               0.000000000               0.000000000               0.000000000               0.000000000               0.000062063               0.006685429               0.000002237              -0.000812403               0.002499255               0.001686852               0.000000000               0.000000000               0.000000000               0.000000000              -0.000002560               0.006445734               0.000061413              -0.000806675               0.002417448               0.001610773               0.000000000               0.000000000               0.000000000               0.000000000              -0.000048655               0.006238313               0.000095075              -0.000798033               0.002345428               0.001547395               0.000000000               0.000000000               0.000000000               0.000000000              -0.000075314               0.006059238               0.000118960              -0.000785646               0.002281608               0.001495962               0.000000000               0.000000000               0.000000000               0.000000000              -0.000084820               0.005901297               0.000132486              -0.000769468               0.002223568               0.001454101               0.000000000               0.000000000               0.000000000               0.000000000              -0.000081154               0.005752333               0.000133675              -0.000749473               0.002167249               0.001417777               0.000000000               0.000000000               0.000000000               0.000000000              -0.000068445               0.005609419               0.000124625              -0.000726842               0.002112068               0.001385226               0.000000000               0.000000000               0.000000000               0.000000000              -0.000053000               0.005481754               0.000106737              -0.000705093               0.002062264               0.001357171               0.000000000               0.000000000               0.000000000               0.000000000              -0.000040020               0.005376247               0.000083371              -0.000687037               0.002021077               0.001334040               0.000000000               0.000000000               0.000000000               0.000000000              -0.000029023               0.005294112               0.000057624              -0.000672646               0.001988902               0.001316256               0.000000000               0.000000000               0.000000000               0.000000000              -0.000015378               0.005234481               0.000029499              -0.000660075               0.001964834               0.001304759               0.000000000               0.000000000               0.000000000               0.000000000              -0.000011547               0.005203755               0.000016969              -0.000654798               0.001952833               0.001298036               0.000000000               0.000000000               0.000000000               0.000000000               0.001970119               0.007714076              -0.003171980              -0.000225468               0.002646488               0.002421020               0.000000000               0.000000000               0.000000000               0.000000000               0.000929104               0.007273348              -0.002062693              -0.000560755               0.002611343               0.002050588               0.000000000               0.000000000               0.000000000               0.000000000               0.000206415               0.007234506              -0.000963096              -0.000826906               0.002687113               0.001860207               0.000000000               0.000000000               0.000000000               0.000000000              -0.000053218               0.006971608              -0.000527129              -0.000891406               0.002620981               0.001729576               0.000000000               0.000000000               0.000000000               0.000000000              -0.000153878               0.006693710              -0.000313922              -0.000894416               0.002529353               0.001634937               0.000000000               0.000000000               0.000000000               0.000000000              -0.000199277               0.006442067              -0.000187242              -0.000879985               0.002440663               0.001560677               0.000000000               0.000000000               0.000000000               0.000000000              -0.000219362               0.006218302              -0.000107949              -0.000859546               0.002359262               0.001499716               0.000000000               0.000000000               0.000000000               0.000000000              -0.000221443               0.006022245              -0.000053209              -0.000835820               0.002286002               0.001450182               0.000000000               0.000000000               0.000000000               0.000000000              -0.000206803               0.005852451              -0.000008589              -0.000809106               0.002220499               0.001411394               0.000000000               0.000000000               0.000000000               0.000000000              -0.000178615               0.005695657               0.000021390              -0.000778936               0.002158179               0.001379243               0.000000000               0.000000000               0.000000000               0.000000000              -0.000144635               0.005541871               0.000034132              -0.000746970               0.002096262               0.001349292               0.000000000               0.000000000               0.000000000               0.000000000              -0.000109765               0.005400329               0.000039075              -0.000716201               0.002038825               0.001322624               0.000000000               0.000000000               0.000000000               0.000000000              -0.000078182               0.005281463               0.000041142              -0.000689499               0.001990303               0.001300804               0.000000000               0.000000000               0.000000000               0.000000000              -0.000053088               0.005186328               0.000038072              -0.000668197               0.001951491               0.001283294               0.000000000               0.000000000               0.000000000               0.000000000              -0.000034191               0.005111060               0.000029705              -0.000651702               0.001920904               0.001269201               0.000000000               0.000000000               0.000000000               0.000000000              -0.000016969               0.005052492               0.000017353              -0.000637923               0.001896788               0.001258865               0.000000000               0.000000000               0.000000000               0.000000000              -0.000013073               0.005018780               0.000013372              -0.000632248               0.001883659               0.001251411               0.000000000               0.000000000               0.000000000               0.000000000               0.001758606               0.006203484              -0.002886922              -0.000115962               0.002106460               0.001990498               0.000000000               0.000000000               0.000000000               0.000000000               0.000686111               0.006314490              -0.002031615              -0.000532020               0.002282148               0.001750128               0.000000000               0.000000000               0.000000000               0.000000000              -0.000108343               0.006684260              -0.001142645              -0.000876159               0.002520117               0.001643958               0.000000000               0.000000000               0.000000000               0.000000000              -0.000315322               0.006570296              -0.000745984              -0.000939531               0.002503254               0.001563723               0.000000000               0.000000000               0.000000000               0.000000000              -0.000359938               0.006366421              -0.000522152              -0.000930777               0.002432378               0.001501601               0.000000000               0.000000000               0.000000000               0.000000000              -0.000361175               0.006156632              -0.000371809              -0.000905017               0.002353863               0.001448845               0.000000000               0.000000000               0.000000000               0.000000000              -0.000342576               0.005961775              -0.000264915              -0.000873686               0.002278467               0.001404782               0.000000000               0.000000000               0.000000000               0.000000000              -0.000308682               0.005788790              -0.000186656              -0.000839352               0.002209361               0.001370009               0.000000000               0.000000000               0.000000000               0.000000000              -0.000260571               0.005628036              -0.000124495              -0.000801217               0.002143066               0.001341849               0.000000000               0.000000000               0.000000000               0.000000000              -0.000204913               0.005466583              -0.000079494              -0.000760164               0.002075564               0.001315400               0.000000000               0.000000000               0.000000000               0.000000000              -0.000149287               0.005312505              -0.000048936              -0.000720044               0.002010832               0.001290788               0.000000000               0.000000000               0.000000000               0.000000000              -0.000099771               0.005178797              -0.000022431              -0.000684762               0.001954503               0.001269740               0.000000000               0.000000000               0.000000000               0.000000000              -0.000065193               0.005065885              -0.000000351              -0.000657681               0.001907839               0.001250157               0.000000000               0.000000000               0.000000000               0.000000000              -0.000043251               0.004971616               0.000012803              -0.000637669               0.001869745               0.001232076               0.000000000               0.000000000               0.000000000               0.000000000              -0.000027030               0.004892343               0.000015862              -0.000621678               0.001837991               0.001216313               0.000000000               0.000000000               0.000000000               0.000000000              -0.000012176               0.004824996               0.000011435              -0.000607689               0.001810879               0.001203190               0.000000000               0.000000000               0.000000000               0.000000000              -0.000007158               0.004783899               0.000010961              -0.000600670               0.001794840               0.001194170               0.000000000               0.000000000               0.000000000               0.000000000               0.001468133               0.004897060              -0.002484381              -0.000061586               0.001652865               0.001591279               0.000000000               0.000000000               0.000000000               0.000000000               0.000464004               0.005453659              -0.001965959              -0.000507706               0.001987103               0.001479397               0.000000000               0.000000000               0.000000000               0.000000000              -0.000318923               0.006160448              -0.001349355              -0.000889651               0.002350012               0.001460361               0.000000000               0.000000000               0.000000000               0.000000000              -0.000465620               0.006200291              -0.000978566              -0.000949642               0.002383290               0.001433648               0.000000000               0.000000000               0.000000000               0.000000000              -0.000468031               0.006081584              -0.000732668              -0.000935708               0.002339077               0.001403369               0.000000000               0.000000000               0.000000000               0.000000000              -0.000438448               0.005927643              -0.000556381              -0.000905371               0.002277651               0.001372280               0.000000000               0.000000000               0.000000000               0.000000000              -0.000391310               0.005771852              -0.000426157              -0.000868221               0.002213338               0.001345117               0.000000000               0.000000000               0.000000000               0.000000000              -0.000330364               0.005620147              -0.000328654              -0.000826403               0.002148831               0.001322428               0.000000000               0.000000000               0.000000000               0.000000000              -0.000259587               0.005465743              -0.000251153              -0.000780561               0.002082083               0.001301522               0.000000000               0.000000000               0.000000000               0.000000000              -0.000183203               0.005306777              -0.000185390              -0.000732046               0.002012923               0.001280877               0.000000000               0.000000000               0.000000000               0.000000000              -0.000114103               0.005157446              -0.000128962              -0.000687468               0.001948287               0.001260820               0.000000000               0.000000000               0.000000000               0.000000000              -0.000069105               0.005023434              -0.000079693              -0.000653842               0.001892409               0.001238567               0.000000000               0.000000000               0.000000000               0.000000000              -0.000045689               0.004907487              -0.000039565              -0.000630568               0.001846002               0.001215434               0.000000000               0.000000000               0.000000000               0.000000000              -0.000039650               0.004804926              -0.000010869              -0.000615483               0.001806787               0.001191304               0.000000000               0.000000000               0.000000000               0.000000000              -0.000043608               0.004710307               0.000002944              -0.000605140               0.001771800               0.001166660               0.000000000               0.000000000               0.000000000               0.000000000              -0.000046471               0.004623057               0.000004347              -0.000595307               0.001739439               0.001144132               0.000000000               0.000000000               0.000000000               0.000000000              -0.000044170               0.004576083               0.000003547              -0.000588573               0.001721537               0.001132964               0.000000000               0.000000000               0.000000000               0.000000000               0.001083206               0.003663653              -0.002032180              -0.000051757               0.001238457               0.001186700               0.000000000               0.000000000               0.000000000               0.000000000               0.000301837               0.004469960              -0.001880703              -0.000445557               0.001638490               0.001192933               0.000000000               0.000000000               0.000000000               0.000000000              -0.000395943               0.005420844              -0.001577320              -0.000826083               0.002082290               0.001256207               0.000000000               0.000000000               0.000000000               0.000000000              -0.000518155               0.005665910              -0.001244979              -0.000902545               0.002189466               0.001286921               0.000000000               0.000000000               0.000000000               0.000000000              -0.000505483               0.005679607              -0.000981789              -0.000899505               0.002193018               0.001293513               0.000000000               0.000000000               0.000000000               0.000000000              -0.000461240               0.005618380              -0.000783342              -0.000875261               0.002164528               0.001289267               0.000000000               0.000000000               0.000000000               0.000000000              -0.000403150               0.005532482              -0.000633535              -0.000842740               0.002125055               0.001282316               0.000000000               0.000000000               0.000000000               0.000000000              -0.000336063               0.005433675              -0.000516586              -0.000805231               0.002079617               0.001274386               0.000000000               0.000000000               0.000000000               0.000000000              -0.000263907               0.005322223              -0.000417953              -0.000764241               0.002028804               0.001264563               0.000000000               0.000000000               0.000000000               0.000000000              -0.000191099               0.005197822              -0.000328989              -0.000721388               0.001973053               0.001251664               0.000000000               0.000000000               0.000000000               0.000000000              -0.000122978               0.005069913              -0.000244590              -0.000679854               0.001916572               0.001236718               0.000000000               0.000000000               0.000000000               0.000000000              -0.000077351               0.004942459              -0.000167895              -0.000646813               0.001863074               0.001216261               0.000000000               0.000000000               0.000000000               0.000000000              -0.000058234               0.004825421              -0.000104027              -0.000625014               0.001816795               0.001191782               0.000000000               0.000000000               0.000000000               0.000000000              -0.000057770               0.004725208              -0.000051763              -0.000612313               0.001779158               0.001166845               0.000000000               0.000000000               0.000000000               0.000000000              -0.000073606               0.004630495              -0.000017732              -0.000606413               0.001745620               0.001139208               0.000000000               0.000000000               0.000000000               0.000000000              -0.000097254               0.004534831              -0.000003550              -0.000603323               0.001712703               0.001109380               0.000000000               0.000000000               0.000000000               0.000000000              -0.000108763               0.004485630               0.000000097              -0.000601488               0.001695691               0.001094203               0.000000000               0.000000000               0.000000000               0.000000000               0.000526640               0.002533366              -0.001549862              -0.000119182               0.000884174               0.000764991               0.000000000               0.000000000               0.000000000               0.000000000               0.000111713               0.003495496              -0.001737258              -0.000395045               0.001296835               0.000901789               0.000000000               0.000000000               0.000000000               0.000000000              -0.000400215               0.004595294              -0.001749698              -0.000724492               0.001773246               0.001048754               0.000000000               0.000000000               0.000000000               0.000000000              -0.000495934               0.005034502              -0.001501829              -0.000815287               0.001949912               0.001134626               0.000000000               0.000000000               0.000000000               0.000000000              -0.000476834               0.005199511              -0.001246567              -0.000828750               0.002009403               0.001180653               0.000000000               0.000000000               0.000000000               0.000000000              -0.000430734               0.005249436              -0.001038342              -0.000817703               0.002022362               0.001204659               0.000000000               0.000000000               0.000000000               0.000000000              -0.000373540               0.005252604              -0.000872721              -0.000796651               0.002016401               0.001219750               0.000000000               0.000000000               0.000000000               0.000000000              -0.000312717               0.005225417              -0.000738388              -0.000770444               0.001998603               0.001228159               0.000000000               0.000000000               0.000000000               0.000000000              -0.000251997               0.005169941              -0.000621675              -0.000740740               0.001970210               0.001229470               0.000000000               0.000000000               0.000000000               0.000000000              -0.000187633               0.005095956              -0.000514525              -0.000707355               0.001934420               0.001227065               0.000000000               0.000000000               0.000000000               0.000000000              -0.000121966               0.005007033              -0.000410051              -0.000671615               0.001892866               0.001221251               0.000000000               0.000000000               0.000000000               0.000000000              -0.000068990               0.004899426              -0.000309328              -0.000638298               0.001845892               0.001207594               0.000000000               0.000000000               0.000000000               0.000000000              -0.000043374               0.004789825              -0.000218491              -0.000614992               0.001801590               0.001186598               0.000000000               0.000000000               0.000000000               0.000000000              -0.000045565               0.004690159              -0.000137951              -0.000603355               0.001764489               0.001161134               0.000000000               0.000000000               0.000000000               0.000000000              -0.000071721               0.004600171              -0.000073130              -0.000601915               0.001734014               0.001132098               0.000000000               0.000000000               0.000000000               0.000000000              -0.000118889               0.004517681              -0.000028088              -0.000609292               0.001708976               0.001099684               0.000000000               0.000000000               0.000000000               0.000000000              -0.000156197               0.004470017              -0.000006403              -0.000617324               0.001695766               0.001078441               0.000000000               0.000000000               0.000000000               0.000000000              -0.000170623               0.001575288              -0.001061010              -0.000260895               0.000612055               0.000351160               0.000000000               0.000000000               0.000000000               0.000000000              -0.000152198               0.002576672              -0.001512531              -0.000379159               0.000985267               0.000606109               0.000000000               0.000000000               0.000000000               0.000000000              -0.000370436               0.003688712              -0.001791667              -0.000600002               0.001429558               0.000829556               0.000000000               0.000000000               0.000000000               0.000000000              -0.000398056               0.004264764              -0.001658213              -0.000682366               0.001649029               0.000966663               0.000000000               0.000000000               0.000000000               0.000000000              -0.000365095               0.004571673              -0.001443422              -0.000708369               0.001759998               0.001051629               0.000000000               0.000000000               0.000000000               0.000000000              -0.000321160               0.004743186              -0.001244312              -0.000713332               0.001818823               0.001105491               0.000000000               0.000000000               0.000000000               0.000000000              -0.000273669               0.004846341              -0.001076033              -0.000708417               0.001851570               0.001143153               0.000000000               0.000000000               0.000000000               0.000000000              -0.000225503               0.004901347              -0.000932474              -0.000697231               0.001866176               0.001168946               0.000000000               0.000000000               0.000000000               0.000000000              -0.000180329               0.004915958              -0.000805665              -0.000682117               0.001866009               0.001183892               0.000000000               0.000000000               0.000000000               0.000000000              -0.000130541               0.004905024              -0.000691497              -0.000662079               0.001855685               0.001193605               0.000000000               0.000000000               0.000000000               0.000000000              -0.000074701               0.004872243              -0.000580330              -0.000637042               0.001836412               0.001199370               0.000000000               0.000000000               0.000000000               0.000000000              -0.000020924               0.004811754              -0.000467853              -0.000609314               0.001807007               0.001197692               0.000000000               0.000000000               0.000000000               0.000000000               0.000012945               0.004730092              -0.000357838              -0.000586406               0.001772150               0.001185744               0.000000000               0.000000000               0.000000000               0.000000000               0.000018461               0.004642269              -0.000253730              -0.000573359               0.001738527               0.001165168               0.000000000               0.000000000               0.000000000               0.000000000              -0.000007929               0.004561933              -0.000157968              -0.000573214               0.001711700               0.001138487               0.000000000               0.000000000               0.000000000               0.000000000              -0.000070057               0.004495227              -0.000072329              -0.000588173               0.001694452               0.001106278               0.000000000               0.000000000               0.000000000               0.000000000              -0.000130262               0.004451778              -0.000025278              -0.000605319               0.001685684               0.001080365               0.000000000               0.000000000               0.000000000               0.000000000              -0.000956426               0.000834819              -0.000621490              -0.000463012               0.000432607              -0.000030405               0.000000000               0.000000000               0.000000000               0.000000000              -0.000470125               0.001756903              -0.001227744              -0.000395910               0.000717598               0.000321688               0.000000000               0.000000000               0.000000000               0.000000000              -0.000326873               0.002769132              -0.001685724              -0.000468719               0.001079274               0.000610555               0.000000000               0.000000000               0.000000000               0.000000000              -0.000243430               0.003417982              -0.001663884              -0.000518534               0.001312160               0.000793626               0.000000000               0.000000000               0.000000000               0.000000000              -0.000180563               0.003839361              -0.001512238              -0.000547631               0.001462317               0.000914686               0.000000000               0.000000000               0.000000000               0.000000000              -0.000134594               0.004120723              -0.001344429              -0.000565562               0.001562081               0.000996519               0.000000000               0.000000000               0.000000000               0.000000000              -0.000098070               0.004321066              -0.001189320              -0.000576909               0.001632644               0.001055735               0.000000000               0.000000000               0.000000000               0.000000000              -0.000067613               0.004461100              -0.001049781              -0.000582991               0.001681349               0.001098357               0.000000000               0.000000000               0.000000000               0.000000000              -0.000038208               0.004554127              -0.000924720              -0.000583593               0.001712558               0.001128965               0.000000000               0.000000000               0.000000000               0.000000000              -0.000006430               0.004617836              -0.000811800              -0.000579640               0.001732476               0.001152837               0.000000000               0.000000000               0.000000000               0.000000000               0.000031674               0.004656395              -0.000704447              -0.000570170               0.001742173               0.001172002               0.000000000               0.000000000               0.000000000               0.000000000               0.000076259               0.004663492              -0.000592902              -0.000554338               0.001739261               0.001184923               0.000000000               0.000000000               0.000000000               0.000000000               0.000113820               0.004632865              -0.000479646              -0.000536424               0.001723081               0.001186656               0.000000000               0.000000000               0.000000000               0.000000000               0.000134749               0.004578613              -0.000367244              -0.000521795               0.001700121               0.001178326               0.000000000               0.000000000               0.000000000               0.000000000               0.000129009               0.004522033              -0.000249967              -0.000516875               0.001679621               0.001162746               0.000000000               0.000000000               0.000000000               0.000000000               0.000082583               0.004474305              -0.000127141              -0.000528318               0.001667526               0.001139208               0.000000000               0.000000000               0.000000000               0.000000000               0.000023125               0.004439143              -0.000056947              -0.000546220               0.001661773               0.001115553               0.000000000               0.000000000               0.000000000               0.000000000              -0.001740087               0.000313633              -0.000285669              -0.000691736               0.000335121              -0.000356615               0.000000000               0.000000000               0.000000000               0.000000000              -0.000809927               0.001079301              -0.000909747              -0.000438635               0.000505974               0.000067339               0.000000000               0.000000000               0.000000000               0.000000000              -0.000287568               0.001919691              -0.001425065              -0.000347800               0.000755823               0.000408023               0.000000000               0.000000000               0.000000000               0.000000000              -0.000064424               0.002584243              -0.001485700              -0.000347190               0.000977135               0.000629945               0.000000000               0.000000000               0.000000000               0.000000000               0.000046521               0.003081789              -0.001401287              -0.000367778               0.001149845               0.000782066               0.000000000               0.000000000               0.000000000               0.000000000               0.000103440               0.003448069              -0.001280666              -0.000392219               0.001280084               0.000887865               0.000000000               0.000000000               0.000000000               0.000000000               0.000132270               0.003730824              -0.001156771              -0.000416751               0.001382513               0.000965761               0.000000000               0.000000000               0.000000000               0.000000000               0.000149139               0.003950439              -0.001038482              -0.000437877               0.001462759               0.001024882               0.000000000               0.000000000               0.000000000               0.000000000               0.000160085               0.004120630              -0.000927930              -0.000455046               0.001525212               0.001070165               0.000000000               0.000000000               0.000000000               0.000000000               0.000172679               0.004261776              -0.000825285              -0.000467966               0.001576566               0.001108600               0.000000000               0.000000000               0.000000000               0.000000000               0.000190928               0.004374396              -0.000730456              -0.000475201               0.001616518               0.001141317               0.000000000               0.000000000               0.000000000               0.000000000               0.000221458               0.004453201              -0.000633026              -0.000473602               0.001642253               0.001168651               0.000000000               0.000000000               0.000000000               0.000000000               0.000261666               0.004491336              -0.000529886              -0.000463291               0.001651527               0.001188236               0.000000000               0.000000000               0.000000000               0.000000000               0.000300137               0.004494005              -0.000423501              -0.000449198               0.001647720               0.001198521               0.000000000               0.000000000               0.000000000               0.000000000               0.000332969               0.004481161              -0.000304889              -0.000435281               0.001638799               0.001203518               0.000000000               0.000000000               0.000000000               0.000000000               0.000345668               0.004461557              -0.000163981              -0.000428068               0.001629860               0.001201792               0.000000000               0.000000000               0.000000000               0.000000000               0.000335928               0.004444219              -0.000084308              -0.000429553               0.001624576               0.001195023               0.000000000               0.000000000               0.000000000               0.000000000              -0.002404208              -0.000008838              -0.000082314              -0.000900473               0.000297210              -0.000603263               0.000000000               0.000000000               0.000000000               0.000000000              -0.001119974               0.000580390              -0.000587803              -0.000492539               0.000357640              -0.000134898               0.000000000               0.000000000               0.000000000               0.000000000              -0.000264694               0.001236567              -0.001027158              -0.000253831               0.000496794               0.000242963               0.000000000               0.000000000               0.000000000               0.000000000               0.000101875               0.001878200              -0.001118859              -0.000196573               0.000691584               0.000495011               0.000000000               0.000000000               0.000000000               0.000000000               0.000271782               0.002411686              -0.001087453              -0.000199543               0.000870401               0.000670858               0.000000000               0.000000000               0.000000000               0.000000000               0.000347029               0.002833696              -0.001015099              -0.000224077               0.001019248               0.000795171               0.000000000               0.000000000               0.000000000               0.000000000               0.000375501               0.003174195              -0.000934474              -0.000255962               0.001143375               0.000887413               0.000000000               0.000000000               0.000000000               0.000000000               0.000381707               0.003455216              -0.000851935              -0.000288762               0.001247981               0.000959219               0.000000000               0.000000000               0.000000000               0.000000000               0.000378447               0.003690674              -0.000769452              -0.000319416               0.001336684               0.001017268               0.000000000               0.000000000               0.000000000               0.000000000               0.000377457               0.003893188              -0.000691185              -0.000345101               0.001412750               0.001067649               0.000000000               0.000000000               0.000000000               0.000000000               0.000384590               0.004065457              -0.000618500              -0.000363960               0.001476459               0.001112498               0.000000000               0.000000000               0.000000000               0.000000000               0.000403156               0.004203197              -0.000545717              -0.000374215               0.001525790               0.001151575               0.000000000               0.000000000               0.000000000               0.000000000               0.000441904               0.004307844              -0.000465346              -0.000372766               0.001560189               0.001187423               0.000000000               0.000000000               0.000000000               0.000000000               0.000498582               0.004379870              -0.000378841              -0.000360515               0.001580114               0.001219599               0.000000000               0.000000000               0.000000000               0.000000000               0.000571308               0.004421370              -0.000279697              -0.000338430               0.001586585               0.001248155               0.000000000               0.000000000               0.000000000               0.000000000               0.000657724               0.004437356              -0.000154196              -0.000308022               0.001581778               0.001273756               0.000000000               0.000000000               0.000000000               0.000000000               0.000722170               0.004445531              -0.000085747              -0.000284877               0.001576788               0.001291911               0.000000000               0.000000000               0.000000000               0.000000000              -0.002846151              -0.000172951              -0.000004313              -0.001045687               0.000290910              -0.000754777               0.000000000               0.000000000               0.000000000               0.000000000              -0.001339378               0.000282095              -0.000284977              -0.000537528               0.000273206              -0.000264322               0.000000000               0.000000000               0.000000000               0.000000000              -0.000259422               0.000798318              -0.000535831              -0.000197073               0.000331794               0.000134721               0.000000000               0.000000000               0.000000000               0.000000000               0.000219657               0.001403724              -0.000600570              -0.000093095               0.000498934               0.000405840               0.000000000               0.000000000               0.000000000               0.000000000               0.000437608               0.001943935              -0.000594404              -0.000078889               0.000674268               0.000595379               0.000000000               0.000000000               0.000000000               0.000000000               0.000531815               0.002397637              -0.000562383              -0.000100274               0.000832629               0.000732355               0.000000000               0.000000000               0.000000000               0.000000000               0.000565380               0.002777294              -0.000524582              -0.000135144               0.000970803               0.000835659               0.000000000               0.000000000               0.000000000               0.000000000               0.000566263               0.003093872              -0.000483516              -0.000174385               0.001089409               0.000915023               0.000000000               0.000000000               0.000000000               0.000000000               0.000558341               0.003365581              -0.000440127              -0.000211320               0.001192289               0.000980969               0.000000000               0.000000000               0.000000000               0.000000000               0.000553386               0.003602550              -0.000398345              -0.000242799               0.001281771               0.001038972               0.000000000               0.000000000               0.000000000               0.000000000               0.000556549               0.003807817              -0.000358611              -0.000267271               0.001358350               0.001091079               0.000000000               0.000000000               0.000000000               0.000000000               0.000571553               0.003986461              -0.000318984              -0.000283975               0.001423465               0.001139490               0.000000000               0.000000000               0.000000000               0.000000000               0.000606960               0.004138716              -0.000274995              -0.000289729               0.001476135               0.001186406               0.000000000               0.000000000               0.000000000               0.000000000               0.000671260               0.004262689              -0.000225659              -0.000281113               0.001514586               0.001233473               0.000000000               0.000000000               0.000000000               0.000000000               0.000768923               0.004354905              -0.000168485              -0.000256016               0.001536959               0.001280943               0.000000000               0.000000000               0.000000000               0.000000000               0.000908311               0.004410442              -0.000093315              -0.000210688               0.001540362               0.001329674               0.000000000               0.000000000               0.000000000               0.000000000               0.001029368               0.004442266              -0.000052578              -0.000169270               0.001537164               0.001367894               0.000000000               0.000000000               0.000000000               0.000000000              -0.003000708              -0.000222157               0.000000000              -0.001097495               0.000291777              -0.000805718               0.000000000               0.000000000               0.000000000               0.000000000              -0.001418586               0.000184115              -0.000000000              -0.000554983               0.000246364              -0.000308619               0.000000000               0.000000000               0.000000000               0.000000000              -0.000260276               0.000647329              -0.000000000              -0.000178519               0.000275280               0.000096761               0.000000000               0.000000000               0.000000000               0.000000000               0.000262204               0.001235148              -0.000000000              -0.000056067               0.000430401               0.000374334               0.000000000               0.000000000               0.000000000               0.000000000               0.000497599               0.001775792               0.000000000              -0.000035374               0.000603716               0.000568342               0.000000000               0.000000000               0.000000000               0.000000000               0.000601273               0.002241325              -0.000000000              -0.000054688               0.000765330               0.000710642               0.000000000               0.000000000               0.000000000               0.000000000               0.000635991               0.002633598              -0.000000000              -0.000090703               0.000908092               0.000817389               0.000000000               0.000000000               0.000000000               0.000000000               0.000637173               0.002961476               0.000000000              -0.000131244               0.001030897               0.000899653               0.000000000               0.000000000               0.000000000               0.000000000               0.000629460               0.003242544              -0.000000000              -0.000169270               0.001137260               0.000967990               0.000000000               0.000000000               0.000000000               0.000000000               0.000625573               0.003489578              -0.000000000              -0.000201607               0.001230383               0.001028776               0.000000000               0.000000000               0.000000000               0.000000000               0.000628066               0.003707168               0.000000000              -0.000227871               0.001311667               0.001083797               0.000000000               0.000000000               0.000000000               0.000000000               0.000642920               0.003899779               0.000000000              -0.000246377               0.001382039               0.001135662               0.000000000               0.000000000               0.000000000               0.000000000               0.000676662               0.004069087               0.000000000              -0.000254887               0.001441311               0.001186424               0.000000000               0.000000000               0.000000000               0.000000000               0.000742591               0.004216238              -0.000000000              -0.000248558               0.001488251               0.001239694               0.000000000               0.000000000               0.000000000               0.000000000               0.000847180               0.004329836               0.000000000              -0.000223537               0.001517777               0.001294240               0.000000000               0.000000000               0.000000000               0.000000000               0.001002769               0.004399292               0.000000000              -0.000173873               0.001524374               0.001350501               0.000000000               0.000000000               0.000000000               0.000000000               0.001144072               0.004439272              -0.000000000              -0.000125882               0.001521703               0.001395822               0.000000000               0.000000000               0.000000000               0.000000000               0.000000000               0.000000000               0.000000000               0.000000000               0.000000000               0.000000000               0.000000000               0.000000000               0.000000000               0.000000000               0.000000000               0.000000000               0.000000000               0.000000000               0.000000000               0.000000000               0.000000000               0.000000000               0.000000000               0.000000000               0.000000000               0.000000000               0.000000000               0.000000000               0.000000000               0.000000000               0.000000000               0.000000000               0.000000000               0.000000000               0.000000000               0.000000000               0.000000000               0.000000000               0.000000000               0.000000000               0.000000000               0.000000000               0.000000000               0.000000000               0.000000000               0.000000000               0.000000000               0.000000000               0.000000000               0.000000000               0.000000000               0.000000000               0.000000000               0.000000000               0.000000000               0.000000000               0.000000000               0.000000000               0.000000000               0.000000000               0.000000000               0.000000000               0.000000000               0.000000000               0.000000000               0.000000000               0.000000000               0.000000000               0.000000000               0.000000000               0.000000000               0.000000000               0.000000000               0.000000000               0.000000000               0.000000000               0.000000000               0.000000000               0.000000000               0.000000000               0.000000000               0.000000000               0.000000000               0.000000000               0.000000000               0.000000000               0.000000000               0.000000000               0.000000000               0.000000000               0.000000000               0.000000000               0.000000000               0.000000000               0.000000000               0.000000000               0.000000000               0.000000000               0.000000000               0.000000000               0.000000000               0.000000000               0.000000000               0.000000000               0.000000000               0.000000000               0.000000000               0.000000000               0.000000000               0.000000000               0.000000000               0.000000000               0.000000000               0.000000000               0.000000000               0.000000000               0.000000000               0.000000000               0.000000000               0.000000000               0.000000000               0.000000000               0.000000000               0.000000000               0.000000000               0.000000000               0.000000000               0.000000000               0.000000000               0.000000000               0.000000000               0.000000000               0.000000000               0.000000000               0.000000000               0.000000000               0.000000000               0.000000000               0.000000000               0.000000000               0.000000000               0.000000000               0.000000000               0.000000000               0.000000000               0.000000000               0.000000000               0.000000000               0.000000000               0.000000000               0.000000000               0.000000000               0.000000000               0.000000000               0.000000000               0.000000000               0.000000000               0.000000000               0.000000000               0.000000000               0.000000000               0.000000000               0.000000000               0.000000000               0.000000000               0.000000000               0.000000000               0.000000000               0.000000000               0.000000000               0.000000000               0.000000000               0.000000000               0.000000000               0.001350880               0.014307429               0.001054139              -0.001281846               0.005196377               0.003914532               0.000000000               0.000000000               0.000000000               0.000000000               0.001367866               0.011618176               0.000617375              -0.000939320               0.004185793               0.003246473               0.000000000               0.000000000               0.000000000               0.000000000               0.001810434               0.009464216               0.000174128              -0.000504113               0.003322745               0.002818632               0.000000000               0.000000000               0.000000000               0.000000000               0.001814289               0.008256851              -0.000021939              -0.000351747               0.002869505               0.002517758               0.000000000               0.000000000               0.000000000               0.000000000               0.001669609               0.007516945              -0.000109438              -0.000313514               0.002610128               0.002296614               0.000000000               0.000000000               0.000000000               0.000000000               0.001485015               0.007034939              -0.000146712              -0.000322486               0.002452451               0.002129966               0.000000000               0.000000000               0.000000000               0.000000000               0.001292148               0.006705075              -0.000158922              -0.000353578               0.002352862               0.001999284               0.000000000               0.000000000               0.000000000               0.000000000               0.001102743               0.006472598              -0.000161001              -0.000395545               0.002289359               0.001893814               0.000000000               0.000000000               0.000000000               0.000000000               0.000922777               0.006301924              -0.000157308              -0.000441698               0.002247853               0.001806155               0.000000000               0.000000000               0.000000000               0.000000000               0.000755665               0.006170924              -0.000150731              -0.000487990               0.002219618               0.001731628               0.000000000               0.000000000               0.000000000               0.000000000               0.000602432               0.006067311              -0.000145654              -0.000532501               0.002199917               0.001667416               0.000000000               0.000000000               0.000000000               0.000000000               0.000460753               0.005979275              -0.000137991              -0.000574626               0.002184614               0.001609988               0.000000000               0.000000000               0.000000000               0.000000000               0.000331100               0.005890728              -0.000123150              -0.000612177               0.002167616               0.001555438               0.000000000               0.000000000               0.000000000               0.000000000               0.000216908               0.005791851              -0.000102103              -0.000642639               0.002144811               0.001502172               0.000000000               0.000000000               0.000000000               0.000000000               0.000122434               0.005676820              -0.000076729              -0.000663688               0.002113484               0.001449796               0.000000000               0.000000000               0.000000000               0.000000000               0.000051862               0.005540399              -0.000043148              -0.000673100               0.002071148               0.001398048               0.000000000               0.000000000               0.000000000               0.000000000               0.000012071               0.005435294              -0.000026244              -0.000674884               0.002036708               0.001361824               0.000000000               0.000000000               0.000000000               0.000000000               0.001529834               0.013527189               0.001988035              -0.001117209               0.004881421               0.003764212               0.000000000               0.000000000               0.000000000               0.000000000               0.001373229               0.011087932               0.001172087              -0.000871029               0.003986283               0.003115254               0.000000000               0.000000000               0.000000000               0.000000000               0.001627837               0.009194919               0.000350166              -0.000538925               0.003244584               0.002705659               0.000000000               0.000000000               0.000000000               0.000000000               0.001555372               0.008122768              -0.000006904              -0.000432080               0.002851589               0.002419509               0.000000000               0.000000000               0.000000000               0.000000000               0.001386146               0.007456594              -0.000166416              -0.000412268               0.002622929               0.002210661               0.000000000               0.000000000               0.000000000               0.000000000               0.001198500               0.007015697              -0.000236428              -0.000427524               0.002481050               0.002053527               0.000000000               0.000000000               0.000000000               0.000000000               0.001016190               0.006708610              -0.000263871              -0.000457504               0.002388682               0.001931178               0.000000000               0.000000000               0.000000000               0.000000000               0.000848873               0.006486102              -0.000271693              -0.000492434               0.002326157               0.001833723               0.000000000               0.000000000               0.000000000               0.000000000               0.000697006               0.006316730              -0.000268376              -0.000528213               0.002281627               0.001753414               0.000000000               0.000000000               0.000000000               0.000000000               0.000562039               0.006184368              -0.000261663              -0.000562280               0.002248862               0.001686582               0.000000000               0.000000000               0.000000000               0.000000000               0.000442548               0.006074699              -0.000256112              -0.000593380               0.002222673               0.001629293               0.000000000               0.000000000               0.000000000               0.000000000               0.000335129               0.005972850              -0.000243303              -0.000620931               0.002197907               0.001576976               0.000000000               0.000000000               0.000000000               0.000000000               0.000241232               0.005870966              -0.000218490              -0.000643407               0.002171438               0.001528031               0.000000000               0.000000000               0.000000000               0.000000000               0.000160869               0.005765732              -0.000184441              -0.000660389               0.002142021               0.001481632               0.000000000               0.000000000               0.000000000               0.000000000               0.000094581               0.005656146              -0.000140193              -0.000671549               0.002109213               0.001437664               0.000000000               0.000000000               0.000000000               0.000000000               0.000042349               0.005542485              -0.000080342              -0.000676928               0.002073119               0.001396191               0.000000000               0.000000000               0.000000000               0.000000000               0.000012045               0.005465466              -0.000049106              -0.000678665               0.002048025               0.001369361               0.000000000               0.000000000               0.000000000               0.000000000               0.001759918               0.012343698               0.002697330              -0.000882993               0.004408855               0.003525863               0.000000000               0.000000000               0.000000000               0.000000000               0.001352446               0.010286632               0.001599959              -0.000778660               0.003688396               0.002909736               0.000000000               0.000000000               0.000000000               0.000000000               0.001340738               0.008793043               0.000506507              -0.000596352               0.003129769               0.002533417               0.000000000               0.000000000               0.000000000               0.000000000               0.001175855               0.007918218               0.000047799              -0.000548830               0.002822323               0.002273493               0.000000000               0.000000000               0.000000000               0.000000000               0.000989088               0.007352509              -0.000154870              -0.000548154               0.002633530               0.002085376               0.000000000               0.000000000               0.000000000               0.000000000               0.000813029               0.006967462              -0.000244599              -0.000566045               0.002511146               0.001945101               0.000000000               0.000000000               0.000000000               0.000000000               0.000655586               0.006689287              -0.000281449              -0.000590315               0.002426512               0.001836197               0.000000000               0.000000000               0.000000000               0.000000000               0.000522030               0.006475567              -0.000295354              -0.000613683               0.002363062               0.001749379               0.000000000               0.000000000               0.000000000               0.000000000               0.000409703               0.006304947              -0.000298120              -0.000634478               0.002313121               0.001678642               0.000000000               0.000000000               0.000000000               0.000000000               0.000317440               0.006164115              -0.000295147              -0.000651473               0.002271842               0.001620369               0.000000000               0.000000000               0.000000000               0.000000000               0.000238531               0.006036309              -0.000286869              -0.000665088               0.002233779               0.001568691               0.000000000               0.000000000               0.000000000               0.000000000               0.000174565               0.005912678              -0.000268773              -0.000673621               0.002195413               0.001521792               0.000000000               0.000000000               0.000000000               0.000000000               0.000127357               0.005794333              -0.000238183              -0.000676531               0.002156935               0.001480404               0.000000000               0.000000000               0.000000000               0.000000000               0.000085653               0.005680909              -0.000196513              -0.000677992               0.002119615               0.001441623               0.000000000               0.000000000               0.000000000               0.000000000               0.000049696               0.005577928              -0.000145052              -0.000678603               0.002085492               0.001406889               0.000000000               0.000000000               0.000000000               0.000000000               0.000022990               0.005495140              -0.000080845              -0.000678270               0.002057785               0.001379515               0.000000000               0.000000000               0.000000000               0.000000000               0.000008108               0.005452662              -0.000047297              -0.000678540               0.002043716               0.001365176               0.000000000               0.000000000               0.000000000               0.000000000               0.001954070               0.010893975               0.003123316              -0.000628972               0.003840945               0.003211974               0.000000000               0.000000000               0.000000000               0.000000000               0.001276402               0.009323222               0.001874929              -0.000686752               0.003336626               0.002649875               0.000000000               0.000000000               0.000000000               0.000000000               0.000978518               0.008308639               0.000647107              -0.000671634               0.002993397               0.002321762               0.000000000               0.000000000               0.000000000               0.000000000               0.000738851               0.007654425               0.000155209              -0.000679732               0.002778027               0.002098295               0.000000000               0.000000000               0.000000000               0.000000000               0.000555033               0.007196979              -0.000060047              -0.000691483               0.002629464               0.001937980               0.000000000               0.000000000               0.000000000               0.000000000               0.000411285               0.006862659              -0.000160219              -0.000703599               0.002522063               0.001818464               0.000000000               0.000000000               0.000000000               0.000000000               0.000295462               0.006606423              -0.000205954              -0.000715003               0.002440453               0.001725451               0.000000000               0.000000000               0.000000000               0.000000000               0.000205072               0.006398735              -0.000226780              -0.000722938               0.002373870               0.001650932               0.000000000               0.000000000               0.000000000               0.000000000               0.000137070               0.006222684              -0.000237097              -0.000726432               0.002316352               0.001589919               0.000000000               0.000000000               0.000000000               0.000000000               0.000084540               0.006067952              -0.000238612              -0.000726790               0.002264894               0.001538104               0.000000000               0.000000000               0.000000000               0.000000000               0.000047448               0.005923465              -0.000231295              -0.000722638               0.002215348               0.001492710               0.000000000               0.000000000               0.000000000               0.000000000               0.000028242               0.005786737              -0.000213749              -0.000712750               0.002166476               0.001453727               0.000000000               0.000000000               0.000000000               0.000000000               0.000020020               0.005659032              -0.000184232              -0.000699870               0.002119615               0.001419745               0.000000000               0.000000000               0.000000000               0.000000000               0.000012166               0.005544646              -0.000145804              -0.000688517               0.002077703               0.001389186               0.000000000               0.000000000               0.000000000               0.000000000               0.000003305               0.005450413              -0.000102727              -0.000680061               0.002043473               0.001363412               0.000000000               0.000000000               0.000000000               0.000000000               0.000000464               0.005383089              -0.000054472              -0.000672710               0.002018582               0.001345871               0.000000000               0.000000000               0.000000000               0.000000000              -0.000001577               0.005352038              -0.000030403              -0.000669594               0.002007193               0.001337599               0.000000000               0.000000000               0.000000000               0.000000000               0.002037773               0.009310349               0.003268501              -0.000399631               0.003236628               0.002836997               0.000000000               0.000000000               0.000000000               0.000000000               0.001132497               0.008295122               0.002018702              -0.000612204               0.002969081               0.002356877               0.000000000               0.000000000               0.000000000               0.000000000               0.000584356               0.007780240               0.000796642              -0.000753395               0.002844519               0.002091124               0.000000000               0.000000000               0.000000000               0.000000000               0.000310764               0.007335920               0.000321711              -0.000800452               0.002712100               0.001911648               0.000000000               0.000000000               0.000000000               0.000000000               0.000157635               0.006975160               0.000108491              -0.000812780               0.002595957               0.001783177               0.000000000               0.000000000               0.000000000               0.000000000               0.000062063               0.006685429              -0.000002237              -0.000812403               0.002499255               0.001686852               0.000000000               0.000000000               0.000000000               0.000000000              -0.000002560               0.006445734              -0.000061413              -0.000806675               0.002417448               0.001610773               0.000000000               0.000000000               0.000000000               0.000000000              -0.000048655               0.006238313              -0.000095075              -0.000798033               0.002345428               0.001547395               0.000000000               0.000000000               0.000000000               0.000000000              -0.000075314               0.006059238              -0.000118960              -0.000785646               0.002281608               0.001495962               0.000000000               0.000000000               0.000000000               0.000000000              -0.000084820               0.005901297              -0.000132486              -0.000769468               0.002223568               0.001454101               0.000000000               0.000000000               0.000000000               0.000000000              -0.000081154               0.005752333              -0.000133675              -0.000749473               0.002167249               0.001417777               0.000000000               0.000000000               0.000000000               0.000000000              -0.000068445               0.005609419              -0.000124625              -0.000726842               0.002112068               0.001385226               0.000000000               0.000000000               0.000000000               0.000000000              -0.000053000               0.005481754              -0.000106737              -0.000705093               0.002062264               0.001357171               0.000000000               0.000000000               0.000000000               0.000000000              -0.000040020               0.005376247              -0.000083371              -0.000687037               0.002021077               0.001334040               0.000000000               0.000000000               0.000000000               0.000000000              -0.000029023               0.005294112              -0.000057624              -0.000672646               0.001988902               0.001316256               0.000000000               0.000000000               0.000000000               0.000000000              -0.000015378               0.005234481              -0.000029499              -0.000660075               0.001964834               0.001304759               0.000000000               0.000000000               0.000000000               0.000000000              -0.000011547               0.005203755              -0.000016969              -0.000654798               0.001952833               0.001298036               0.000000000               0.000000000               0.000000000               0.000000000               0.001970119               0.007714076               0.003171980              -0.000225468               0.002646488               0.002421020               0.000000000               0.000000000               0.000000000               0.000000000               0.000929104               0.007273348               0.002062693              -0.000560755               0.002611343               0.002050588               0.000000000               0.000000000               0.000000000               0.000000000               0.000206415               0.007234506               0.000963096              -0.000826906               0.002687113               0.001860207               0.000000000               0.000000000               0.000000000               0.000000000              -0.000053218               0.006971608               0.000527129              -0.000891406               0.002620981               0.001729576               0.000000000               0.000000000               0.000000000               0.000000000              -0.000153878               0.006693710               0.000313922              -0.000894416               0.002529353               0.001634937               0.000000000               0.000000000               0.000000000               0.000000000              -0.000199277               0.006442067               0.000187242              -0.000879985               0.002440663               0.001560677               0.000000000               0.000000000               0.000000000               0.000000000              -0.000219362               0.006218302               0.000107949              -0.000859546               0.002359262               0.001499716               0.000000000               0.000000000               0.000000000               0.000000000              -0.000221443               0.006022245               0.000053209              -0.000835820               0.002286002               0.001450182               0.000000000               0.000000000               0.000000000               0.000000000              -0.000206803               0.005852451               0.000008589              -0.000809106               0.002220499               0.001411394               0.000000000               0.000000000               0.000000000               0.000000000              -0.000178615               0.005695657              -0.000021390              -0.000778936               0.002158179               0.001379243               0.000000000               0.000000000               0.000000000               0.000000000              -0.000144635               0.005541871              -0.000034132              -0.000746970               0.002096262               0.001349292               0.000000000               0.000000000               0.000000000               0.000000000              -0.000109765               0.005400329              -0.000039075              -0.000716201               0.002038825               0.001322624               0.000000000               0.000000000               0.000000000               0.000000000              -0.000078182               0.005281463              -0.000041142              -0.000689499               0.001990303               0.001300804               0.000000000               0.000000000               0.000000000               0.000000000              -0.000053088               0.005186328              -0.000038072              -0.000668197               0.001951491               0.001283294               0.000000000               0.000000000               0.000000000               0.000000000              -0.000034191               0.005111060              -0.000029705              -0.000651702               0.001920904               0.001269201               0.000000000               0.000000000               0.000000000               0.000000000              -0.000016969               0.005052492              -0.000017353              -0.000637923               0.001896788               0.001258865               0.000000000               0.000000000               0.000000000               0.000000000              -0.000013073               0.005018780              -0.000013372              -0.000632248               0.001883659               0.001251411               0.000000000               0.000000000               0.000000000               0.000000000               0.001758606               0.006203484               0.002886922              -0.000115962               0.002106460               0.001990498               0.000000000               0.000000000               0.000000000               0.000000000               0.000686111               0.006314490               0.002031615              -0.000532020               0.002282148               0.001750128               0.000000000               0.000000000               0.000000000               0.000000000              -0.000108343               0.006684260               0.001142645              -0.000876159               0.002520117               0.001643958               0.000000000               0.000000000               0.000000000               0.000000000              -0.000315322               0.006570296               0.000745984              -0.000939531               0.002503254               0.001563723               0.000000000               0.000000000               0.000000000               0.000000000              -0.000359938               0.006366421               0.000522152              -0.000930777               0.002432378               0.001501601               0.000000000               0.000000000               0.000000000               0.000000000              -0.000361175               0.006156632               0.000371809              -0.000905017               0.002353863               0.001448845               0.000000000               0.000000000               0.000000000               0.000000000              -0.000342576               0.005961775               0.000264915              -0.000873686               0.002278467               0.001404782               0.000000000               0.000000000               0.000000000               0.000000000              -0.000308682               0.005788790               0.000186656              -0.000839352               0.002209361               0.001370009               0.000000000               0.000000000               0.000000000               0.000000000              -0.000260571               0.005628036               0.000124495              -0.000801217               0.002143066               0.001341849               0.000000000               0.000000000               0.000000000               0.000000000              -0.000204913               0.005466583               0.000079494              -0.000760164               0.002075564               0.001315400               0.000000000               0.000000000               0.000000000               0.000000000              -0.000149287               0.005312505               0.000048936              -0.000720044               0.002010832               0.001290788               0.000000000               0.000000000               0.000000000               0.000000000              -0.000099771               0.005178797               0.000022431              -0.000684762               0.001954503               0.001269740               0.000000000               0.000000000               0.000000000               0.000000000              -0.000065193               0.005065885               0.000000351              -0.000657681               0.001907839               0.001250157               0.000000000               0.000000000               0.000000000               0.000000000              -0.000043251               0.004971616              -0.000012803              -0.000637669               0.001869745               0.001232076               0.000000000               0.000000000               0.000000000               0.000000000              -0.000027030               0.004892343              -0.000015862              -0.000621678               0.001837991               0.001216313               0.000000000               0.000000000               0.000000000               0.000000000              -0.000012176               0.004824996              -0.000011435              -0.000607689               0.001810879               0.001203190               0.000000000               0.000000000               0.000000000               0.000000000              -0.000007158               0.004783899              -0.000010961              -0.000600670               0.001794840               0.001194170               0.000000000               0.000000000               0.000000000               0.000000000               0.001468133               0.004897060               0.002484381              -0.000061586               0.001652865               0.001591279               0.000000000               0.000000000               0.000000000               0.000000000               0.000464004               0.005453659               0.001965959              -0.000507706               0.001987103               0.001479397               0.000000000               0.000000000               0.000000000               0.000000000              -0.000318923               0.006160448               0.001349355              -0.000889651               0.002350012               0.001460361               0.000000000               0.000000000               0.000000000               0.000000000              -0.000465620               0.006200291               0.000978566              -0.000949642               0.002383290               0.001433648               0.000000000               0.000000000               0.000000000               0.000000000              -0.000468031               0.006081584               0.000732668              -0.000935708               0.002339077               0.001403369               0.000000000               0.000000000               0.000000000               0.000000000              -0.000438448               0.005927643               0.000556381              -0.000905371               0.002277651               0.001372280               0.000000000               0.000000000               0.000000000               0.000000000              -0.000391310               0.005771852               0.000426157              -0.000868221               0.002213338               0.001345117               0.000000000               0.000000000               0.000000000               0.000000000              -0.000330364               0.005620147               0.000328654              -0.000826403               0.002148831               0.001322428               0.000000000               0.000000000               0.000000000               0.000000000              -0.000259587               0.005465743               0.000251153              -0.000780561               0.002082083               0.001301522               0.000000000               0.000000000               0.000000000               0.000000000              -0.000183203               0.005306777               0.000185390              -0.000732046               0.002012923               0.001280877               0.000000000               0.000000000               0.000000000               0.000000000              -0.000114103               0.005157446               0.000128962              -0.000687468               0.001948287               0.001260820               0.000000000               0.000000000               0.000000000               0.000000000              -0.000069105               0.005023434               0.000079693              -0.000653842               0.001892409               0.001238567               0.000000000               0.000000000               0.000000000               0.000000000              -0.000045689               0.004907487               0.000039565              -0.000630568               0.001846002               0.001215434               0.000000000               0.000000000               0.000000000               0.000000000              -0.000039650               0.004804926               0.000010869              -0.000615483               0.001806787               0.001191304               0.000000000               0.000000000               0.000000000               0.000000000              -0.000043608               0.004710307              -0.000002944              -0.000605140               0.001771800               0.001166660               0.000000000               0.000000000               0.000000000               0.000000000              -0.000046471               0.004623057              -0.000004347              -0.000595307               0.001739439               0.001144132               0.000000000               0.000000000               0.000000000               0.000000000              -0.000044170               0.004576083              -0.000003547              -0.000588573               0.001721537               0.001132964               0.000000000               0.000000000               0.000000000               0.000000000               0.001083206               0.003663653               0.002032180              -0.000051757               0.001238457               0.001186700               0.000000000               0.000000000               0.000000000               0.000000000               0.000301837               0.004469960               0.001880703              -0.000445557               0.001638490               0.001192933               0.000000000               0.000000000               0.000000000               0.000000000              -0.000395943               0.005420844               0.001577320              -0.000826083               0.002082290               0.001256207               0.000000000               0.000000000               0.000000000               0.000000000              -0.000518155               0.005665910               0.001244979              -0.000902545               0.002189466               0.001286921               0.000000000               0.000000000               0.000000000               0.000000000              -0.000505483               0.005679607               0.000981789              -0.000899505               0.002193018               0.001293513               0.000000000               0.000000000               0.000000000               0.000000000              -0.000461240               0.005618380               0.000783342              -0.000875261               0.002164528               0.001289267               0.000000000               0.000000000               0.000000000               0.000000000              -0.000403150               0.005532482               0.000633535              -0.000842740               0.002125055               0.001282316               0.000000000               0.000000000               0.000000000               0.000000000              -0.000336063               0.005433675               0.000516586              -0.000805231               0.002079617               0.001274386               0.000000000               0.000000000               0.000000000               0.000000000              -0.000263907               0.005322223               0.000417953              -0.000764241               0.002028804               0.001264563               0.000000000               0.000000000               0.000000000               0.000000000              -0.000191099               0.005197822               0.000328989              -0.000721388               0.001973053               0.001251664               0.000000000               0.000000000               0.000000000               0.000000000              -0.000122978               0.005069913               0.000244590              -0.000679854               0.001916572               0.001236718               0.000000000               0.000000000               0.000000000               0.000000000              -0.000077351               0.004942459               0.000167895              -0.000646813               0.001863074               0.001216261               0.000000000               0.000000000               0.000000000               0.000000000              -0.000058234               0.004825421               0.000104027              -0.000625014               0.001816795               0.001191782               0.000000000               0.000000000               0.000000000               0.000000000              -0.000057770               0.004725208               0.000051763              -0.000612313               0.001779158               0.001166845               0.000000000               0.000000000               0.000000000               0.000000000              -0.000073606               0.004630495               0.000017732              -0.000606413               0.001745620               0.001139208               0.000000000               0.000000000               0.000000000               0.000000000              -0.000097254               0.004534831               0.000003550              -0.000603323               0.001712703               0.001109380               0.000000000               0.000000000               0.000000000               0.000000000              -0.000108763               0.004485630              -0.000000097              -0.000601488               0.001695691               0.001094203               0.000000000               0.000000000               0.000000000               0.000000000               0.000526640               0.002533366               0.001549862              -0.000119182               0.000884174               0.000764991               0.000000000               0.000000000               0.000000000               0.000000000               0.000111713               0.003495496               0.001737258              -0.000395045               0.001296835               0.000901789               0.000000000               0.000000000               0.000000000               0.000000000              -0.000400215               0.004595294               0.001749698              -0.000724492               0.001773246               0.001048754               0.000000000               0.000000000               0.000000000               0.000000000              -0.000495934               0.005034502               0.001501829              -0.000815287               0.001949912               0.001134626               0.000000000               0.000000000               0.000000000               0.000000000              -0.000476834               0.005199511               0.001246567              -0.000828750               0.002009403               0.001180653               0.000000000               0.000000000               0.000000000               0.000000000              -0.000430734               0.005249436               0.001038342              -0.000817703               0.002022362               0.001204659               0.000000000               0.000000000               0.000000000               0.000000000              -0.000373540               0.005252604               0.000872721              -0.000796651               0.002016401               0.001219750               0.000000000               0.000000000               0.000000000               0.000000000              -0.000312717               0.005225417               0.000738388              -0.000770444               0.001998603               0.001228159               0.000000000               0.000000000               0.000000000               0.000000000              -0.000251997               0.005169941               0.000621675              -0.000740740               0.001970210               0.001229470               0.000000000               0.000000000               0.000000000               0.000000000              -0.000187633               0.005095956               0.000514525              -0.000707355               0.001934420               0.001227065               0.000000000               0.000000000               0.000000000               0.000000000              -0.000121966               0.005007033               0.000410051              -0.000671615               0.001892866               0.001221251               0.000000000               0.000000000               0.000000000               0.000000000              -0.000068990               0.004899426               0.000309328              -0.000638298               0.001845892               0.001207594               0.000000000               0.000000000               0.000000000               0.000000000              -0.000043374               0.004789825               0.000218491              -0.000614992               0.001801590               0.001186598               0.000000000               0.000000000               0.000000000               0.000000000              -0.000045565               0.004690159               0.000137951              -0.000603355               0.001764489               0.001161134               0.000000000               0.000000000               0.000000000               0.000000000              -0.000071721               0.004600171               0.000073130              -0.000601915               0.001734014               0.001132098               0.000000000               0.000000000               0.000000000               0.000000000              -0.000118889               0.004517681               0.000028088              -0.000609292               0.001708976               0.001099684               0.000000000               0.000000000               0.000000000               0.000000000              -0.000156197               0.004470017               0.000006403              -0.000617324               0.001695766               0.001078441               0.000000000               0.000000000               0.000000000               0.000000000              -0.000170623               0.001575288               0.001061010              -0.000260895               0.000612055               0.000351160               0.000000000               0.000000000               0.000000000               0.000000000              -0.000152198               0.002576672               0.001512531              -0.000379159               0.000985267               0.000606109               0.000000000               0.000000000               0.000000000               0.000000000              -0.000370436               0.003688712               0.001791667              -0.000600002               0.001429558               0.000829556               0.000000000               0.000000000               0.000000000               0.000000000              -0.000398056               0.004264764               0.001658213              -0.000682366               0.001649029               0.000966663               0.000000000               0.000000000               0.000000000               0.000000000              -0.000365095               0.004571673               0.001443422              -0.000708369               0.001759998               0.001051629               0.000000000               0.000000000               0.000000000               0.000000000              -0.000321160               0.004743186               0.001244312              -0.000713332               0.001818823               0.001105491               0.000000000               0.000000000               0.000000000               0.000000000              -0.000273669               0.004846341               0.001076033              -0.000708417               0.001851570               0.001143153               0.000000000               0.000000000               0.000000000               0.000000000              -0.000225503               0.004901347               0.000932474              -0.000697231               0.001866176               0.001168946               0.000000000               0.000000000               0.000000000               0.000000000              -0.000180329               0.004915958               0.000805665              -0.000682117               0.001866009               0.001183892               0.000000000               0.000000000               0.000000000               0.000000000              -0.000130541               0.004905024               0.000691497              -0.000662079               0.001855685               0.001193605               0.000000000               0.000000000               0.000000000               0.000000000              -0.000074701               0.004872243               0.000580330              -0.000637042               0.001836412               0.001199370               0.000000000               0.000000000               0.000000000               0.000000000              -0.000020924               0.004811754               0.000467853              -0.000609314               0.001807007               0.001197692               0.000000000               0.000000000               0.000000000               0.000000000               0.000012945               0.004730092               0.000357838              -0.000586406               0.001772150               0.001185744               0.000000000               0.000000000               0.000000000               0.000000000               0.000018461               0.004642269               0.000253730              -0.000573359               0.001738527               0.001165168               0.000000000               0.000000000               0.000000000               0.000000000              -0.000007929               0.004561933               0.000157968              -0.000573214               0.001711700               0.001138487               0.000000000               0.000000000               0.000000000               0.000000000              -0.000070057               0.004495227               0.000072329              -0.000588173               0.001694452               0.001106278               0.000000000               0.000000000               0.000000000               0.000000000              -0.000130262               0.004451778               0.000025278              -0.000605319               0.001685684               0.001080365               0.000000000               0.000000000               0.000000000               0.000000000              -0.000956426               0.000834819               0.000621490              -0.000463012               0.000432607              -0.000030405               0.000000000               0.000000000               0.000000000               0.000000000              -0.000470125               0.001756903               0.001227744              -0.000395910               0.000717598               0.000321688               0.000000000               0.000000000               0.000000000               0.000000000              -0.000326873               0.002769132               0.001685724              -0.000468719               0.001079274               0.000610555               0.000000000               0.000000000               0.000000000               0.000000000              -0.000243430               0.003417982               0.001663884              -0.000518534               0.001312160               0.000793626               0.000000000               0.000000000               0.000000000               0.000000000              -0.000180563               0.003839361               0.001512238              -0.000547631               0.001462317               0.000914686               0.000000000               0.000000000               0.000000000               0.000000000              -0.000134594               0.004120723               0.001344429              -0.000565562               0.001562081               0.000996519               0.000000000               0.000000000               0.000000000               0.000000000              -0.000098070               0.004321066               0.001189320              -0.000576909               0.001632644               0.001055735               0.000000000               0.000000000               0.000000000               0.000000000              -0.000067613               0.004461100               0.001049781              -0.000582991               0.001681349               0.001098357               0.000000000               0.000000000               0.000000000               0.000000000              -0.000038208               0.004554127               0.000924720              -0.000583593               0.001712558               0.001128965               0.000000000               0.000000000               0.000000000               0.000000000              -0.000006430               0.004617836               0.000811800              -0.000579640               0.001732476               0.001152837               0.000000000               0.000000000               0.000000000               0.000000000               0.000031674               0.004656395               0.000704447              -0.000570170               0.001742173               0.001172002               0.000000000               0.000000000               0.000000000               0.000000000               0.000076259               0.004663492               0.000592902              -0.000554338               0.001739261               0.001184923               0.000000000               0.000000000               0.000000000               0.000000000               0.000113820               0.004632865               0.000479646              -0.000536424               0.001723081               0.001186656               0.000000000               0.000000000               0.000000000               0.000000000               0.000134749               0.004578613               0.000367244              -0.000521795               0.001700121               0.001178326               0.000000000               0.000000000               0.000000000               0.000000000               0.000129009               0.004522033               0.000249967              -0.000516875               0.001679621               0.001162746               0.000000000               0.000000000               0.000000000               0.000000000               0.000082583               0.004474305               0.000127141              -0.000528318               0.001667526               0.001139208               0.000000000               0.000000000               0.000000000               0.000000000               0.000023125               0.004439143               0.000056947              -0.000546220               0.001661773               0.001115553               0.000000000               0.000000000               0.000000000               0.000000000              -0.001740087               0.000313633               0.000285669              -0.000691736               0.000335121              -0.000356615               0.000000000               0.000000000               0.000000000               0.000000000              -0.000809927               0.001079301               0.000909747              -0.000438635               0.000505974               0.000067339               0.000000000               0.000000000               0.000000000               0.000000000              -0.000287568               0.001919691               0.001425065              -0.000347800               0.000755823               0.000408023               0.000000000               0.000000000               0.000000000               0.000000000              -0.000064424               0.002584243               0.001485700              -0.000347190               0.000977135               0.000629945               0.000000000               0.000000000               0.000000000               0.000000000               0.000046521               0.003081789               0.001401287              -0.000367778               0.001149845               0.000782066               0.000000000               0.000000000               0.000000000               0.000000000               0.000103440               0.003448069               0.001280666              -0.000392219               0.001280084               0.000887865               0.000000000               0.000000000               0.000000000               0.000000000               0.000132270               0.003730824               0.001156771              -0.000416751               0.001382513               0.000965761               0.000000000               0.000000000               0.000000000               0.000000000               0.000149139               0.003950439               0.001038482              -0.000437877               0.001462759               0.001024882               0.000000000               0.000000000               0.000000000               0.000000000               0.000160085               0.004120630               0.000927930              -0.000455046               0.001525212               0.001070165               0.000000000               0.000000000               0.000000000               0.000000000               0.000172679               0.004261776               0.000825285              -0.000467966               0.001576566               0.001108600               0.000000000               0.000000000               0.000000000               0.000000000               0.000190928               0.004374396               0.000730456              -0.000475201               0.001616518               0.001141317               0.000000000               0.000000000               0.000000000               0.000000000               0.000221458               0.004453201               0.000633026              -0.000473602               0.001642253               0.001168651               0.000000000               0.000000000               0.000000000               0.000000000               0.000261666               0.004491336               0.000529886              -0.000463291               0.001651527               0.001188236               0.000000000               0.000000000               0.000000000               0.000000000               0.000300137               0.004494005               0.000423501              -0.000449198               0.001647720               0.001198521               0.000000000               0.000000000               0.000000000               0.000000000               0.000332969               0.004481161               0.000304889              -0.000435281               0.001638799               0.001203518               0.000000000               0.000000000               0.000000000               0.000000000               0.000345668               0.004461557               0.000163981              -0.000428068               0.001629860               0.001201792               0.000000000               0.000000000               0.000000000               0.000000000               0.000335928               0.004444219               0.000084308              -0.000429553               0.001624576               0.001195023               0.000000000               0.000000000               0.000000000               0.000000000              -0.002404208              -0.000008838               0.000082314              -0.000900473               0.000297210              -0.000603263               0.000000000               0.000000000               0.000000000               0.000000000              -0.001119974               0.000580390               0.000587803              -0.000492539               0.000357640              -0.000134898               0.000000000               0.000000000               0.000000000               0.000000000              -0.000264694               0.001236567               0.001027158              -0.000253831               0.000496794               0.000242963               0.000000000               0.000000000               0.000000000               0.000000000               0.000101875               0.001878200               0.001118859              -0.000196573               0.000691584               0.000495011               0.000000000               0.000000000               0.000000000               0.000000000               0.000271782               0.002411686               0.001087453              -0.000199543               0.000870401               0.000670858               0.000000000               0.000000000               0.000000000               0.000000000               0.000347029               0.002833696               0.001015099              -0.000224077               0.001019248               0.000795171               0.000000000               0.000000000               0.000000000               0.000000000               0.000375501               0.003174195               0.000934474              -0.000255962               0.001143375               0.000887413               0.000000000               0.000000000               0.000000000               0.000000000               0.000381707               0.003455216               0.000851935              -0.000288762               0.001247981               0.000959219               0.000000000               0.000000000               0.000000000               0.000000000               0.000378447               0.003690674               0.000769452              -0.000319416               0.001336684               0.001017268               0.000000000               0.000000000               0.000000000               0.000000000               0.000377457               0.003893188               0.000691185              -0.000345101               0.001412750               0.001067649               0.000000000               0.000000000               0.000000000               0.000000000               0.000384590               0.004065457               0.000618500              -0.000363960               0.001476459               0.001112498               0.000000000               0.000000000               0.000000000               0.000000000               0.000403156               0.004203197               0.000545717              -0.000374215               0.001525790               0.001151575               0.000000000               0.000000000               0.000000000               0.000000000               0.000441904               0.004307844               0.000465346              -0.000372766               0.001560189               0.001187423               0.000000000               0.000000000               0.000000000               0.000000000               0.000498582               0.004379870               0.000378841              -0.000360515               0.001580114               0.001219599               0.000000000               0.000000000               0.000000000               0.000000000               0.000571308               0.004421370               0.000279697              -0.000338430               0.001586585               0.001248155               0.000000000               0.000000000               0.000000000               0.000000000               0.000657724               0.004437356               0.000154196              -0.000308022               0.001581778               0.001273756               0.000000000               0.000000000               0.000000000               0.000000000               0.000722170               0.004445531               0.000085747              -0.000284877               0.001576788               0.001291911               0.000000000               0.000000000               0.000000000               0.000000000              -0.002846151              -0.000172951               0.000004313              -0.001045687               0.000290910              -0.000754777               0.000000000               0.000000000               0.000000000               0.000000000              -0.001339378               0.000282095               0.000284977              -0.000537528               0.000273206              -0.000264322               0.000000000               0.000000000               0.000000000               0.000000000              -0.000259422               0.000798318               0.000535831              -0.000197073               0.000331794               0.000134721               0.000000000               0.000000000               0.000000000               0.000000000               0.000219657               0.001403724               0.000600570              -0.000093095               0.000498934               0.000405840               0.000000000               0.000000000               0.000000000               0.000000000               0.000437608               0.001943935               0.000594404              -0.000078889               0.000674268               0.000595379               0.000000000               0.000000000               0.000000000               0.000000000               0.000531815               0.002397637               0.000562383              -0.000100274               0.000832629               0.000732355               0.000000000               0.000000000               0.000000000               0.000000000               0.000565380               0.002777294               0.000524582              -0.000135144               0.000970803               0.000835659               0.000000000               0.000000000               0.000000000               0.000000000               0.000566263               0.003093872               0.000483516              -0.000174385               0.001089409               0.000915023               0.000000000               0.000000000               0.000000000               0.000000000               0.000558341               0.003365581               0.000440127              -0.000211320               0.001192289               0.000980969               0.000000000               0.000000000               0.000000000               0.000000000               0.000553386               0.003602550               0.000398345              -0.000242799               0.001281771               0.001038972               0.000000000               0.000000000               0.000000000               0.000000000               0.000556549               0.003807817               0.000358611              -0.000267271               0.001358350               0.001091079               0.000000000               0.000000000               0.000000000               0.000000000               0.000571553               0.003986461               0.000318984              -0.000283975               0.001423465               0.001139490               0.000000000               0.000000000               0.000000000               0.000000000               0.000606960               0.004138716               0.000274995              -0.000289729               0.001476135               0.001186406               0.000000000               0.000000000               0.000000000               0.000000000               0.000671260               0.004262689               0.000225659              -0.000281113               0.001514586               0.001233473               0.000000000               0.000000000               0.000000000               0.000000000               0.000768923               0.004354905               0.000168485              -0.000256016               0.001536959               0.001280943               0.000000000               0.000000000               0.000000000               0.000000000               0.000908311               0.004410442               0.000093315              -0.000210688               0.001540362               0.001329674               0.000000000               0.000000000               0.000000000               0.000000000               0.001029368               0.004442266               0.000052578              -0.000169270               0.001537164               0.001367894               0.000000000               0.000000000               0.000000000               0.000000000              -0.003000708              -0.000222157               0.000000000              -0.001097495               0.000291777              -0.000805718               0.000000000               0.000000000               0.000000000               0.000000000              -0.001418586               0.000184115               0.000000000              -0.000554983               0.000246364              -0.000308619               0.000000000               0.000000000               0.000000000               0.000000000              -0.000260276               0.000647329              -0.000000000              -0.000178519               0.000275280               0.000096761               0.000000000               0.000000000               0.000000000               0.000000000               0.000262204               0.001235148              -0.000000000              -0.000056067               0.000430401               0.000374334               0.000000000               0.000000000               0.000000000               0.000000000               0.000497599               0.001775792              -0.000000000              -0.000035374               0.000603716               0.000568342               0.000000000               0.000000000               0.000000000               0.000000000               0.000601273               0.002241325              -0.000000000              -0.000054688               0.000765330               0.000710642               0.000000000               0.000000000               0.000000000               0.000000000               0.000635991               0.002633598              -0.000000000              -0.000090703               0.000908092               0.000817389               0.000000000               0.000000000               0.000000000               0.000000000               0.000637173               0.002961476              -0.000000000              -0.000131244               0.001030897               0.000899653               0.000000000               0.000000000               0.000000000               0.000000000               0.000629460               0.003242544              -0.000000000              -0.000169270               0.001137260               0.000967990               0.000000000               0.000000000               0.000000000               0.000000000               0.000625573               0.003489578               0.000000000              -0.000201607               0.001230383               0.001028776               0.000000000               0.000000000               0.000000000               0.000000000               0.000628066               0.003707168               0.000000000              -0.000227871               0.001311667               0.001083797               0.000000000               0.000000000               0.000000000               0.000000000               0.000642920               0.003899779              -0.000000000              -0.000246377               0.001382039               0.001135662               0.000000000               0.000000000               0.000000000               0.000000000               0.000676662               0.004069087              -0.000000000              -0.000254887               0.001441311               0.001186424               0.000000000               0.000000000               0.000000000               0.000000000               0.000742591               0.004216238               0.000000000              -0.000248558               0.001488251               0.001239694               0.000000000               0.000000000               0.000000000               0.000000000               0.000847180               0.004329836              -0.000000000              -0.000223537               0.001517777               0.001294240               0.000000000               0.000000000               0.000000000               0.000000000               0.001002769               0.004399292               0.000000000              -0.000173873               0.001524374               0.001350501               0.000000000               0.000000000               0.000000000               0.000000000               0.001144072               0.004439272               0.000000000              -0.000125882               0.001521703               0.001395822               0.000000000               0.000000000               0.000000000               0.000000000               0.001284003               0.014579466              -0.000000000              -0.001340929               0.005306750               0.003965821               0.000000000               0.000000000               0.000000000               0.000000000               0.001361751               0.011801980               0.000000000              -0.000964588               0.004255483               0.003290895               0.000000000               0.000000000               0.000000000               0.000000000               0.001871632               0.009558667               0.000000000              -0.000492970               0.003350514               0.002857544               0.000000000               0.000000000               0.000000000               0.000000000               0.001906540               0.008304324               0.000000000              -0.000323087               0.002875776               0.002552689               0.000000000               0.000000000               0.000000000               0.000000000               0.001776505               0.007535443              -0.000000000              -0.000275740               0.002603703               0.002327962               0.000000000               0.000000000               0.000000000               0.000000000               0.001598015               0.007039581               0.000000000              -0.000280691               0.002440067               0.002159376               0.000000000               0.000000000               0.000000000               0.000000000               0.001400606               0.006702618               0.000000000              -0.000312599               0.002338383               0.002025784               0.000000000               0.000000000               0.000000000               0.000000000               0.001199218               0.006463873              -0.000000000              -0.000358277               0.002274028               0.001915752               0.000000000               0.000000000               0.000000000               0.000000000               0.001007483               0.006292790              -0.000000000              -0.000408792               0.002233839               0.001825048               0.000000000               0.000000000               0.000000000               0.000000000               0.000829492               0.006162709              -0.000000000              -0.000459278               0.002207308               0.001748031               0.000000000               0.000000000               0.000000000               0.000000000               0.000664805               0.006059939              -0.000000000              -0.000508189               0.002189356               0.001681167               0.000000000               0.000000000               0.000000000               0.000000000               0.000511360               0.005974223              -0.000000000              -0.000555016               0.002176393               0.001621377               0.000000000               0.000000000               0.000000000               0.000000000               0.000370230               0.005890566              -0.000000000              -0.000597483               0.002162663               0.001565180               0.000000000               0.000000000               0.000000000               0.000000000               0.000243518               0.005794153              -0.000000000              -0.000632948               0.002142348               0.001509400               0.000000000               0.000000000               0.000000000               0.000000000               0.000137963               0.005677457               0.000000000              -0.000657944               0.002111781               0.001453837               0.000000000               0.000000000               0.000000000               0.000000000               0.000058796               0.005536334              -0.000000000              -0.000669992               0.002068757               0.001398765               0.000000000               0.000000000               0.000000000               0.000000000               0.000014560               0.005425373              -0.000000000              -0.000672710               0.002032676               0.001359966               0.000000000               0.000000000               0.000000000               0.000000000               0.001350880               0.014307429              -0.001054139              -0.001281846               0.005196377               0.003914532               0.000000000               0.000000000               0.000000000               0.000000000               0.001367866               0.011618176              -0.000617375              -0.000939320               0.004185793               0.003246473               0.000000000               0.000000000               0.000000000               0.000000000               0.001810434               0.009464216              -0.000174128              -0.000504113               0.003322745               0.002818632               0.000000000               0.000000000               0.000000000               0.000000000               0.001814289               0.008256851               0.000021939              -0.000351747               0.002869505               0.002517758               0.000000000               0.000000000               0.000000000               0.000000000               0.001669609               0.007516945               0.000109438              -0.000313514               0.002610128               0.002296614               0.000000000               0.000000000               0.000000000               0.000000000               0.001485015               0.007034939               0.000146712              -0.000322486               0.002452451               0.002129966               0.000000000               0.000000000               0.000000000               0.000000000               0.001292148               0.006705075               0.000158922              -0.000353578               0.002352862               0.001999284               0.000000000               0.000000000               0.000000000               0.000000000               0.001102743               0.006472598               0.000161001              -0.000395545               0.002289359               0.001893814               0.000000000               0.000000000               0.000000000               0.000000000               0.000922777               0.006301924               0.000157308              -0.000441698               0.002247853               0.001806155               0.000000000               0.000000000               0.000000000               0.000000000               0.000755665               0.006170924               0.000150731              -0.000487990               0.002219618               0.001731628               0.000000000               0.000000000               0.000000000               0.000000000               0.000602432               0.006067311               0.000145654              -0.000532501               0.002199917               0.001667416               0.000000000               0.000000000               0.000000000               0.000000000               0.000460753               0.005979275               0.000137991              -0.000574626               0.002184614               0.001609988               0.000000000               0.000000000               0.000000000               0.000000000               0.000331100               0.005890728               0.000123150              -0.000612177               0.002167616               0.001555438               0.000000000               0.000000000               0.000000000               0.000000000               0.000216908               0.005791851               0.000102103              -0.000642639               0.002144811               0.001502172               0.000000000               0.000000000               0.000000000               0.000000000               0.000122434               0.005676820               0.000076729              -0.000663688               0.002113484               0.001449796               0.000000000               0.000000000               0.000000000               0.000000000               0.000051862               0.005540399               0.000043148              -0.000673100               0.002071148               0.001398048               0.000000000               0.000000000               0.000000000               0.000000000               0.000012071               0.005435294               0.000026244              -0.000674884               0.002036708               0.001361824               0.000000000               0.000000000               0.000000000               0.000000000               0.001529834               0.013527189              -0.001988035              -0.001117209               0.004881421               0.003764212               0.000000000               0.000000000               0.000000000               0.000000000               0.001373229               0.011087932              -0.001172087              -0.000871029               0.003986283               0.003115254               0.000000000               0.000000000               0.000000000               0.000000000               0.001627837               0.009194919              -0.000350166              -0.000538925               0.003244584               0.002705659               0.000000000               0.000000000               0.000000000               0.000000000               0.001555372               0.008122768               0.000006904              -0.000432080               0.002851589               0.002419509               0.000000000               0.000000000               0.000000000               0.000000000               0.001386146               0.007456594               0.000166416              -0.000412268               0.002622929               0.002210661               0.000000000               0.000000000               0.000000000               0.000000000               0.001198500               0.007015697               0.000236428              -0.000427524               0.002481050               0.002053527               0.000000000               0.000000000               0.000000000               0.000000000               0.001016190               0.006708610               0.000263871              -0.000457504               0.002388682               0.001931178               0.000000000               0.000000000               0.000000000               0.000000000               0.000848873               0.006486102               0.000271693              -0.000492434               0.002326157               0.001833723               0.000000000               0.000000000               0.000000000               0.000000000               0.000697006               0.006316730               0.000268376              -0.000528213               0.002281627               0.001753414               0.000000000               0.000000000               0.000000000               0.000000000               0.000562039               0.006184368               0.000261663              -0.000562280               0.002248862               0.001686582               0.000000000               0.000000000               0.000000000               0.000000000               0.000442548               0.006074699               0.000256112              -0.000593380               0.002222673               0.001629293               0.000000000               0.000000000               0.000000000               0.000000000               0.000335129               0.005972850               0.000243303              -0.000620931               0.002197907               0.001576976               0.000000000               0.000000000               0.000000000               0.000000000               0.000241232               0.005870966               0.000218490              -0.000643407               0.002171438               0.001528031               0.000000000               0.000000000               0.000000000               0.000000000               0.000160869               0.005765732               0.000184441              -0.000660389               0.002142021               0.001481632               0.000000000               0.000000000               0.000000000               0.000000000               0.000094581               0.005656146               0.000140193              -0.000671549               0.002109213               0.001437664               0.000000000               0.000000000               0.000000000               0.000000000               0.000042349               0.005542485               0.000080342              -0.000676928               0.002073119               0.001396191               0.000000000               0.000000000               0.000000000               0.000000000               0.000012045               0.005465466               0.000049106              -0.000678665               0.002048025               0.001369361               0.000000000               0.000000000               0.000000000               0.000000000               0.001759918               0.012343698              -0.002697330              -0.000882993               0.004408855               0.003525863               0.000000000               0.000000000               0.000000000               0.000000000               0.001352446               0.010286632              -0.001599959              -0.000778660               0.003688396               0.002909736               0.000000000               0.000000000               0.000000000               0.000000000               0.001340738               0.008793043              -0.000506507              -0.000596352               0.003129769               0.002533417               0.000000000               0.000000000               0.000000000               0.000000000               0.001175855               0.007918218              -0.000047799              -0.000548830               0.002822323               0.002273493               0.000000000               0.000000000               0.000000000               0.000000000               0.000989088               0.007352509               0.000154870              -0.000548154               0.002633530               0.002085376               0.000000000               0.000000000               0.000000000               0.000000000               0.000813029               0.006967462               0.000244599              -0.000566045               0.002511146               0.001945101               0.000000000               0.000000000               0.000000000               0.000000000               0.000655586               0.006689287               0.000281449              -0.000590315               0.002426512               0.001836197               0.000000000               0.000000000               0.000000000               0.000000000               0.000522030               0.006475567               0.000295354              -0.000613683               0.002363062               0.001749379               0.000000000               0.000000000               0.000000000               0.000000000               0.000409703               0.006304947               0.000298120              -0.000634478               0.002313121               0.001678642               0.000000000               0.000000000               0.000000000               0.000000000               0.000317440               0.006164115               0.000295147              -0.000651473               0.002271842               0.001620369               0.000000000               0.000000000               0.000000000               0.000000000               0.000238531               0.006036309               0.000286869              -0.000665088               0.002233779               0.001568691               0.000000000               0.000000000               0.000000000               0.000000000               0.000174565               0.005912678               0.000268773              -0.000673621               0.002195413               0.001521792               0.000000000               0.000000000               0.000000000               0.000000000               0.000127357               0.005794333               0.000238183              -0.000676531               0.002156935               0.001480404               0.000000000               0.000000000               0.000000000               0.000000000               0.000085653               0.005680909               0.000196513              -0.000677992               0.002119615               0.001441623               0.000000000               0.000000000               0.000000000               0.000000000               0.000049696               0.005577928               0.000145052              -0.000678603               0.002085492               0.001406889               0.000000000               0.000000000               0.000000000               0.000000000               0.000022990               0.005495140               0.000080845              -0.000678270               0.002057785               0.001379515               0.000000000               0.000000000               0.000000000               0.000000000               0.000008108               0.005452662               0.000047297              -0.000678540               0.002043716               0.001365176               0.000000000               0.000000000               0.000000000               0.000000000               0.001954070               0.010893975              -0.003123316              -0.000628972               0.003840945               0.003211974               0.000000000               0.000000000               0.000000000               0.000000000               0.001276402               0.009323222              -0.001874929              -0.000686752               0.003336626               0.002649875               0.000000000               0.000000000               0.000000000               0.000000000               0.000978518               0.008308639              -0.000647107              -0.000671634               0.002993397               0.002321762               0.000000000               0.000000000               0.000000000               0.000000000               0.000738851               0.007654425              -0.000155209              -0.000679732               0.002778027               0.002098295               0.000000000               0.000000000               0.000000000               0.000000000               0.000555033               0.007196979               0.000060047              -0.000691483               0.002629464               0.001937980               0.000000000               0.000000000               0.000000000               0.000000000               0.000411285               0.006862659               0.000160219              -0.000703599               0.002522063               0.001818464               0.000000000               0.000000000               0.000000000               0.000000000               0.000295462               0.006606423               0.000205954              -0.000715003               0.002440453               0.001725451               0.000000000               0.000000000               0.000000000               0.000000000               0.000205072               0.006398735               0.000226780              -0.000722938               0.002373870               0.001650932               0.000000000               0.000000000               0.000000000               0.000000000               0.000137070               0.006222684               0.000237097              -0.000726432               0.002316352               0.001589919               0.000000000               0.000000000               0.000000000               0.000000000               0.000084540               0.006067952               0.000238612              -0.000726790               0.002264894               0.001538104               0.000000000               0.000000000               0.000000000               0.000000000               0.000047448               0.005923465               0.000231295              -0.000722638               0.002215348               0.001492710               0.000000000               0.000000000               0.000000000               0.000000000               0.000028242               0.005786737               0.000213749              -0.000712750               0.002166476               0.001453727               0.000000000               0.000000000               0.000000000               0.000000000               0.000020020               0.005659032               0.000184232              -0.000699870               0.002119615               0.001419745               0.000000000               0.000000000               0.000000000               0.000000000               0.000012166               0.005544646               0.000145804              -0.000688517               0.002077703               0.001389186               0.000000000               0.000000000               0.000000000               0.000000000               0.000003305               0.005450413               0.000102727              -0.000680061               0.002043473               0.001363412               0.000000000               0.000000000               0.000000000               0.000000000               0.000000464               0.005383089               0.000054472              -0.000672710               0.002018582               0.001345871               0.000000000               0.000000000               0.000000000               0.000000000              -0.000001577               0.005352038               0.000030403              -0.000669594               0.002007193               0.001337599               0.000000000               0.000000000               0.000000000               0.000000000               0.002037773               0.009310349              -0.003268501              -0.000399631               0.003236628               0.002836997               0.000000000               0.000000000               0.000000000               0.000000000               0.001132497               0.008295122              -0.002018702              -0.000612204               0.002969081               0.002356877               0.000000000               0.000000000               0.000000000               0.000000000               0.000584356               0.007780240              -0.000796642              -0.000753395               0.002844519               0.002091124               0.000000000               0.000000000               0.000000000               0.000000000               0.000310764               0.007335920              -0.000321711              -0.000800452               0.002712100               0.001911648               0.000000000               0.000000000               0.000000000               0.000000000               0.000157635               0.006975160              -0.000108491              -0.000812780               0.002595957               0.001783177               0.000000000               0.000000000               0.000000000               0.000000000               0.000062063               0.006685429               0.000002237              -0.000812403               0.002499255               0.001686852               0.000000000               0.000000000               0.000000000               0.000000000              -0.000002560               0.006445734               0.000061413              -0.000806675               0.002417448               0.001610773               0.000000000               0.000000000               0.000000000               0.000000000              -0.000048655               0.006238313               0.000095075              -0.000798033               0.002345428               0.001547395               0.000000000               0.000000000               0.000000000               0.000000000              -0.000075314               0.006059238               0.000118960              -0.000785646               0.002281608               0.001495962               0.000000000               0.000000000               0.000000000               0.000000000              -0.000084820               0.005901297               0.000132486              -0.000769468               0.002223568               0.001454101               0.000000000               0.000000000               0.000000000               0.000000000              -0.000081154               0.005752333               0.000133675              -0.000749473               0.002167249               0.001417777               0.000000000               0.000000000               0.000000000               0.000000000              -0.000068445               0.005609419               0.000124625              -0.000726842               0.002112068               0.001385226               0.000000000               0.000000000               0.000000000               0.000000000              -0.000053000               0.005481754               0.000106737              -0.000705093               0.002062264               0.001357171               0.000000000               0.000000000               0.000000000               0.000000000              -0.000040020               0.005376247               0.000083371              -0.000687037               0.002021077               0.001334040               0.000000000               0.000000000               0.000000000               0.000000000              -0.000029023               0.005294112               0.000057624              -0.000672646               0.001988902               0.001316256               0.000000000               0.000000000               0.000000000               0.000000000              -0.000015378               0.005234481               0.000029499              -0.000660075               0.001964834               0.001304759               0.000000000               0.000000000               0.000000000               0.000000000              -0.000011547               0.005203755               0.000016969              -0.000654798               0.001952833               0.001298036               0.000000000               0.000000000               0.000000000               0.000000000               0.001970119               0.007714076              -0.003171980              -0.000225468               0.002646488               0.002421020               0.000000000               0.000000000               0.000000000               0.000000000               0.000929104               0.007273348              -0.002062693              -0.000560755               0.002611343               0.002050588               0.000000000               0.000000000               0.000000000               0.000000000               0.000206415               0.007234506              -0.000963096              -0.000826906               0.002687113               0.001860207               0.000000000               0.000000000               0.000000000               0.000000000              -0.000053218               0.006971608              -0.000527129              -0.000891406               0.002620981               0.001729576               0.000000000               0.000000000               0.000000000               0.000000000              -0.000153878               0.006693710              -0.000313922              -0.000894416               0.002529353               0.001634937               0.000000000               0.000000000               0.000000000               0.000000000              -0.000199277               0.006442067              -0.000187242              -0.000879985               0.002440663               0.001560677               0.000000000               0.000000000               0.000000000               0.000000000              -0.000219362               0.006218302              -0.000107949              -0.000859546               0.002359262               0.001499716               0.000000000               0.000000000               0.000000000               0.000000000              -0.000221443               0.006022245              -0.000053209              -0.000835820               0.002286002               0.001450182               0.000000000               0.000000000               0.000000000               0.000000000              -0.000206803               0.005852451              -0.000008589              -0.000809106               0.002220499               0.001411394               0.000000000               0.000000000               0.000000000               0.000000000              -0.000178615               0.005695657               0.000021390              -0.000778936               0.002158179               0.001379243               0.000000000               0.000000000               0.000000000               0.000000000              -0.000144635               0.005541871               0.000034132              -0.000746970               0.002096262               0.001349292               0.000000000               0.000000000               0.000000000               0.000000000              -0.000109765               0.005400329               0.000039075              -0.000716201               0.002038825               0.001322624               0.000000000               0.000000000               0.000000000               0.000000000              -0.000078182               0.005281463               0.000041142              -0.000689499               0.001990303               0.001300804               0.000000000               0.000000000               0.000000000               0.000000000              -0.000053088               0.005186328               0.000038072              -0.000668197               0.001951491               0.001283294               0.000000000               0.000000000               0.000000000               0.000000000              -0.000034191               0.005111060               0.000029705              -0.000651702               0.001920904               0.001269201               0.000000000               0.000000000               0.000000000               0.000000000              -0.000016969               0.005052492               0.000017353              -0.000637923               0.001896788               0.001258865               0.000000000               0.000000000               0.000000000               0.000000000              -0.000013073               0.005018780               0.000013372              -0.000632248               0.001883659               0.001251411               0.000000000               0.000000000               0.000000000               0.000000000               0.001758606               0.006203484              -0.002886922              -0.000115962               0.002106460               0.001990498               0.000000000               0.000000000               0.000000000               0.000000000               0.000686111               0.006314490              -0.002031615              -0.000532020               0.002282148               0.001750128               0.000000000               0.000000000               0.000000000               0.000000000              -0.000108343               0.006684260              -0.001142645              -0.000876159               0.002520117               0.001643958               0.000000000               0.000000000               0.000000000               0.000000000              -0.000315322               0.006570296              -0.000745984              -0.000939531               0.002503254               0.001563723               0.000000000               0.000000000               0.000000000               0.000000000              -0.000359938               0.006366421              -0.000522152              -0.000930777               0.002432378               0.001501601               0.000000000               0.000000000               0.000000000               0.000000000              -0.000361175               0.006156632              -0.000371809              -0.000905017               0.002353863               0.001448845               0.000000000               0.000000000               0.000000000               0.000000000              -0.000342576               0.005961775              -0.000264915              -0.000873686               0.002278467               0.001404782               0.000000000               0.000000000               0.000000000               0.000000000              -0.000308682               0.005788790              -0.000186656              -0.000839352               0.002209361               0.001370009               0.000000000               0.000000000               0.000000000               0.000000000              -0.000260571               0.005628036              -0.000124495              -0.000801217               0.002143066               0.001341849               0.000000000               0.000000000               0.000000000               0.000000000              -0.000204913               0.005466583              -0.000079494              -0.000760164               0.002075564               0.001315400               0.000000000               0.000000000               0.000000000               0.000000000              -0.000149287               0.005312505              -0.000048936              -0.000720044               0.002010832               0.001290788               0.000000000               0.000000000               0.000000000               0.000000000              -0.000099771               0.005178797              -0.000022431              -0.000684762               0.001954503               0.001269740               0.000000000               0.000000000               0.000000000               0.000000000              -0.000065193               0.005065885              -0.000000351              -0.000657681               0.001907839               0.001250157               0.000000000               0.000000000               0.000000000               0.000000000              -0.000043251               0.004971616               0.000012803              -0.000637669               0.001869745               0.001232076               0.000000000               0.000000000               0.000000000               0.000000000              -0.000027030               0.004892343               0.000015862              -0.000621678               0.001837991               0.001216313               0.000000000               0.000000000               0.000000000               0.000000000              -0.000012176               0.004824996               0.000011435              -0.000607689               0.001810879               0.001203190               0.000000000               0.000000000               0.000000000               0.000000000              -0.000007158               0.004783899               0.000010961              -0.000600670               0.001794840               0.001194170               0.000000000               0.000000000               0.000000000               0.000000000               0.001468133               0.004897060              -0.002484381              -0.000061586               0.001652865               0.001591279               0.000000000               0.000000000               0.000000000               0.000000000               0.000464004               0.005453659              -0.001965959              -0.000507706               0.001987103               0.001479397               0.000000000               0.000000000               0.000000000               0.000000000              -0.000318923               0.006160448              -0.001349355              -0.000889651               0.002350012               0.001460361               0.000000000               0.000000000               0.000000000               0.000000000              -0.000465620               0.006200291              -0.000978566              -0.000949642               0.002383290               0.001433648               0.000000000               0.000000000               0.000000000               0.000000000              -0.000468031               0.006081584              -0.000732668              -0.000935708               0.002339077               0.001403369               0.000000000               0.000000000               0.000000000               0.000000000              -0.000438448               0.005927643              -0.000556381              -0.000905371               0.002277651               0.001372280               0.000000000               0.000000000               0.000000000               0.000000000              -0.000391310               0.005771852              -0.000426157              -0.000868221               0.002213338               0.001345117               0.000000000               0.000000000               0.000000000               0.000000000              -0.000330364               0.005620147              -0.000328654              -0.000826403               0.002148831               0.001322428               0.000000000               0.000000000               0.000000000               0.000000000              -0.000259587               0.005465743              -0.000251153              -0.000780561               0.002082083               0.001301522               0.000000000               0.000000000               0.000000000               0.000000000              -0.000183203               0.005306777              -0.000185390              -0.000732046               0.002012923               0.001280877               0.000000000               0.000000000               0.000000000               0.000000000              -0.000114103               0.005157446              -0.000128962              -0.000687468               0.001948287               0.001260820               0.000000000               0.000000000               0.000000000               0.000000000              -0.000069105               0.005023434              -0.000079693              -0.000653842               0.001892409               0.001238567               0.000000000               0.000000000               0.000000000               0.000000000              -0.000045689               0.004907487              -0.000039565              -0.000630568               0.001846002               0.001215434               0.000000000               0.000000000               0.000000000               0.000000000              -0.000039650               0.004804926              -0.000010869              -0.000615483               0.001806787               0.001191304               0.000000000               0.000000000               0.000000000               0.000000000              -0.000043608               0.004710307               0.000002944              -0.000605140               0.001771800               0.001166660               0.000000000               0.000000000               0.000000000               0.000000000              -0.000046471               0.004623057               0.000004347              -0.000595307               0.001739439               0.001144132               0.000000000               0.000000000               0.000000000               0.000000000              -0.000044170               0.004576083               0.000003547              -0.000588573               0.001721537               0.001132964               0.000000000               0.000000000               0.000000000               0.000000000               0.001083206               0.003663653              -0.002032180              -0.000051757               0.001238457               0.001186700               0.000000000               0.000000000               0.000000000               0.000000000               0.000301837               0.004469960              -0.001880703              -0.000445557               0.001638490               0.001192933               0.000000000               0.000000000               0.000000000               0.000000000              -0.000395943               0.005420844              -0.001577320              -0.000826083               0.002082290               0.001256207               0.000000000               0.000000000               0.000000000               0.000000000              -0.000518155               0.005665910              -0.001244979              -0.000902545               0.002189466               0.001286921               0.000000000               0.000000000               0.000000000               0.000000000              -0.000505483               0.005679607              -0.000981789              -0.000899505               0.002193018               0.001293513               0.000000000               0.000000000               0.000000000               0.000000000              -0.000461240               0.005618380              -0.000783342              -0.000875261               0.002164528               0.001289267               0.000000000               0.000000000               0.000000000               0.000000000              -0.000403150               0.005532482              -0.000633535              -0.000842740               0.002125055               0.001282316               0.000000000               0.000000000               0.000000000               0.000000000              -0.000336063               0.005433675              -0.000516586              -0.000805231               0.002079617               0.001274386               0.000000000               0.000000000               0.000000000               0.000000000              -0.000263907               0.005322223              -0.000417953              -0.000764241               0.002028804               0.001264563               0.000000000               0.000000000               0.000000000               0.000000000              -0.000191099               0.005197822              -0.000328989              -0.000721388               0.001973053               0.001251664               0.000000000               0.000000000               0.000000000               0.000000000              -0.000122978               0.005069913              -0.000244590              -0.000679854               0.001916572               0.001236718               0.000000000               0.000000000               0.000000000               0.000000000              -0.000077351               0.004942459              -0.000167895              -0.000646813               0.001863074               0.001216261               0.000000000               0.000000000               0.000000000               0.000000000              -0.000058234               0.004825421              -0.000104027              -0.000625014               0.001816795               0.001191782               0.000000000               0.000000000               0.000000000               0.000000000              -0.000057770               0.004725208              -0.000051763              -0.000612313               0.001779158               0.001166845               0.000000000               0.000000000               0.000000000               0.000000000              -0.000073606               0.004630495              -0.000017732              -0.000606413               0.001745620               0.001139208               0.000000000               0.000000000               0.000000000               0.000000000              -0.000097254               0.004534831              -0.000003550              -0.000603323               0.001712703               0.001109380               0.000000000               0.000000000               0.000000000               0.000000000              -0.000108763               0.004485630               0.000000097              -0.000601488               0.001695691               0.001094203               0.000000000               0.000000000               0.000000000               0.000000000               0.000526640               0.002533366              -0.001549862              -0.000119182               0.000884174               0.000764991               0.000000000               0.000000000               0.000000000               0.000000000               0.000111713               0.003495496              -0.001737258              -0.000395045               0.001296835               0.000901789               0.000000000               0.000000000               0.000000000               0.000000000              -0.000400215               0.004595294              -0.001749698              -0.000724492               0.001773246               0.001048754               0.000000000               0.000000000               0.000000000               0.000000000              -0.000495934               0.005034502              -0.001501829              -0.000815287               0.001949912               0.001134626               0.000000000               0.000000000               0.000000000               0.000000000              -0.000476834               0.005199511              -0.001246567              -0.000828750               0.002009403               0.001180653               0.000000000               0.000000000               0.000000000               0.000000000              -0.000430734               0.005249436              -0.001038342              -0.000817703               0.002022362               0.001204659               0.000000000               0.000000000               0.000000000               0.000000000              -0.000373540               0.005252604              -0.000872721              -0.000796651               0.002016401               0.001219750               0.000000000               0.000000000               0.000000000               0.000000000              -0.000312717               0.005225417              -0.000738388              -0.000770444               0.001998603               0.001228159               0.000000000               0.000000000               0.000000000               0.000000000              -0.000251997               0.005169941              -0.000621675              -0.000740740               0.001970210               0.001229470               0.000000000               0.000000000               0.000000000               0.000000000              -0.000187633               0.005095956              -0.000514525              -0.000707355               0.001934420               0.001227065               0.000000000               0.000000000               0.000000000               0.000000000              -0.000121966               0.005007033              -0.000410051              -0.000671615               0.001892866               0.001221251               0.000000000               0.000000000               0.000000000               0.000000000              -0.000068990               0.004899426              -0.000309328              -0.000638298               0.001845892               0.001207594               0.000000000               0.000000000               0.000000000               0.000000000              -0.000043374               0.004789825              -0.000218491              -0.000614992               0.001801590               0.001186598               0.000000000               0.000000000               0.000000000               0.000000000              -0.000045565               0.004690159              -0.000137951              -0.000603355               0.001764489               0.001161134               0.000000000               0.000000000               0.000000000               0.000000000              -0.000071721               0.004600171              -0.000073130              -0.000601915               0.001734014               0.001132098               0.000000000               0.000000000               0.000000000               0.000000000              -0.000118889               0.004517681              -0.000028088              -0.000609292               0.001708976               0.001099684               0.000000000               0.000000000               0.000000000               0.000000000              -0.000156197               0.004470017              -0.000006403              -0.000617324               0.001695766               0.001078441               0.000000000               0.000000000               0.000000000               0.000000000              -0.000170623               0.001575288              -0.001061010              -0.000260895               0.000612055               0.000351160               0.000000000               0.000000000               0.000000000               0.000000000              -0.000152198               0.002576672              -0.001512531              -0.000379159               0.000985267               0.000606109               0.000000000               0.000000000               0.000000000               0.000000000              -0.000370436               0.003688712              -0.001791667              -0.000600002               0.001429558               0.000829556               0.000000000               0.000000000               0.000000000               0.000000000              -0.000398056               0.004264764              -0.001658213              -0.000682366               0.001649029               0.000966663               0.000000000               0.000000000               0.000000000               0.000000000              -0.000365095               0.004571673              -0.001443422              -0.000708369               0.001759998               0.001051629               0.000000000               0.000000000               0.000000000               0.000000000              -0.000321160               0.004743186              -0.001244312              -0.000713332               0.001818823               0.001105491               0.000000000               0.000000000               0.000000000               0.000000000              -0.000273669               0.004846341              -0.001076033              -0.000708417               0.001851570               0.001143153               0.000000000               0.000000000               0.000000000               0.000000000              -0.000225503               0.004901347              -0.000932474              -0.000697231               0.001866176               0.001168946               0.000000000               0.000000000               0.000000000               0.000000000              -0.000180329               0.004915958              -0.000805665              -0.000682117               0.001866009               0.001183892               0.000000000               0.000000000               0.000000000               0.000000000              -0.000130541               0.004905024              -0.000691497              -0.000662079               0.001855685               0.001193605               0.000000000               0.000000000               0.000000000               0.000000000              -0.000074701               0.004872243              -0.000580330              -0.000637042               0.001836412               0.001199370               0.000000000               0.000000000               0.000000000               0.000000000              -0.000020924               0.004811754              -0.000467853              -0.000609314               0.001807007               0.001197692               0.000000000               0.000000000               0.000000000               0.000000000               0.000012945               0.004730092              -0.000357838              -0.000586406               0.001772150               0.001185744               0.000000000               0.000000000               0.000000000               0.000000000               0.000018461               0.004642269              -0.000253730              -0.000573359               0.001738527               0.001165168               0.000000000               0.000000000               0.000000000               0.000000000              -0.000007929               0.004561933              -0.000157968              -0.000573214               0.001711700               0.001138487               0.000000000               0.000000000               0.000000000               0.000000000              -0.000070057               0.004495227              -0.000072329              -0.000588173               0.001694452               0.001106278               0.000000000               0.000000000               0.000000000               0.000000000              -0.000130262               0.004451778              -0.000025278              -0.000605319               0.001685684               0.001080365               0.000000000               0.000000000               0.000000000               0.000000000              -0.000956426               0.000834819              -0.000621490              -0.000463012               0.000432607              -0.000030405               0.000000000               0.000000000               0.000000000               0.000000000              -0.000470125               0.001756903              -0.001227744              -0.000395910               0.000717598               0.000321688               0.000000000               0.000000000               0.000000000               0.000000000              -0.000326873               0.002769132              -0.001685724              -0.000468719               0.001079274               0.000610555               0.000000000               0.000000000               0.000000000               0.000000000              -0.000243430               0.003417982              -0.001663884              -0.000518534               0.001312160               0.000793626               0.000000000               0.000000000               0.000000000               0.000000000              -0.000180563               0.003839361              -0.001512238              -0.000547631               0.001462317               0.000914686               0.000000000               0.000000000               0.000000000               0.000000000              -0.000134594               0.004120723              -0.001344429              -0.000565562               0.001562081               0.000996519               0.000000000               0.000000000               0.000000000               0.000000000              -0.000098070               0.004321066              -0.001189320              -0.000576909               0.001632644               0.001055735               0.000000000               0.000000000               0.000000000               0.000000000              -0.000067613               0.004461100              -0.001049781              -0.000582991               0.001681349               0.001098357               0.000000000               0.000000000               0.000000000               0.000000000              -0.000038208               0.004554127              -0.000924720              -0.000583593               0.001712558               0.001128965               0.000000000               0.000000000               0.000000000               0.000000000              -0.000006430               0.004617836              -0.000811800              -0.000579640               0.001732476               0.001152837               0.000000000               0.000000000               0.000000000               0.000000000               0.000031674               0.004656395              -0.000704447              -0.000570170               0.001742173               0.001172002               0.000000000               0.000000000               0.000000000               0.000000000               0.000076259               0.004663492              -0.000592902              -0.000554338               0.001739261               0.001184923               0.000000000               0.000000000               0.000000000               0.000000000               0.000113820               0.004632865              -0.000479646              -0.000536424               0.001723081               0.001186656               0.000000000               0.000000000               0.000000000               0.000000000               0.000134749               0.004578613              -0.000367244              -0.000521795               0.001700121               0.001178326               0.000000000               0.000000000               0.000000000               0.000000000               0.000129009               0.004522033              -0.000249967              -0.000516875               0.001679621               0.001162746               0.000000000               0.000000000               0.000000000               0.000000000               0.000082583               0.004474305              -0.000127141              -0.000528318               0.001667526               0.001139208               0.000000000               0.000000000               0.000000000               0.000000000               0.000023125               0.004439143              -0.000056947              -0.000546220               0.001661773               0.001115553               0.000000000               0.000000000               0.000000000               0.000000000              -0.001740087               0.000313633              -0.000285669              -0.000691736               0.000335121              -0.000356615               0.000000000               0.000000000               0.000000000               0.000000000              -0.000809927               0.001079301              -0.000909747              -0.000438635               0.000505974               0.000067339               0.000000000               0.000000000               0.000000000               0.000000000              -0.000287568               0.001919691              -0.001425065              -0.000347800               0.000755823               0.000408023               0.000000000               0.000000000               0.000000000               0.000000000              -0.000064424               0.002584243              -0.001485700              -0.000347190               0.000977135               0.000629945               0.000000000               0.000000000               0.000000000               0.000000000               0.000046521               0.003081789              -0.001401287              -0.000367778               0.001149845               0.000782066               0.000000000               0.000000000               0.000000000               0.000000000               0.000103440               0.003448069              -0.001280666              -0.000392219               0.001280084               0.000887865               0.000000000               0.000000000               0.000000000               0.000000000               0.000132270               0.003730824              -0.001156771              -0.000416751               0.001382513               0.000965761               0.000000000               0.000000000               0.000000000               0.000000000               0.000149139               0.003950439              -0.001038482              -0.000437877               0.001462759               0.001024882               0.000000000               0.000000000               0.000000000               0.000000000               0.000160085               0.004120630              -0.000927930              -0.000455046               0.001525212               0.001070165               0.000000000               0.000000000               0.000000000               0.000000000               0.000172679               0.004261776              -0.000825285              -0.000467966               0.001576566               0.001108600               0.000000000               0.000000000               0.000000000               0.000000000               0.000190928               0.004374396              -0.000730456              -0.000475201               0.001616518               0.001141317               0.000000000               0.000000000               0.000000000               0.000000000               0.000221458               0.004453201              -0.000633026              -0.000473602               0.001642253               0.001168651               0.000000000               0.000000000               0.000000000               0.000000000               0.000261666               0.004491336              -0.000529886              -0.000463291               0.001651527               0.001188236               0.000000000               0.000000000               0.000000000               0.000000000               0.000300137               0.004494005              -0.000423501              -0.000449198               0.001647720               0.001198521               0.000000000               0.000000000               0.000000000               0.000000000               0.000332969               0.004481161              -0.000304889              -0.000435281               0.001638799               0.001203518               0.000000000               0.000000000               0.000000000               0.000000000               0.000345668               0.004461557              -0.000163981              -0.000428068               0.001629860               0.001201792               0.000000000               0.000000000               0.000000000               0.000000000               0.000335928               0.004444219              -0.000084308              -0.000429553               0.001624576               0.001195023               0.000000000               0.000000000               0.000000000               0.000000000              -0.002404208              -0.000008838              -0.000082314              -0.000900473               0.000297210              -0.000603263               0.000000000               0.000000000               0.000000000               0.000000000              -0.001119974               0.000580390              -0.000587803              -0.000492539               0.000357640              -0.000134898               0.000000000               0.000000000               0.000000000               0.000000000              -0.000264694               0.001236567              -0.001027158              -0.000253831               0.000496794               0.000242963               0.000000000               0.000000000               0.000000000               0.000000000               0.000101875               0.001878200              -0.001118859              -0.000196573               0.000691584               0.000495011               0.000000000               0.000000000               0.000000000               0.000000000               0.000271782               0.002411686              -0.001087453              -0.000199543               0.000870401               0.000670858               0.000000000               0.000000000               0.000000000               0.000000000               0.000347029               0.002833696              -0.001015099              -0.000224077               0.001019248               0.000795171               0.000000000               0.000000000               0.000000000               0.000000000               0.000375501               0.003174195              -0.000934474              -0.000255962               0.001143375               0.000887413               0.000000000               0.000000000               0.000000000               0.000000000               0.000381707               0.003455216              -0.000851935              -0.000288762               0.001247981               0.000959219               0.000000000               0.000000000               0.000000000               0.000000000               0.000378447               0.003690674              -0.000769452              -0.000319416               0.001336684               0.001017268               0.000000000               0.000000000               0.000000000               0.000000000               0.000377457               0.003893188              -0.000691185              -0.000345101               0.001412750               0.001067649               0.000000000               0.000000000               0.000000000               0.000000000               0.000384590               0.004065457              -0.000618500              -0.000363960               0.001476459               0.001112498               0.000000000               0.000000000               0.000000000               0.000000000               0.000403156               0.004203197              -0.000545717              -0.000374215               0.001525790               0.001151575               0.000000000               0.000000000               0.000000000               0.000000000               0.000441904               0.004307844              -0.000465346              -0.000372766               0.001560189               0.001187423               0.000000000               0.000000000               0.000000000               0.000000000               0.000498582               0.004379870              -0.000378841              -0.000360515               0.001580114               0.001219599               0.000000000               0.000000000               0.000000000               0.000000000               0.000571308               0.004421370              -0.000279697              -0.000338430               0.001586585               0.001248155               0.000000000               0.000000000               0.000000000               0.000000000               0.000657724               0.004437356              -0.000154196              -0.000308022               0.001581778               0.001273756               0.000000000               0.000000000               0.000000000               0.000000000               0.000722170               0.004445531              -0.000085747              -0.000284877               0.001576788               0.001291911               0.000000000               0.000000000               0.000000000               0.000000000              -0.002846151              -0.000172951              -0.000004313              -0.001045687               0.000290910              -0.000754777               0.000000000               0.000000000               0.000000000               0.000000000              -0.001339378               0.000282095              -0.000284977              -0.000537528               0.000273206              -0.000264322               0.000000000               0.000000000               0.000000000               0.000000000              -0.000259422               0.000798318              -0.000535831              -0.000197073               0.000331794               0.000134721               0.000000000               0.000000000               0.000000000               0.000000000               0.000219657               0.001403724              -0.000600570              -0.000093095               0.000498934               0.000405840               0.000000000               0.000000000               0.000000000               0.000000000               0.000437608               0.001943935              -0.000594404              -0.000078889               0.000674268               0.000595379               0.000000000               0.000000000               0.000000000               0.000000000               0.000531815               0.002397637              -0.000562383              -0.000100274               0.000832629               0.000732355               0.000000000               0.000000000               0.000000000               0.000000000               0.000565380               0.002777294              -0.000524582              -0.000135144               0.000970803               0.000835659               0.000000000               0.000000000               0.000000000               0.000000000               0.000566263               0.003093872              -0.000483516              -0.000174385               0.001089409               0.000915023               0.000000000               0.000000000               0.000000000               0.000000000               0.000558341               0.003365581              -0.000440127              -0.000211320               0.001192289               0.000980969               0.000000000               0.000000000               0.000000000               0.000000000               0.000553386               0.003602550              -0.000398345              -0.000242799               0.001281771               0.001038972               0.000000000               0.000000000               0.000000000               0.000000000               0.000556549               0.003807817              -0.000358611              -0.000267271               0.001358350               0.001091079               0.000000000               0.000000000               0.000000000               0.000000000               0.000571553               0.003986461              -0.000318984              -0.000283975               0.001423465               0.001139490               0.000000000               0.000000000               0.000000000               0.000000000               0.000606960               0.004138716              -0.000274995              -0.000289729               0.001476135               0.001186406               0.000000000               0.000000000               0.000000000               0.000000000               0.000671260               0.004262689              -0.000225659              -0.000281113               0.001514586               0.001233473               0.000000000               0.000000000               0.000000000               0.000000000               0.000768923               0.004354905              -0.000168485              -0.000256016               0.001536959               0.001280943               0.000000000               0.000000000               0.000000000               0.000000000               0.000908311               0.004410442              -0.000093315              -0.000210688               0.001540362               0.001329674               0.000000000               0.000000000               0.000000000               0.000000000               0.001029368               0.004442266              -0.000052578              -0.000169270               0.001537164               0.001367894               0.000000000               0.000000000               0.000000000               0.000000000               0.000000000               0.000000000               0.000000000               0.000000000               0.000000000               0.000000000               0.000000000               0.000000000               0.000000000               0.000000000               0.000000000               0.000000000               0.000000000               0.000000000               0.000000000               0.000000000               0.000000000               0.000000000               0.000000000               0.000000000               0.000000000               0.000000000               0.000000000               0.000000000               0.000000000               0.000000000               0.000000000               0.000000000               0.000000000               0.000000000               0.000000000               0.000000000               0.000000000               0.000000000               0.000000000               0.000000000               0.000000000               0.000000000               0.000000000               0.000000000               0.000000000               0.000000000               0.000000000               0.000000000               0.000000000               0.000000000               0.000000000               0.000000000               0.000000000               0.000000000               0.000000000               0.000000000               0.000000000               0.000000000               0.000000000               0.000000000               0.000000000               0.000000000               0.000000000               0.000000000               0.000000000               0.000000000               0.000000000               0.000000000               0.000000000               0.000000000               0.000000000               0.000000000               0.000000000               0.000000000               0.000000000               0.000000000               0.000000000               0.000000000               0.000000000               0.000000000               0.000000000               0.000000000               0.000000000               0.000000000               0.000000000               0.000000000               0.000000000               0.000000000               0.000000000               0.000000000               0.000000000               0.000000000               0.000000000               0.000000000               0.000000000               0.000000000               0.000000000               0.000000000               0.000000000               0.000000000               0.000000000               0.000000000               0.000000000               0.000000000               0.000000000               0.000000000               0.000000000               0.000000000               0.000000000               0.000000000               0.000000000               0.000000000               0.000000000               0.000000000               0.000000000               0.000000000               0.000000000               0.000000000               0.000000000               0.000000000               0.000000000               0.000000000               0.000000000               0.000000000               0.000000000               0.000000000               0.000000000               0.000000000               0.000000000               0.000000000               0.000000000               0.000000000               0.000000000               0.000000000               0.000000000               0.000000000               0.000000000               0.000000000               0.000000000               0.000000000               0.000000000               0.000000000               0.000000000               0.000000000               0.000000000               0.000000000               0.000000000               0.000000000               0.000000000               0.000000000               0.000000000               0.000000000               0.000000000               0.000000000               0.000000000               0.000000000               0.000000000               0.000000000               0.000000000               0.000000000               0.000000000               0.000000000               0.000000000               0.000000000               0.000000000               0.000000000               0.000000000               0.000000000               0.000000000               0.000000000               0.000000000               0.000000000               0.000000000               0.000000000               0.000000000               0.000000000               0.000000000               0.000000000               0.000000000               0.000000000               0.000000000               0.000000000               0.000000000               0.000000000               0.000000000               0.000000000               0.000000000               0.000000000               0.000000000               0.000000000               0.000000000               0.000000000               0.000000000               0.000000000               0.000000000               0.000000000               0.000000000               0.000000000               0.000000000               0.000000000               0.000000000               0.000000000               0.000000000               0.000000000               0.000000000               0.000000000               0.000000000               0.000000000               0.000000000               0.000000000               0.000000000               0.000000000               0.000000000               0.000000000               0.000000000               0.000000000               0.000000000               0.000000000               0.000000000               0.000000000               0.000000000               0.000000000               0.000000000               0.000000000               0.000000000               0.000000000               0.000000000               0.000000000               0.000000000               0.000000000               0.000000000               0.000000000               0.000000000               0.000000000               0.000000000               0.000000000               0.000000000               0.000000000               0.000000000               0.000000000               0.000000000               0.000000000               0.000000000               0.000000000               0.000000000               0.000000000               0.000000000               0.000000000               0.000000000               0.000000000               0.000000000               0.000000000               0.000000000               0.000000000               0.000000000               0.000000000               0.000000000               0.000000000               0.000000000               0.000000000               0.000000000               0.000000000               0.000000000               0.000000000               0.000000000               0.000000000               0.000000000               0.000000000               0.000000000               0.000000000               0.000000000               0.000000000               0.000000000               0.000000000               0.000000000               0.000000000               0.000000000               0.000000000               0.000000000               0.000000000               0.000000000               0.000000000               0.000000000               0.000000000               0.000000000               0.000000000               0.000000000               0.000000000               0.000000000               0.000000000               0.000000000               0.000000000               0.000000000               0.000000000               0.000000000               0.000000000               0.000000000               0.000000000               0.000000000               0.000000000               0.000000000               0.000000000               0.000000000               0.000000000               0.000000000               0.000000000               0.000000000               0.000000000               0.000000000               0.000000000               0.000000000               0.000000000               0.000000000               0.000000000               0.000000000               0.000000000               0.000000000               0.000000000               0.000000000               0.000000000               0.000000000               0.000000000               0.000000000               0.000000000               0.000000000               0.000000000               0.000000000               0.000000000               0.000000000               0.000000000               0.000000000               0.000000000               0.000000000               0.000000000               0.000000000               0.000000000               0.000000000               0.000000000               0.000000000               0.000000000               0.000000000               0.000000000               0.000000000               0.000000000               0.001350880               0.014307429               0.001054139              -0.001281846               0.005196377               0.003914532               0.000000000               0.000000000               0.000000000               0.000000000               0.001367866               0.011618176               0.000617375              -0.000939320               0.004185793               0.003246473               0.000000000               0.000000000               0.000000000               0.000000000               0.001810434               0.009464216               0.000174128              -0.000504113               0.003322745               0.002818632               0.000000000               0.000000000               0.000000000               0.000000000               0.001814289               0.008256851              -0.000021939              -0.000351747               0.002869505               0.002517758               0.000000000               0.000000000               0.000000000               0.000000000               0.001669609               0.007516945              -0.000109438              -0.000313514               0.002610128               0.002296614               0.000000000               0.000000000               0.000000000               0.000000000               0.001485015               0.007034939              -0.000146712              -0.000322486               0.002452451               0.002129966               0.000000000               0.000000000               0.000000000               0.000000000               0.001292148               0.006705075              -0.000158922              -0.000353578               0.002352862               0.001999284               0.000000000               0.000000000               0.000000000               0.000000000               0.001102743               0.006472598              -0.000161001              -0.000395545               0.002289359               0.001893814               0.000000000               0.000000000               0.000000000               0.000000000               0.000922777               0.006301924              -0.000157308              -0.000441698               0.002247853               0.001806155               0.000000000               0.000000000               0.000000000               0.000000000               0.000755665               0.006170924              -0.000150731              -0.000487990               0.002219618               0.001731628               0.000000000               0.000000000               0.000000000               0.000000000               0.000602432               0.006067311              -0.000145654              -0.000532501               0.002199917               0.001667416               0.000000000               0.000000000               0.000000000               0.000000000               0.000460753               0.005979275              -0.000137991              -0.000574626               0.002184614               0.001609988               0.000000000               0.000000000               0.000000000               0.000000000               0.000331100               0.005890728              -0.000123150              -0.000612177               0.002167616               0.001555438               0.000000000               0.000000000               0.000000000               0.000000000               0.000216908               0.005791851              -0.000102103              -0.000642639               0.002144811               0.001502172               0.000000000               0.000000000               0.000000000               0.000000000               0.000122434               0.005676820              -0.000076729              -0.000663688               0.002113484               0.001449796               0.000000000               0.000000000               0.000000000               0.000000000               0.000051862               0.005540399              -0.000043148              -0.000673100               0.002071148               0.001398048               0.000000000               0.000000000               0.000000000               0.000000000               0.000012071               0.005435294              -0.000026244              -0.000674884               0.002036708               0.001361824               0.000000000               0.000000000               0.000000000               0.000000000               0.001529834               0.013527189               0.001988035              -0.001117209               0.004881421               0.003764212               0.000000000               0.000000000               0.000000000               0.000000000               0.001373229               0.011087932               0.001172087              -0.000871029               0.003986283               0.003115254               0.000000000               0.000000000               0.000000000               0.000000000               0.001627837               0.009194919               0.000350166              -0.000538925               0.003244584               0.002705659               0.000000000               0.000000000               0.000000000               0.000000000               0.001555372               0.008122768              -0.000006904              -0.000432080               0.002851589               0.002419509               0.000000000               0.000000000               0.000000000               0.000000000               0.001386146               0.007456594              -0.000166416              -0.000412268               0.002622929               0.002210661               0.000000000               0.000000000               0.000000000               0.000000000               0.001198500               0.007015697              -0.000236428              -0.000427524               0.002481050               0.002053527               0.000000000               0.000000000               0.000000000               0.000000000               0.001016190               0.006708610              -0.000263871              -0.000457504               0.002388682               0.001931178               0.000000000               0.000000000               0.000000000               0.000000000               0.000848873               0.006486102              -0.000271693              -0.000492434               0.002326157               0.001833723               0.000000000               0.000000000               0.000000000               0.000000000               0.000697006               0.006316730              -0.000268376              -0.000528213               0.002281627               0.001753414               0.000000000               0.000000000               0.000000000               0.000000000               0.000562039               0.006184368              -0.000261663              -0.000562280               0.002248862               0.001686582               0.000000000               0.000000000               0.000000000               0.000000000               0.000442548               0.006074699              -0.000256112              -0.000593380               0.002222673               0.001629293               0.000000000               0.000000000               0.000000000               0.000000000               0.000335129               0.005972850              -0.000243303              -0.000620931               0.002197907               0.001576976               0.000000000               0.000000000               0.000000000               0.000000000               0.000241232               0.005870966              -0.000218490              -0.000643407               0.002171438               0.001528031               0.000000000               0.000000000               0.000000000               0.000000000               0.000160869               0.005765732              -0.000184441              -0.000660389               0.002142021               0.001481632               0.000000000               0.000000000               0.000000000               0.000000000               0.000094581               0.005656146              -0.000140193              -0.000671549               0.002109213               0.001437664               0.000000000               0.000000000               0.000000000               0.000000000               0.000042349               0.005542485              -0.000080342              -0.000676928               0.002073119               0.001396191               0.000000000               0.000000000               0.000000000               0.000000000               0.000012045               0.005465466              -0.000049106              -0.000678665               0.002048025               0.001369361               0.000000000               0.000000000               0.000000000               0.000000000               0.001759918               0.012343698               0.002697330              -0.000882993               0.004408855               0.003525863               0.000000000               0.000000000               0.000000000               0.000000000               0.001352446               0.010286632               0.001599959              -0.000778660               0.003688396               0.002909736               0.000000000               0.000000000               0.000000000               0.000000000               0.001340738               0.008793043               0.000506507              -0.000596352               0.003129769               0.002533417               0.000000000               0.000000000               0.000000000               0.000000000               0.001175855               0.007918218               0.000047799              -0.000548830               0.002822323               0.002273493               0.000000000               0.000000000               0.000000000               0.000000000               0.000989088               0.007352509              -0.000154870              -0.000548154               0.002633530               0.002085376               0.000000000               0.000000000               0.000000000               0.000000000               0.000813029               0.006967462              -0.000244599              -0.000566045               0.002511146               0.001945101               0.000000000               0.000000000               0.000000000               0.000000000               0.000655586               0.006689287              -0.000281449              -0.000590315               0.002426512               0.001836197               0.000000000               0.000000000               0.000000000               0.000000000               0.000522030               0.006475567              -0.000295354              -0.000613683               0.002363062               0.001749379               0.000000000               0.000000000               0.000000000               0.000000000               0.000409703               0.006304947              -0.000298120              -0.000634478               0.002313121               0.001678642               0.000000000               0.000000000               0.000000000               0.000000000               0.000317440               0.006164115              -0.000295147              -0.000651473               0.002271842               0.001620369               0.000000000               0.000000000               0.000000000               0.000000000               0.000238531               0.006036309              -0.000286869              -0.000665088               0.002233779               0.001568691               0.000000000               0.000000000               0.000000000               0.000000000               0.000174565               0.005912678              -0.000268773              -0.000673621               0.002195413               0.001521792               0.000000000               0.000000000               0.000000000               0.000000000               0.000127357               0.005794333              -0.000238183              -0.000676531               0.002156935               0.001480404               0.000000000               0.000000000               0.000000000               0.000000000               0.000085653               0.005680909              -0.000196513              -0.000677992               0.002119615               0.001441623               0.000000000               0.000000000               0.000000000               0.000000000               0.000049696               0.005577928              -0.000145052              -0.000678603               0.002085492               0.001406889               0.000000000               0.000000000               0.000000000               0.000000000               0.000022990               0.005495140              -0.000080845              -0.000678270               0.002057785               0.001379515               0.000000000               0.000000000               0.000000000               0.000000000               0.000008108               0.005452662              -0.000047297              -0.000678540               0.002043716               0.001365176               0.000000000               0.000000000               0.000000000               0.000000000               0.001954070               0.010893975               0.003123316              -0.000628972               0.003840945               0.003211974               0.000000000               0.000000000               0.000000000               0.000000000               0.001276402               0.009323222               0.001874929              -0.000686752               0.003336626               0.002649875               0.000000000               0.000000000               0.000000000               0.000000000               0.000978518               0.008308639               0.000647107              -0.000671634               0.002993397               0.002321762               0.000000000               0.000000000               0.000000000               0.000000000               0.000738851               0.007654425               0.000155209              -0.000679732               0.002778027               0.002098295               0.000000000               0.000000000               0.000000000               0.000000000               0.000555033               0.007196979              -0.000060047              -0.000691483               0.002629464               0.001937980               0.000000000               0.000000000               0.000000000               0.000000000               0.000411285               0.006862659              -0.000160219              -0.000703599               0.002522063               0.001818464               0.000000000               0.000000000               0.000000000               0.000000000               0.000295462               0.006606423              -0.000205954              -0.000715003               0.002440453               0.001725451               0.000000000               0.000000000               0.000000000               0.000000000               0.000205072               0.006398735              -0.000226780              -0.000722938               0.002373870               0.001650932               0.000000000               0.000000000               0.000000000               0.000000000               0.000137070               0.006222684              -0.000237097              -0.000726432               0.002316352               0.001589919               0.000000000               0.000000000               0.000000000               0.000000000               0.000084540               0.006067952              -0.000238612              -0.000726790               0.002264894               0.001538104               0.000000000               0.000000000               0.000000000               0.000000000               0.000047448               0.005923465              -0.000231295              -0.000722638               0.002215348               0.001492710               0.000000000               0.000000000               0.000000000               0.000000000               0.000028242               0.005786737              -0.000213749              -0.000712750               0.002166476               0.001453727               0.000000000               0.000000000               0.000000000               0.000000000               0.000020020               0.005659032              -0.000184232              -0.000699870               0.002119615               0.001419745               0.000000000               0.000000000               0.000000000               0.000000000               0.000012166               0.005544646              -0.000145804              -0.000688517               0.002077703               0.001389186               0.000000000               0.000000000               0.000000000               0.000000000               0.000003305               0.005450413              -0.000102727              -0.000680061               0.002043473               0.001363412               0.000000000               0.000000000               0.000000000               0.000000000               0.000000464               0.005383089              -0.000054472              -0.000672710               0.002018582               0.001345871               0.000000000               0.000000000               0.000000000               0.000000000              -0.000001577               0.005352038              -0.000030403              -0.000669594               0.002007193               0.001337599               0.000000000               0.000000000               0.000000000               0.000000000               0.002037773               0.009310349               0.003268501              -0.000399631               0.003236628               0.002836997               0.000000000               0.000000000               0.000000000               0.000000000               0.001132497               0.008295122               0.002018702              -0.000612204               0.002969081               0.002356877               0.000000000               0.000000000               0.000000000               0.000000000               0.000584356               0.007780240               0.000796642              -0.000753395               0.002844519               0.002091124               0.000000000               0.000000000               0.000000000               0.000000000               0.000310764               0.007335920               0.000321711              -0.000800452               0.002712100               0.001911648               0.000000000               0.000000000               0.000000000               0.000000000               0.000157635               0.006975160               0.000108491              -0.000812780               0.002595957               0.001783177               0.000000000               0.000000000               0.000000000               0.000000000               0.000062063               0.006685429              -0.000002237              -0.000812403               0.002499255               0.001686852               0.000000000               0.000000000               0.000000000               0.000000000              -0.000002560               0.006445734              -0.000061413              -0.000806675               0.002417448               0.001610773               0.000000000               0.000000000               0.000000000               0.000000000              -0.000048655               0.006238313              -0.000095075              -0.000798033               0.002345428               0.001547395               0.000000000               0.000000000               0.000000000               0.000000000              -0.000075314               0.006059238              -0.000118960              -0.000785646               0.002281608               0.001495962               0.000000000               0.000000000               0.000000000               0.000000000              -0.000084820               0.005901297              -0.000132486              -0.000769468               0.002223568               0.001454101               0.000000000               0.000000000               0.000000000               0.000000000              -0.000081154               0.005752333              -0.000133675              -0.000749473               0.002167249               0.001417777               0.000000000               0.000000000               0.000000000               0.000000000              -0.000068445               0.005609419              -0.000124625              -0.000726842               0.002112068               0.001385226               0.000000000               0.000000000               0.000000000               0.000000000              -0.000053000               0.005481754              -0.000106737              -0.000705093               0.002062264               0.001357171               0.000000000               0.000000000               0.000000000               0.000000000              -0.000040020               0.005376247              -0.000083371              -0.000687037               0.002021077               0.001334040               0.000000000               0.000000000               0.000000000               0.000000000              -0.000029023               0.005294112              -0.000057624              -0.000672646               0.001988902               0.001316256               0.000000000               0.000000000               0.000000000               0.000000000              -0.000015378               0.005234481              -0.000029499              -0.000660075               0.001964834               0.001304759               0.000000000               0.000000000               0.000000000               0.000000000              -0.000011547               0.005203755              -0.000016969              -0.000654798               0.001952833               0.001298036               0.000000000               0.000000000               0.000000000               0.000000000               0.001970119               0.007714076               0.003171980              -0.000225468               0.002646488               0.002421020               0.000000000               0.000000000               0.000000000               0.000000000               0.000929104               0.007273348               0.002062693              -0.000560755               0.002611343               0.002050588               0.000000000               0.000000000               0.000000000               0.000000000               0.000206415               0.007234506               0.000963096              -0.000826906               0.002687113               0.001860207               0.000000000               0.000000000               0.000000000               0.000000000              -0.000053218               0.006971608               0.000527129              -0.000891406               0.002620981               0.001729576               0.000000000               0.000000000               0.000000000               0.000000000              -0.000153878               0.006693710               0.000313922              -0.000894416               0.002529353               0.001634937               0.000000000               0.000000000               0.000000000               0.000000000              -0.000199277               0.006442067               0.000187242              -0.000879985               0.002440663               0.001560677               0.000000000               0.000000000               0.000000000               0.000000000              -0.000219362               0.006218302               0.000107949              -0.000859546               0.002359262               0.001499716               0.000000000               0.000000000               0.000000000               0.000000000              -0.000221443               0.006022245               0.000053209              -0.000835820               0.002286002               0.001450182               0.000000000               0.000000000               0.000000000               0.000000000              -0.000206803               0.005852451               0.000008589              -0.000809106               0.002220499               0.001411394               0.000000000               0.000000000               0.000000000               0.000000000              -0.000178615               0.005695657              -0.000021390              -0.000778936               0.002158179               0.001379243               0.000000000               0.000000000               0.000000000               0.000000000              -0.000144635               0.005541871              -0.000034132              -0.000746970               0.002096262               0.001349292               0.000000000               0.000000000               0.000000000               0.000000000              -0.000109765               0.005400329              -0.000039075              -0.000716201               0.002038825               0.001322624               0.000000000               0.000000000               0.000000000               0.000000000              -0.000078182               0.005281463              -0.000041142              -0.000689499               0.001990303               0.001300804               0.000000000               0.000000000               0.000000000               0.000000000              -0.000053088               0.005186328              -0.000038072              -0.000668197               0.001951491               0.001283294               0.000000000               0.000000000               0.000000000               0.000000000              -0.000034191               0.005111060              -0.000029705              -0.000651702               0.001920904               0.001269201               0.000000000               0.000000000               0.000000000               0.000000000              -0.000016969               0.005052492              -0.000017353              -0.000637923               0.001896788               0.001258865               0.000000000               0.000000000               0.000000000               0.000000000              -0.000013073               0.005018780              -0.000013372              -0.000632248               0.001883659               0.001251411               0.000000000               0.000000000               0.000000000               0.000000000               0.001758606               0.006203484               0.002886922              -0.000115962               0.002106460               0.001990498               0.000000000               0.000000000               0.000000000               0.000000000               0.000686111               0.006314490               0.002031615              -0.000532020               0.002282148               0.001750128               0.000000000               0.000000000               0.000000000               0.000000000              -0.000108343               0.006684260               0.001142645              -0.000876159               0.002520117               0.001643958               0.000000000               0.000000000               0.000000000               0.000000000              -0.000315322               0.006570296               0.000745984              -0.000939531               0.002503254               0.001563723               0.000000000               0.000000000               0.000000000               0.000000000              -0.000359938               0.006366421               0.000522152              -0.000930777               0.002432378               0.001501601               0.000000000               0.000000000               0.000000000               0.000000000              -0.000361175               0.006156632               0.000371809              -0.000905017               0.002353863               0.001448845               0.000000000               0.000000000               0.000000000               0.000000000              -0.000342576               0.005961775               0.000264915              -0.000873686               0.002278467               0.001404782               0.000000000               0.000000000               0.000000000               0.000000000              -0.000308682               0.005788790               0.000186656              -0.000839352               0.002209361               0.001370009               0.000000000               0.000000000               0.000000000               0.000000000              -0.000260571               0.005628036               0.000124495              -0.000801217               0.002143066               0.001341849               0.000000000               0.000000000               0.000000000               0.000000000              -0.000204913               0.005466583               0.000079494              -0.000760164               0.002075564               0.001315400               0.000000000               0.000000000               0.000000000               0.000000000              -0.000149287               0.005312505               0.000048936              -0.000720044               0.002010832               0.001290788               0.000000000               0.000000000               0.000000000               0.000000000              -0.000099771               0.005178797               0.000022431              -0.000684762               0.001954503               0.001269740               0.000000000               0.000000000               0.000000000               0.000000000              -0.000065193               0.005065885               0.000000351              -0.000657681               0.001907839               0.001250157               0.000000000               0.000000000               0.000000000               0.000000000              -0.000043251               0.004971616              -0.000012803              -0.000637669               0.001869745               0.001232076               0.000000000               0.000000000               0.000000000               0.000000000              -0.000027030               0.004892343              -0.000015862              -0.000621678               0.001837991               0.001216313               0.000000000               0.000000000               0.000000000               0.000000000              -0.000012176               0.004824996              -0.000011435              -0.000607689               0.001810879               0.001203190               0.000000000               0.000000000               0.000000000               0.000000000              -0.000007158               0.004783899              -0.000010961              -0.000600670               0.001794840               0.001194170               0.000000000               0.000000000               0.000000000               0.000000000               0.001468133               0.004897060               0.002484381              -0.000061586               0.001652865               0.001591279               0.000000000               0.000000000               0.000000000               0.000000000               0.000464004               0.005453659               0.001965959              -0.000507706               0.001987103               0.001479397               0.000000000               0.000000000               0.000000000               0.000000000              -0.000318923               0.006160448               0.001349355              -0.000889651               0.002350012               0.001460361               0.000000000               0.000000000               0.000000000               0.000000000              -0.000465620               0.006200291               0.000978566              -0.000949642               0.002383290               0.001433648               0.000000000               0.000000000               0.000000000               0.000000000              -0.000468031               0.006081584               0.000732668              -0.000935708               0.002339077               0.001403369               0.000000000               0.000000000               0.000000000               0.000000000              -0.000438448               0.005927643               0.000556381              -0.000905371               0.002277651               0.001372280               0.000000000               0.000000000               0.000000000               0.000000000              -0.000391310               0.005771852               0.000426157              -0.000868221               0.002213338               0.001345117               0.000000000               0.000000000               0.000000000               0.000000000              -0.000330364               0.005620147               0.000328654              -0.000826403               0.002148831               0.001322428               0.000000000               0.000000000               0.000000000               0.000000000              -0.000259587               0.005465743               0.000251153              -0.000780561               0.002082083               0.001301522               0.000000000               0.000000000               0.000000000               0.000000000              -0.000183203               0.005306777               0.000185390              -0.000732046               0.002012923               0.001280877               0.000000000               0.000000000               0.000000000               0.000000000              -0.000114103               0.005157446               0.000128962              -0.000687468               0.001948287               0.001260820               0.000000000               0.000000000               0.000000000               0.000000000              -0.000069105               0.005023434               0.000079693              -0.000653842               0.001892409               0.001238567               0.000000000               0.000000000               0.000000000               0.000000000              -0.000045689               0.004907487               0.000039565              -0.000630568               0.001846002               0.001215434               0.000000000               0.000000000               0.000000000               0.000000000              -0.000039650               0.004804926               0.000010869              -0.000615483               0.001806787               0.001191304               0.000000000               0.000000000               0.000000000               0.000000000              -0.000043608               0.004710307              -0.000002944              -0.000605140               0.001771800               0.001166660               0.000000000               0.000000000               0.000000000               0.000000000              -0.000046471               0.004623057              -0.000004347              -0.000595307               0.001739439               0.001144132               0.000000000               0.000000000               0.000000000               0.000000000              -0.000044170               0.004576083              -0.000003547              -0.000588573               0.001721537               0.001132964               0.000000000               0.000000000               0.000000000               0.000000000               0.001083206               0.003663653               0.002032180              -0.000051757               0.001238457               0.001186700               0.000000000               0.000000000               0.000000000               0.000000000               0.000301837               0.004469960               0.001880703              -0.000445557               0.001638490               0.001192933               0.000000000               0.000000000               0.000000000               0.000000000              -0.000395943               0.005420844               0.001577320              -0.000826083               0.002082290               0.001256207               0.000000000               0.000000000               0.000000000               0.000000000              -0.000518155               0.005665910               0.001244979              -0.000902545               0.002189466               0.001286921               0.000000000               0.000000000               0.000000000               0.000000000              -0.000505483               0.005679607               0.000981789              -0.000899505               0.002193018               0.001293513               0.000000000               0.000000000               0.000000000               0.000000000              -0.000461240               0.005618380               0.000783342              -0.000875261               0.002164528               0.001289267               0.000000000               0.000000000               0.000000000               0.000000000              -0.000403150               0.005532482               0.000633535              -0.000842740               0.002125055               0.001282316               0.000000000               0.000000000               0.000000000               0.000000000              -0.000336063               0.005433675               0.000516586              -0.000805231               0.002079617               0.001274386               0.000000000               0.000000000               0.000000000               0.000000000              -0.000263907               0.005322223               0.000417953              -0.000764241               0.002028804               0.001264563               0.000000000               0.000000000               0.000000000               0.000000000              -0.000191099               0.005197822               0.000328989              -0.000721388               0.001973053               0.001251664               0.000000000               0.000000000               0.000000000               0.000000000              -0.000122978               0.005069913               0.000244590              -0.000679854               0.001916572               0.001236718               0.000000000               0.000000000               0.000000000               0.000000000              -0.000077351               0.004942459               0.000167895              -0.000646813               0.001863074               0.001216261               0.000000000               0.000000000               0.000000000               0.000000000              -0.000058234               0.004825421               0.000104027              -0.000625014               0.001816795               0.001191782               0.000000000               0.000000000               0.000000000               0.000000000              -0.000057770               0.004725208               0.000051763              -0.000612313               0.001779158               0.001166845               0.000000000               0.000000000               0.000000000               0.000000000              -0.000073606               0.004630495               0.000017732              -0.000606413               0.001745620               0.001139208               0.000000000               0.000000000               0.000000000               0.000000000              -0.000097254               0.004534831               0.000003550              -0.000603323               0.001712703               0.001109380               0.000000000               0.000000000               0.000000000               0.000000000              -0.000108763               0.004485630              -0.000000097              -0.000601488               0.001695691               0.001094203               0.000000000               0.000000000               0.000000000               0.000000000               0.000526640               0.002533366               0.001549862              -0.000119182               0.000884174               0.000764991               0.000000000               0.000000000               0.000000000               0.000000000               0.000111713               0.003495496               0.001737258              -0.000395045               0.001296835               0.000901789               0.000000000               0.000000000               0.000000000               0.000000000              -0.000400215               0.004595294               0.001749698              -0.000724492               0.001773246               0.001048754               0.000000000               0.000000000               0.000000000               0.000000000              -0.000495934               0.005034502               0.001501829              -0.000815287               0.001949912               0.001134626               0.000000000               0.000000000               0.000000000               0.000000000              -0.000476834               0.005199511               0.001246567              -0.000828750               0.002009403               0.001180653               0.000000000               0.000000000               0.000000000               0.000000000              -0.000430734               0.005249436               0.001038342              -0.000817703               0.002022362               0.001204659               0.000000000               0.000000000               0.000000000               0.000000000              -0.000373540               0.005252604               0.000872721              -0.000796651               0.002016401               0.001219750               0.000000000               0.000000000               0.000000000               0.000000000              -0.000312717               0.005225417               0.000738388              -0.000770444               0.001998603               0.001228159               0.000000000               0.000000000               0.000000000               0.000000000              -0.000251997               0.005169941               0.000621675              -0.000740740               0.001970210               0.001229470               0.000000000               0.000000000               0.000000000               0.000000000              -0.000187633               0.005095956               0.000514525              -0.000707355               0.001934420               0.001227065               0.000000000               0.000000000               0.000000000               0.000000000              -0.000121966               0.005007033               0.000410051              -0.000671615               0.001892866               0.001221251               0.000000000               0.000000000               0.000000000               0.000000000              -0.000068990               0.004899426               0.000309328              -0.000638298               0.001845892               0.001207594               0.000000000               0.000000000               0.000000000               0.000000000              -0.000043374               0.004789825               0.000218491              -0.000614992               0.001801590               0.001186598               0.000000000               0.000000000               0.000000000               0.000000000              -0.000045565               0.004690159               0.000137951              -0.000603355               0.001764489               0.001161134               0.000000000               0.000000000               0.000000000               0.000000000              -0.000071721               0.004600171               0.000073130              -0.000601915               0.001734014               0.001132098               0.000000000               0.000000000               0.000000000               0.000000000              -0.000118889               0.004517681               0.000028088              -0.000609292               0.001708976               0.001099684               0.000000000               0.000000000               0.000000000               0.000000000              -0.000156197               0.004470017               0.000006403              -0.000617324               0.001695766               0.001078441               0.000000000               0.000000000               0.000000000               0.000000000              -0.000170623               0.001575288               0.001061010              -0.000260895               0.000612055               0.000351160               0.000000000               0.000000000               0.000000000               0.000000000              -0.000152198               0.002576672               0.001512531              -0.000379159               0.000985267               0.000606109               0.000000000               0.000000000               0.000000000               0.000000000              -0.000370436               0.003688712               0.001791667              -0.000600002               0.001429558               0.000829556               0.000000000               0.000000000               0.000000000               0.000000000              -0.000398056               0.004264764               0.001658213              -0.000682366               0.001649029               0.000966663               0.000000000               0.000000000               0.000000000               0.000000000              -0.000365095               0.004571673               0.001443422              -0.000708369               0.001759998               0.001051629               0.000000000               0.000000000               0.000000000               0.000000000              -0.000321160               0.004743186               0.001244312              -0.000713332               0.001818823               0.001105491               0.000000000               0.000000000               0.000000000               0.000000000              -0.000273669               0.004846341               0.001076033              -0.000708417               0.001851570               0.001143153               0.000000000               0.000000000               0.000000000               0.000000000              -0.000225503               0.004901347               0.000932474              -0.000697231               0.001866176               0.001168946               0.000000000               0.000000000               0.000000000               0.000000000              -0.000180329               0.004915958               0.000805665              -0.000682117               0.001866009               0.001183892               0.000000000               0.000000000               0.000000000               0.000000000              -0.000130541               0.004905024               0.000691497              -0.000662079               0.001855685               0.001193605               0.000000000               0.000000000               0.000000000               0.000000000              -0.000074701               0.004872243               0.000580330              -0.000637042               0.001836412               0.001199370               0.000000000               0.000000000               0.000000000               0.000000000              -0.000020924               0.004811754               0.000467853              -0.000609314               0.001807007               0.001197692               0.000000000               0.000000000               0.000000000               0.000000000               0.000012945               0.004730092               0.000357838              -0.000586406               0.001772150               0.001185744               0.000000000               0.000000000               0.000000000               0.000000000               0.000018461               0.004642269               0.000253730              -0.000573359               0.001738527               0.001165168               0.000000000               0.000000000               0.000000000               0.000000000              -0.000007929               0.004561933               0.000157968              -0.000573214               0.001711700               0.001138487               0.000000000               0.000000000               0.000000000               0.000000000              -0.000070057               0.004495227               0.000072329              -0.000588173               0.001694452               0.001106278               0.000000000               0.000000000               0.000000000               0.000000000              -0.000130262               0.004451778               0.000025278              -0.000605319               0.001685684               0.001080365               0.000000000               0.000000000               0.000000000               0.000000000              -0.000956426               0.000834819               0.000621490              -0.000463012               0.000432607              -0.000030405               0.000000000               0.000000000               0.000000000               0.000000000              -0.000470125               0.001756903               0.001227744              -0.000395910               0.000717598               0.000321688               0.000000000               0.000000000               0.000000000               0.000000000              -0.000326873               0.002769132               0.001685724              -0.000468719               0.001079274               0.000610555               0.000000000               0.000000000               0.000000000               0.000000000              -0.000243430               0.003417982               0.001663884              -0.000518534               0.001312160               0.000793626               0.000000000               0.000000000               0.000000000               0.000000000              -0.000180563               0.003839361               0.001512238              -0.000547631               0.001462317               0.000914686               0.000000000               0.000000000               0.000000000               0.000000000              -0.000134594               0.004120723               0.001344429              -0.000565562               0.001562081               0.000996519               0.000000000               0.000000000               0.000000000               0.000000000              -0.000098070               0.004321066               0.001189320              -0.000576909               0.001632644               0.001055735               0.000000000               0.000000000               0.000000000               0.000000000              -0.000067613               0.004461100               0.001049781              -0.000582991               0.001681349               0.001098357               0.000000000               0.000000000               0.000000000               0.000000000              -0.000038208               0.004554127               0.000924720              -0.000583593               0.001712558               0.001128965               0.000000000               0.000000000               0.000000000               0.000000000              -0.000006430               0.004617836               0.000811800              -0.000579640               0.001732476               0.001152837               0.000000000               0.000000000               0.000000000               0.000000000               0.000031674               0.004656395               0.000704447              -0.000570170               0.001742173               0.001172002               0.000000000               0.000000000               0.000000000               0.000000000               0.000076259               0.004663492               0.000592902              -0.000554338               0.001739261               0.001184923               0.000000000               0.000000000               0.000000000               0.000000000               0.000113820               0.004632865               0.000479646              -0.000536424               0.001723081               0.001186656               0.000000000               0.000000000               0.000000000               0.000000000               0.000134749               0.004578613               0.000367244              -0.000521795               0.001700121               0.001178326               0.000000000               0.000000000               0.000000000               0.000000000               0.000129009               0.004522033               0.000249967              -0.000516875               0.001679621               0.001162746               0.000000000               0.000000000               0.000000000               0.000000000               0.000082583               0.004474305               0.000127141              -0.000528318               0.001667526               0.001139208               0.000000000               0.000000000               0.000000000               0.000000000               0.000023125               0.004439143               0.000056947              -0.000546220               0.001661773               0.001115553               0.000000000               0.000000000               0.000000000               0.000000000              -0.001740087               0.000313633               0.000285669              -0.000691736               0.000335121              -0.000356615               0.000000000               0.000000000               0.000000000               0.000000000              -0.000809927               0.001079301               0.000909747              -0.000438635               0.000505974               0.000067339               0.000000000               0.000000000               0.000000000               0.000000000              -0.000287568               0.001919691               0.001425065              -0.000347800               0.000755823               0.000408023               0.000000000               0.000000000               0.000000000               0.000000000              -0.000064424               0.002584243               0.001485700              -0.000347190               0.000977135               0.000629945               0.000000000               0.000000000               0.000000000               0.000000000               0.000046521               0.003081789               0.001401287              -0.000367778               0.001149845               0.000782066               0.000000000               0.000000000               0.000000000               0.000000000               0.000103440               0.003448069               0.001280666              -0.000392219               0.001280084               0.000887865               0.000000000               0.000000000               0.000000000               0.000000000               0.000132270               0.003730824               0.001156771              -0.000416751               0.001382513               0.000965761               0.000000000               0.000000000               0.000000000               0.000000000               0.000149139               0.003950439               0.001038482              -0.000437877               0.001462759               0.001024882               0.000000000               0.000000000               0.000000000               0.000000000               0.000160085               0.004120630               0.000927930              -0.000455046               0.001525212               0.001070165               0.000000000               0.000000000               0.000000000               0.000000000               0.000172679               0.004261776               0.000825285              -0.000467966               0.001576566               0.001108600               0.000000000               0.000000000               0.000000000               0.000000000               0.000190928               0.004374396               0.000730456              -0.000475201               0.001616518               0.001141317               0.000000000               0.000000000               0.000000000               0.000000000               0.000221458               0.004453201               0.000633026              -0.000473602               0.001642253               0.001168651               0.000000000               0.000000000               0.000000000               0.000000000               0.000261666               0.004491336               0.000529886              -0.000463291               0.001651527               0.001188236               0.000000000               0.000000000               0.000000000               0.000000000               0.000300137               0.004494005               0.000423501              -0.000449198               0.001647720               0.001198521               0.000000000               0.000000000               0.000000000               0.000000000               0.000332969               0.004481161               0.000304889              -0.000435281               0.001638799               0.001203518               0.000000000               0.000000000               0.000000000               0.000000000               0.000345668               0.004461557               0.000163981              -0.000428068               0.001629860               0.001201792               0.000000000               0.000000000               0.000000000               0.000000000               0.000335928               0.004444219               0.000084308              -0.000429553               0.001624576               0.001195023               0.000000000               0.000000000               0.000000000               0.000000000              -0.002404208              -0.000008838               0.000082314              -0.000900473               0.000297210              -0.000603263               0.000000000               0.000000000               0.000000000               0.000000000              -0.001119974               0.000580390               0.000587803              -0.000492539               0.000357640              -0.000134898               0.000000000               0.000000000               0.000000000               0.000000000              -0.000264694               0.001236567               0.001027158              -0.000253831               0.000496794               0.000242963               0.000000000               0.000000000               0.000000000               0.000000000               0.000101875               0.001878200               0.001118859              -0.000196573               0.000691584               0.000495011               0.000000000               0.000000000               0.000000000               0.000000000               0.000271782               0.002411686               0.001087453              -0.000199543               0.000870401               0.000670858               0.000000000               0.000000000               0.000000000               0.000000000               0.000347029               0.002833696               0.001015099              -0.000224077               0.001019248               0.000795171               0.000000000               0.000000000               0.000000000               0.000000000               0.000375501               0.003174195               0.000934474              -0.000255962               0.001143375               0.000887413               0.000000000               0.000000000               0.000000000               0.000000000               0.000381707               0.003455216               0.000851935              -0.000288762               0.001247981               0.000959219               0.000000000               0.000000000               0.000000000               0.000000000               0.000378447               0.003690674               0.000769452              -0.000319416               0.001336684               0.001017268               0.000000000               0.000000000               0.000000000               0.000000000               0.000377457               0.003893188               0.000691185              -0.000345101               0.001412750               0.001067649               0.000000000               0.000000000               0.000000000               0.000000000               0.000384590               0.004065457               0.000618500              -0.000363960               0.001476459               0.001112498               0.000000000               0.000000000               0.000000000               0.000000000               0.000403156               0.004203197               0.000545717              -0.000374215               0.001525790               0.001151575               0.000000000               0.000000000               0.000000000               0.000000000               0.000441904               0.004307844               0.000465346              -0.000372766               0.001560189               0.001187423               0.000000000               0.000000000               0.000000000               0.000000000               0.000498582               0.004379870               0.000378841              -0.000360515               0.001580114               0.001219599               0.000000000               0.000000000               0.000000000               0.000000000               0.000571308               0.004421370               0.000279697              -0.000338430               0.001586585               0.001248155               0.000000000               0.000000000               0.000000000               0.000000000               0.000657724               0.004437356               0.000154196              -0.000308022               0.001581778               0.001273756               0.000000000               0.000000000               0.000000000               0.000000000               0.000722170               0.004445531               0.000085747              -0.000284877               0.001576788               0.001291911               0.000000000               0.000000000               0.000000000               0.000000000              -0.002846151              -0.000172951               0.000004313              -0.001045687               0.000290910              -0.000754777               0.000000000               0.000000000               0.000000000               0.000000000              -0.001339378               0.000282095               0.000284977              -0.000537528               0.000273206              -0.000264322               0.000000000               0.000000000               0.000000000               0.000000000              -0.000259422               0.000798318               0.000535831              -0.000197073               0.000331794               0.000134721               0.000000000               0.000000000               0.000000000               0.000000000               0.000219657               0.001403724               0.000600570              -0.000093095               0.000498934               0.000405840               0.000000000               0.000000000               0.000000000               0.000000000               0.000437608               0.001943935               0.000594404              -0.000078889               0.000674268               0.000595379               0.000000000               0.000000000               0.000000000               0.000000000               0.000531815               0.002397637               0.000562383              -0.000100274               0.000832629               0.000732355               0.000000000               0.000000000               0.000000000               0.000000000               0.000565380               0.002777294               0.000524582              -0.000135144               0.000970803               0.000835659               0.000000000               0.000000000               0.000000000               0.000000000               0.000566263               0.003093872               0.000483516              -0.000174385               0.001089409               0.000915023               0.000000000               0.000000000               0.000000000               0.000000000               0.000558341               0.003365581               0.000440127              -0.000211320               0.001192289               0.000980969               0.000000000               0.000000000               0.000000000               0.000000000               0.000553386               0.003602550               0.000398345              -0.000242799               0.001281771               0.001038972               0.000000000               0.000000000               0.000000000               0.000000000               0.000556549               0.003807817               0.000358611              -0.000267271               0.001358350               0.001091079               0.000000000               0.000000000               0.000000000               0.000000000               0.000571553               0.003986461               0.000318984              -0.000283975               0.001423465               0.001139490               0.000000000               0.000000000               0.000000000               0.000000000               0.000606960               0.004138716               0.000274995              -0.000289729               0.001476135               0.001186406               0.000000000               0.000000000               0.000000000               0.000000000               0.000671260               0.004262689               0.000225659              -0.000281113               0.001514586               0.001233473               0.000000000               0.000000000               0.000000000               0.000000000               0.000768923               0.004354905               0.000168485              -0.000256016               0.001536959               0.001280943               0.000000000               0.000000000               0.000000000               0.000000000               0.000908311               0.004410442               0.000093315              -0.000210688               0.001540362               0.001329674               0.000000000               0.000000000               0.000000000               0.000000000               0.001029368               0.004442266               0.000052578              -0.000169270               0.001537164               0.001367894               0.000000000               0.000000000               0.000000000               0.000000000               0.000000000               0.000000000               0.000000000               0.000000000               0.000000000               0.000000000               0.000000000               0.000000000               0.000000000               0.000000000               0.000000000               0.000000000               0.000000000               0.000000000               0.000000000               0.000000000               0.000000000               0.000000000               0.000000000               0.000000000               0.000000000               0.000000000               0.000000000               0.000000000               0.000000000               0.000000000               0.000000000               0.000000000               0.000000000               0.000000000               0.000000000               0.000000000               0.000000000               0.000000000               0.000000000               0.000000000               0.000000000               0.000000000               0.000000000               0.000000000               0.000000000               0.000000000               0.000000000               0.000000000               0.000000000               0.000000000               0.000000000               0.000000000               0.000000000               0.000000000               0.000000000               0.000000000               0.000000000               0.000000000               0.000000000               0.000000000               0.000000000               0.000000000               0.000000000               0.000000000               0.000000000               0.000000000               0.000000000               0.000000000               0.000000000               0.000000000               0.000000000               0.000000000               0.000000000               0.000000000               0.000000000               0.000000000               0.000000000               0.000000000               0.000000000               0.000000000               0.000000000               0.000000000               0.000000000               0.000000000               0.000000000               0.000000000               0.000000000               0.000000000               0.000000000               0.000000000               0.000000000               0.000000000               0.000000000               0.000000000               0.000000000               0.000000000               0.000000000               0.000000000               0.000000000               0.000000000               0.000000000               0.000000000               0.000000000               0.000000000               0.000000000               0.000000000               0.000000000               0.000000000               0.000000000               0.000000000               0.000000000               0.000000000               0.000000000               0.000000000               0.000000000               0.000000000               0.000000000               0.000000000               0.000000000               0.000000000               0.000000000               0.000000000               0.000000000               0.000000000               0.000000000               0.000000000               0.000000000               0.000000000               0.000000000               0.000000000               0.000000000               0.000000000               0.000000000               0.000000000               0.000000000               0.000000000               0.000000000               0.000000000               0.000000000               0.000000000               0.000000000               0.000000000               0.000000000               0.000000000               0.000000000               0.000000000               0.000000000               0.000000000               0.000000000               0.000000000               0.000000000               0.000000000               0.000000000               0.000000000               0.000000000               0.000000000               0.000000000               0.000000000               0.000000000               0.000000000               0.000000000               0.000000000               0.000000000               0.000000000               0.000000000               0.000000000               0.000000000               0.000000000               0.000000000               0.000000000               0.000000000               0.000000000               0.000000000               0.000000000 </DataArray>
</PointData>
</Piece>
</UnstructuredGrid> </VTKFile>
