<?xml version="1.0"?>
<VTKFile type="UnstructuredGrid" version="0.1">
<UnstructuredGrid>
<Piece NumberOfPoints="      1156" NumberOfCells="      1024">
<Points>
<DataArray type="Float64"                                    Name="coordinates"                                                      NumberOfComponents=" 3" format="ascii">
              0.133000000               0.000000000               0.000000000               0.155937500               0.000000000               0.000000000               0.178875000               0.000000000               0.000000000               0.201812500               0.000000000               0.000000000               0.224750000               0.000000000               0.000000000               0.247687500               0.000000000               0.000000000               0.270625000               0.000000000               0.000000000               0.293562500               0.000000000               0.000000000               0.316500000               0.000000000               0.000000000               0.339437500               0.000000000               0.000000000               0.362375000               0.000000000               0.000000000               0.385312500               0.000000000               0.000000000               0.408250000               0.000000000               0.000000000               0.431187500               0.000000000               0.000000000               0.454125000               0.000000000               0.000000000               0.477062500               0.000000000               0.000000000               0.500000000               0.000000000               0.000000000               0.132359569               0.013036280               0.000000000               0.155337096               0.016127762               0.000000000               0.178314623               0.019219245               0.000000000               0.201292150               0.022310727               0.000000000               0.224269676               0.025402210               0.000000000               0.247247203               0.028493692               0.000000000               0.270224730               0.031585175               0.000000000               0.293202257               0.034676657               0.000000000               0.316179784               0.037768140               0.000000000               0.339157311               0.040859622               0.000000000               0.362134838               0.043951105               0.000000000               0.385112365               0.047042587               0.000000000               0.408089892               0.050134070               0.000000000               0.431067419               0.053225552               0.000000000               0.454044946               0.056317035               0.000000000               0.477022473               0.059408517               0.000000000               0.500000000               0.062500000               0.000000000               0.130444442               0.025947013               0.000000000               0.153541665               0.032137825               0.000000000               0.176638887               0.038328636               0.000000000               0.199736109               0.044519448               0.000000000               0.222833332               0.050710260               0.000000000               0.245930554               0.056901071               0.000000000               0.269027776               0.063091883               0.000000000               0.292124999               0.069282695               0.000000000               0.315222221               0.075473506               0.000000000               0.338319444               0.081664318               0.000000000               0.361416666               0.087855130               0.000000000               0.384513888               0.094045942               0.000000000               0.407611111               0.100236753               0.000000000               0.430708333               0.106427565               0.000000000               0.453805555               0.112618377               0.000000000               0.476902778               0.118809188               0.000000000               0.500000000               0.125000000               0.000000000               0.127273065               0.038607862               0.000000000               0.150568498               0.047913621               0.000000000               0.173863932               0.057219379               0.000000000               0.197159365               0.066525138               0.000000000               0.220454798               0.075830897               0.000000000               0.243750232               0.085136655               0.000000000               0.267045665               0.094442414               0.000000000               0.290341099               0.103748172               0.000000000               0.313636532               0.113053931               0.000000000               0.336931966               0.122359690               0.000000000               0.360227399               0.131665448               0.000000000               0.383522833               0.140971207               0.000000000               0.406818266               0.150276966               0.000000000               0.430113700               0.159582724               0.000000000               0.453409133               0.168888483               0.000000000               0.476704567               0.178194241               0.000000000               0.500000000               0.187500000               0.000000000               0.122875978               0.050896897               0.000000000               0.146446229               0.063340840               0.000000000               0.170016481               0.075784784               0.000000000               0.193586732               0.088228728               0.000000000               0.217156983               0.100672672               0.000000000               0.240727235               0.113116616               0.000000000               0.264297486               0.125560560               0.000000000               0.287867738               0.138004504               0.000000000               0.311437989               0.150448448               0.000000000               0.335008240               0.162892392               0.000000000               0.358578492               0.175336336               0.000000000               0.382148743               0.187780280               0.000000000               0.405718994               0.200224224               0.000000000               0.429289246               0.212668168               0.000000000               0.452859497               0.225112112               0.000000000               0.476429749               0.237556056               0.000000000               0.500000000               0.250000000               0.000000000               0.117295528               0.062695766               0.000000000               0.141214558               0.078308531               0.000000000               0.165133587               0.093921295               0.000000000               0.189052617               0.109534060               0.000000000               0.212971646               0.125146824               0.000000000               0.236890676               0.140759589               0.000000000               0.260809705               0.156372354               0.000000000               0.284728735               0.171985118               0.000000000               0.308647764               0.187597883               0.000000000               0.332566794               0.203210648               0.000000000               0.356485823               0.218823412               0.000000000               0.380404853               0.234436177               0.000000000               0.404323882               0.250048941               0.000000000               0.428242912               0.265661706               0.000000000               0.452161941               0.281274471               0.000000000               0.476080971               0.296887235               0.000000000               0.500000000               0.312500000               0.000000000               0.110585458               0.073890841               0.000000000               0.134923867               0.092710163               0.000000000               0.159262276               0.111529486               0.000000000               0.183600685               0.130348808               0.000000000               0.207939094               0.149168131               0.000000000               0.232277503               0.167987453               0.000000000               0.256615912               0.186806776               0.000000000               0.280954320               0.205626098               0.000000000               0.305292729               0.224445420               0.000000000               0.329631138               0.243264743               0.000000000               0.353969547               0.262084065               0.000000000               0.378307956               0.280903388               0.000000000               0.402646365               0.299722710               0.000000000               0.426984773               0.318542033               0.000000000               0.451323182               0.337361355               0.000000000               0.475661591               0.356180678               0.000000000               0.500000000               0.375000000               0.000000000               0.102810390               0.084374307               0.000000000               0.127634741               0.106444663               0.000000000               0.152459092               0.128515018               0.000000000               0.177283442               0.150585374               0.000000000               0.202107793               0.172655730               0.000000000               0.226932143               0.194726086               0.000000000               0.251756494               0.216796442               0.000000000               0.276580845               0.238866798               0.000000000               0.301405195               0.260937153               0.000000000               0.326229546               0.283007509               0.000000000               0.351053896               0.305077865               0.000000000               0.375878247               0.327148221               0.000000000               0.400702598               0.349218577               0.000000000               0.425526948               0.371288933               0.000000000               0.450351299               0.393359288               0.000000000               0.475175649               0.415429644               0.000000000               0.500000000               0.437500000               0.000000000               0.094045202               0.094045202               0.000000000               0.119417377               0.119417377               0.000000000               0.144789552               0.144789552               0.000000000               0.170161727               0.170161727               0.000000000               0.195533901               0.195533901               0.000000000               0.220906076               0.220906076               0.000000000               0.246278251               0.246278251               0.000000000               0.271650426               0.271650426               0.000000000               0.297022601               0.297022601               0.000000000               0.322394776               0.322394776               0.000000000               0.347766951               0.347766951               0.000000000               0.373139126               0.373139126               0.000000000               0.398511300               0.398511300               0.000000000               0.423883475               0.423883475               0.000000000               0.449255650               0.449255650               0.000000000               0.474627825               0.474627825               0.000000000               0.500000000               0.500000000               0.000000000               0.084374307               0.102810390               0.000000000               0.106444663               0.127634741               0.000000000               0.128515018               0.152459092               0.000000000               0.150585374               0.177283442               0.000000000               0.172655730               0.202107793               0.000000000               0.194726086               0.226932143               0.000000000               0.216796442               0.251756494               0.000000000               0.238866798               0.276580845               0.000000000               0.260937153               0.301405195               0.000000000               0.283007509               0.326229546               0.000000000               0.305077865               0.351053896               0.000000000               0.327148221               0.375878247               0.000000000               0.349218577               0.400702598               0.000000000               0.371288933               0.425526948               0.000000000               0.393359288               0.450351299               0.000000000               0.415429644               0.475175649               0.000000000               0.437500000               0.500000000               0.000000000               0.073890841               0.110585458               0.000000000               0.092710163               0.134923867               0.000000000               0.111529486               0.159262276               0.000000000               0.130348808               0.183600685               0.000000000               0.149168131               0.207939094               0.000000000               0.167987453               0.232277503               0.000000000               0.186806776               0.256615912               0.000000000               0.205626098               0.280954320               0.000000000               0.224445420               0.305292729               0.000000000               0.243264743               0.329631138               0.000000000               0.262084065               0.353969547               0.000000000               0.280903388               0.378307956               0.000000000               0.299722710               0.402646365               0.000000000               0.318542033               0.426984773               0.000000000               0.337361355               0.451323182               0.000000000               0.356180678               0.475661591               0.000000000               0.375000000               0.500000000               0.000000000               0.062695766               0.117295528               0.000000000               0.078308531               0.141214558               0.000000000               0.093921295               0.165133587               0.000000000               0.109534060               0.189052617               0.000000000               0.125146824               0.212971646               0.000000000               0.140759589               0.236890676               0.000000000               0.156372354               0.260809705               0.000000000               0.171985118               0.284728735               0.000000000               0.187597883               0.308647764               0.000000000               0.203210648               0.332566794               0.000000000               0.218823412               0.356485823               0.000000000               0.234436177               0.380404853               0.000000000               0.250048941               0.404323882               0.000000000               0.265661706               0.428242912               0.000000000               0.281274471               0.452161941               0.000000000               0.296887235               0.476080971               0.000000000               0.312500000               0.500000000               0.000000000               0.050896897               0.122875978               0.000000000               0.063340840               0.146446229               0.000000000               0.075784784               0.170016481               0.000000000               0.088228728               0.193586732               0.000000000               0.100672672               0.217156983               0.000000000               0.113116616               0.240727235               0.000000000               0.125560560               0.264297486               0.000000000               0.138004504               0.287867738               0.000000000               0.150448448               0.311437989               0.000000000               0.162892392               0.335008240               0.000000000               0.175336336               0.358578492               0.000000000               0.187780280               0.382148743               0.000000000               0.200224224               0.405718994               0.000000000               0.212668168               0.429289246               0.000000000               0.225112112               0.452859497               0.000000000               0.237556056               0.476429749               0.000000000               0.250000000               0.500000000               0.000000000               0.038607862               0.127273065               0.000000000               0.047913621               0.150568498               0.000000000               0.057219379               0.173863932               0.000000000               0.066525138               0.197159365               0.000000000               0.075830897               0.220454798               0.000000000               0.085136655               0.243750232               0.000000000               0.094442414               0.267045665               0.000000000               0.103748172               0.290341099               0.000000000               0.113053931               0.313636532               0.000000000               0.122359690               0.336931966               0.000000000               0.131665448               0.360227399               0.000000000               0.140971207               0.383522833               0.000000000               0.150276966               0.406818266               0.000000000               0.159582724               0.430113700               0.000000000               0.168888483               0.453409133               0.000000000               0.178194241               0.476704567               0.000000000               0.187500000               0.500000000               0.000000000               0.025947013               0.130444442               0.000000000               0.032137825               0.153541665               0.000000000               0.038328636               0.176638887               0.000000000               0.044519448               0.199736109               0.000000000               0.050710260               0.222833332               0.000000000               0.056901071               0.245930554               0.000000000               0.063091883               0.269027776               0.000000000               0.069282695               0.292124999               0.000000000               0.075473506               0.315222221               0.000000000               0.081664318               0.338319444               0.000000000               0.087855130               0.361416666               0.000000000               0.094045942               0.384513888               0.000000000               0.100236753               0.407611111               0.000000000               0.106427565               0.430708333               0.000000000               0.112618377               0.453805555               0.000000000               0.118809188               0.476902778               0.000000000               0.125000000               0.500000000               0.000000000               0.013036280               0.132359569               0.000000000               0.016127762               0.155337096               0.000000000               0.019219245               0.178314623               0.000000000               0.022310727               0.201292150               0.000000000               0.025402210               0.224269676               0.000000000               0.028493692               0.247247203               0.000000000               0.031585175               0.270224730               0.000000000               0.034676657               0.293202257               0.000000000               0.037768140               0.316179784               0.000000000               0.040859622               0.339157311               0.000000000               0.043951105               0.362134838               0.000000000               0.047042587               0.385112365               0.000000000               0.050134070               0.408089892               0.000000000               0.053225552               0.431067419               0.000000000               0.056317035               0.454044946               0.000000000               0.059408517               0.477022473               0.000000000               0.062500000               0.500000000               0.000000000               0.000000000               0.133000000               0.000000000               0.000000000               0.155937500               0.000000000               0.000000000               0.178875000               0.000000000               0.000000000               0.201812500               0.000000000               0.000000000               0.224750000               0.000000000               0.000000000               0.247687500               0.000000000               0.000000000               0.270625000               0.000000000               0.000000000               0.293562500               0.000000000               0.000000000               0.316500000               0.000000000               0.000000000               0.339437500               0.000000000               0.000000000               0.362375000               0.000000000               0.000000000               0.385312500               0.000000000               0.000000000               0.408250000               0.000000000               0.000000000               0.431187500               0.000000000               0.000000000               0.454125000               0.000000000               0.000000000               0.477062500               0.000000000               0.000000000               0.500000000               0.000000000               0.133000000               0.000000000               0.000000000               0.155937500               0.000000000               0.000000000               0.178875000               0.000000000               0.000000000               0.201812500               0.000000000               0.000000000               0.224750000               0.000000000               0.000000000               0.247687500               0.000000000               0.000000000               0.270625000               0.000000000               0.000000000               0.293562500               0.000000000               0.000000000               0.316500000               0.000000000               0.000000000               0.339437500               0.000000000               0.000000000               0.362375000               0.000000000               0.000000000               0.385312500               0.000000000               0.000000000               0.408250000               0.000000000               0.000000000               0.431187500               0.000000000               0.000000000               0.454125000               0.000000000               0.000000000               0.477062500               0.000000000               0.000000000               0.500000000               0.000000000               0.000000000               0.132359569              -0.013036280               0.000000000               0.155337096              -0.016127762               0.000000000               0.178314623              -0.019219245               0.000000000               0.201292150              -0.022310727               0.000000000               0.224269676              -0.025402210               0.000000000               0.247247203              -0.028493692               0.000000000               0.270224730              -0.031585175               0.000000000               0.293202257              -0.034676657               0.000000000               0.316179784              -0.037768140               0.000000000               0.339157311              -0.040859622               0.000000000               0.362134838              -0.043951105               0.000000000               0.385112365              -0.047042587               0.000000000               0.408089892              -0.050134070               0.000000000               0.431067419              -0.053225552               0.000000000               0.454044946              -0.056317035               0.000000000               0.477022473              -0.059408517               0.000000000               0.500000000              -0.062500000               0.000000000               0.130444442              -0.025947013               0.000000000               0.153541665              -0.032137825               0.000000000               0.176638887              -0.038328636               0.000000000               0.199736109              -0.044519448               0.000000000               0.222833332              -0.050710260               0.000000000               0.245930554              -0.056901071               0.000000000               0.269027776              -0.063091883               0.000000000               0.292124999              -0.069282695               0.000000000               0.315222221              -0.075473506               0.000000000               0.338319444              -0.081664318               0.000000000               0.361416666              -0.087855130               0.000000000               0.384513888              -0.094045942               0.000000000               0.407611111              -0.100236753               0.000000000               0.430708333              -0.106427565               0.000000000               0.453805555              -0.112618377               0.000000000               0.476902778              -0.118809188               0.000000000               0.500000000              -0.125000000               0.000000000               0.127273065              -0.038607862               0.000000000               0.150568498              -0.047913621               0.000000000               0.173863932              -0.057219379               0.000000000               0.197159365              -0.066525138               0.000000000               0.220454798              -0.075830897               0.000000000               0.243750232              -0.085136655               0.000000000               0.267045665              -0.094442414               0.000000000               0.290341099              -0.103748172               0.000000000               0.313636532              -0.113053931               0.000000000               0.336931966              -0.122359690               0.000000000               0.360227399              -0.131665448               0.000000000               0.383522833              -0.140971207               0.000000000               0.406818266              -0.150276966               0.000000000               0.430113700              -0.159582724               0.000000000               0.453409133              -0.168888483               0.000000000               0.476704567              -0.178194241               0.000000000               0.500000000              -0.187500000               0.000000000               0.122875978              -0.050896897               0.000000000               0.146446229              -0.063340840               0.000000000               0.170016481              -0.075784784               0.000000000               0.193586732              -0.088228728               0.000000000               0.217156983              -0.100672672               0.000000000               0.240727235              -0.113116616               0.000000000               0.264297486              -0.125560560               0.000000000               0.287867738              -0.138004504               0.000000000               0.311437989              -0.150448448               0.000000000               0.335008240              -0.162892392               0.000000000               0.358578492              -0.175336336               0.000000000               0.382148743              -0.187780280               0.000000000               0.405718994              -0.200224224               0.000000000               0.429289246              -0.212668168               0.000000000               0.452859497              -0.225112112               0.000000000               0.476429749              -0.237556056               0.000000000               0.500000000              -0.250000000               0.000000000               0.117295528              -0.062695766               0.000000000               0.141214558              -0.078308531               0.000000000               0.165133587              -0.093921295               0.000000000               0.189052617              -0.109534060               0.000000000               0.212971646              -0.125146824               0.000000000               0.236890676              -0.140759589               0.000000000               0.260809705              -0.156372354               0.000000000               0.284728735              -0.171985118               0.000000000               0.308647764              -0.187597883               0.000000000               0.332566794              -0.203210648               0.000000000               0.356485823              -0.218823412               0.000000000               0.380404853              -0.234436177               0.000000000               0.404323882              -0.250048941               0.000000000               0.428242912              -0.265661706               0.000000000               0.452161941              -0.281274471               0.000000000               0.476080971              -0.296887235               0.000000000               0.500000000              -0.312500000               0.000000000               0.110585458              -0.073890841               0.000000000               0.134923867              -0.092710163               0.000000000               0.159262276              -0.111529486               0.000000000               0.183600685              -0.130348808               0.000000000               0.207939094              -0.149168131               0.000000000               0.232277503              -0.167987453               0.000000000               0.256615912              -0.186806776               0.000000000               0.280954320              -0.205626098               0.000000000               0.305292729              -0.224445420               0.000000000               0.329631138              -0.243264743               0.000000000               0.353969547              -0.262084065               0.000000000               0.378307956              -0.280903388               0.000000000               0.402646365              -0.299722710               0.000000000               0.426984773              -0.318542033               0.000000000               0.451323182              -0.337361355               0.000000000               0.475661591              -0.356180678               0.000000000               0.500000000              -0.375000000               0.000000000               0.102810390              -0.084374307               0.000000000               0.127634741              -0.106444663               0.000000000               0.152459092              -0.128515018               0.000000000               0.177283442              -0.150585374               0.000000000               0.202107793              -0.172655730               0.000000000               0.226932143              -0.194726086               0.000000000               0.251756494              -0.216796442               0.000000000               0.276580845              -0.238866798               0.000000000               0.301405195              -0.260937153               0.000000000               0.326229546              -0.283007509               0.000000000               0.351053896              -0.305077865               0.000000000               0.375878247              -0.327148221               0.000000000               0.400702598              -0.349218577               0.000000000               0.425526948              -0.371288933               0.000000000               0.450351299              -0.393359288               0.000000000               0.475175649              -0.415429644               0.000000000               0.500000000              -0.437500000               0.000000000               0.094045202              -0.094045202               0.000000000               0.119417377              -0.119417377               0.000000000               0.144789552              -0.144789552               0.000000000               0.170161727              -0.170161727               0.000000000               0.195533901              -0.195533901               0.000000000               0.220906076              -0.220906076               0.000000000               0.246278251              -0.246278251               0.000000000               0.271650426              -0.271650426               0.000000000               0.297022601              -0.297022601               0.000000000               0.322394776              -0.322394776               0.000000000               0.347766951              -0.347766951               0.000000000               0.373139126              -0.373139126               0.000000000               0.398511300              -0.398511300               0.000000000               0.423883475              -0.423883475               0.000000000               0.449255650              -0.449255650               0.000000000               0.474627825              -0.474627825               0.000000000               0.500000000              -0.500000000               0.000000000               0.084374307              -0.102810390               0.000000000               0.106444663              -0.127634741               0.000000000               0.128515018              -0.152459092               0.000000000               0.150585374              -0.177283442               0.000000000               0.172655730              -0.202107793               0.000000000               0.194726086              -0.226932143               0.000000000               0.216796442              -0.251756494               0.000000000               0.238866798              -0.276580845               0.000000000               0.260937153              -0.301405195               0.000000000               0.283007509              -0.326229546               0.000000000               0.305077865              -0.351053896               0.000000000               0.327148221              -0.375878247               0.000000000               0.349218577              -0.400702598               0.000000000               0.371288933              -0.425526948               0.000000000               0.393359288              -0.450351299               0.000000000               0.415429644              -0.475175649               0.000000000               0.437500000              -0.500000000               0.000000000               0.073890841              -0.110585458               0.000000000               0.092710163              -0.134923867               0.000000000               0.111529486              -0.159262276               0.000000000               0.130348808              -0.183600685               0.000000000               0.149168131              -0.207939094               0.000000000               0.167987453              -0.232277503               0.000000000               0.186806776              -0.256615912               0.000000000               0.205626098              -0.280954320               0.000000000               0.224445420              -0.305292729               0.000000000               0.243264743              -0.329631138               0.000000000               0.262084065              -0.353969547               0.000000000               0.280903388              -0.378307956               0.000000000               0.299722710              -0.402646365               0.000000000               0.318542033              -0.426984773               0.000000000               0.337361355              -0.451323182               0.000000000               0.356180678              -0.475661591               0.000000000               0.375000000              -0.500000000               0.000000000               0.062695766              -0.117295528               0.000000000               0.078308531              -0.141214558               0.000000000               0.093921295              -0.165133587               0.000000000               0.109534060              -0.189052617               0.000000000               0.125146824              -0.212971646               0.000000000               0.140759589              -0.236890676               0.000000000               0.156372354              -0.260809705               0.000000000               0.171985118              -0.284728735               0.000000000               0.187597883              -0.308647764               0.000000000               0.203210648              -0.332566794               0.000000000               0.218823412              -0.356485823               0.000000000               0.234436177              -0.380404853               0.000000000               0.250048941              -0.404323882               0.000000000               0.265661706              -0.428242912               0.000000000               0.281274471              -0.452161941               0.000000000               0.296887235              -0.476080971               0.000000000               0.312500000              -0.500000000               0.000000000               0.050896897              -0.122875978               0.000000000               0.063340840              -0.146446229               0.000000000               0.075784784              -0.170016481               0.000000000               0.088228728              -0.193586732               0.000000000               0.100672672              -0.217156983               0.000000000               0.113116616              -0.240727235               0.000000000               0.125560560              -0.264297486               0.000000000               0.138004504              -0.287867738               0.000000000               0.150448448              -0.311437989               0.000000000               0.162892392              -0.335008240               0.000000000               0.175336336              -0.358578492               0.000000000               0.187780280              -0.382148743               0.000000000               0.200224224              -0.405718994               0.000000000               0.212668168              -0.429289246               0.000000000               0.225112112              -0.452859497               0.000000000               0.237556056              -0.476429749               0.000000000               0.250000000              -0.500000000               0.000000000               0.038607862              -0.127273065               0.000000000               0.047913621              -0.150568498               0.000000000               0.057219379              -0.173863932               0.000000000               0.066525138              -0.197159365               0.000000000               0.075830897              -0.220454798               0.000000000               0.085136655              -0.243750232               0.000000000               0.094442414              -0.267045665               0.000000000               0.103748172              -0.290341099               0.000000000               0.113053931              -0.313636532               0.000000000               0.122359690              -0.336931966               0.000000000               0.131665448              -0.360227399               0.000000000               0.140971207              -0.383522833               0.000000000               0.150276966              -0.406818266               0.000000000               0.159582724              -0.430113700               0.000000000               0.168888483              -0.453409133               0.000000000               0.178194241              -0.476704567               0.000000000               0.187500000              -0.500000000               0.000000000               0.025947013              -0.130444442               0.000000000               0.032137825              -0.153541665               0.000000000               0.038328636              -0.176638887               0.000000000               0.044519448              -0.199736109               0.000000000               0.050710260              -0.222833332               0.000000000               0.056901071              -0.245930554               0.000000000               0.063091883              -0.269027776               0.000000000               0.069282695              -0.292124999               0.000000000               0.075473506              -0.315222221               0.000000000               0.081664318              -0.338319444               0.000000000               0.087855130              -0.361416666               0.000000000               0.094045942              -0.384513888               0.000000000               0.100236753              -0.407611111               0.000000000               0.106427565              -0.430708333               0.000000000               0.112618377              -0.453805555               0.000000000               0.118809188              -0.476902778               0.000000000               0.125000000              -0.500000000               0.000000000               0.013036280              -0.132359569               0.000000000               0.016127762              -0.155337096               0.000000000               0.019219245              -0.178314623               0.000000000               0.022310727              -0.201292150               0.000000000               0.025402210              -0.224269676               0.000000000               0.028493692              -0.247247203               0.000000000               0.031585175              -0.270224730               0.000000000               0.034676657              -0.293202257               0.000000000               0.037768140              -0.316179784               0.000000000               0.040859622              -0.339157311               0.000000000               0.043951105              -0.362134838               0.000000000               0.047042587              -0.385112365               0.000000000               0.050134070              -0.408089892               0.000000000               0.053225552              -0.431067419               0.000000000               0.056317035              -0.454044946               0.000000000               0.059408517              -0.477022473               0.000000000               0.062500000              -0.500000000               0.000000000               0.000000000              -0.133000000               0.000000000               0.000000000              -0.155937500               0.000000000               0.000000000              -0.178875000               0.000000000               0.000000000              -0.201812500               0.000000000               0.000000000              -0.224750000               0.000000000               0.000000000              -0.247687500               0.000000000               0.000000000              -0.270625000               0.000000000               0.000000000              -0.293562500               0.000000000               0.000000000              -0.316500000               0.000000000               0.000000000              -0.339437500               0.000000000               0.000000000              -0.362375000               0.000000000               0.000000000              -0.385312500               0.000000000               0.000000000              -0.408250000               0.000000000               0.000000000              -0.431187500               0.000000000               0.000000000              -0.454125000               0.000000000               0.000000000              -0.477062500               0.000000000               0.000000000              -0.500000000               0.000000000              -0.133000000               0.000000000               0.000000000              -0.155937500               0.000000000               0.000000000              -0.178875000               0.000000000               0.000000000              -0.201812500               0.000000000               0.000000000              -0.224750000               0.000000000               0.000000000              -0.247687500               0.000000000               0.000000000              -0.270625000               0.000000000               0.000000000              -0.293562500               0.000000000               0.000000000              -0.316500000               0.000000000               0.000000000              -0.339437500               0.000000000               0.000000000              -0.362375000               0.000000000               0.000000000              -0.385312500               0.000000000               0.000000000              -0.408250000               0.000000000               0.000000000              -0.431187500               0.000000000               0.000000000              -0.454125000               0.000000000               0.000000000              -0.477062500               0.000000000               0.000000000              -0.500000000               0.000000000               0.000000000              -0.132359569              -0.013036280               0.000000000              -0.155337096              -0.016127762               0.000000000              -0.178314623              -0.019219245               0.000000000              -0.201292150              -0.022310727               0.000000000              -0.224269676              -0.025402210               0.000000000              -0.247247203              -0.028493692               0.000000000              -0.270224730              -0.031585175               0.000000000              -0.293202257              -0.034676657               0.000000000              -0.316179784              -0.037768140               0.000000000              -0.339157311              -0.040859622               0.000000000              -0.362134838              -0.043951105               0.000000000              -0.385112365              -0.047042587               0.000000000              -0.408089892              -0.050134070               0.000000000              -0.431067419              -0.053225552               0.000000000              -0.454044946              -0.056317035               0.000000000              -0.477022473              -0.059408517               0.000000000              -0.500000000              -0.062500000               0.000000000              -0.130444442              -0.025947013               0.000000000              -0.153541665              -0.032137825               0.000000000              -0.176638887              -0.038328636               0.000000000              -0.199736109              -0.044519448               0.000000000              -0.222833332              -0.050710260               0.000000000              -0.245930554              -0.056901071               0.000000000              -0.269027776              -0.063091883               0.000000000              -0.292124999              -0.069282695               0.000000000              -0.315222221              -0.075473506               0.000000000              -0.338319444              -0.081664318               0.000000000              -0.361416666              -0.087855130               0.000000000              -0.384513888              -0.094045942               0.000000000              -0.407611111              -0.100236753               0.000000000              -0.430708333              -0.106427565               0.000000000              -0.453805555              -0.112618377               0.000000000              -0.476902778              -0.118809188               0.000000000              -0.500000000              -0.125000000               0.000000000              -0.127273065              -0.038607862               0.000000000              -0.150568498              -0.047913621               0.000000000              -0.173863932              -0.057219379               0.000000000              -0.197159365              -0.066525138               0.000000000              -0.220454798              -0.075830897               0.000000000              -0.243750232              -0.085136655               0.000000000              -0.267045665              -0.094442414               0.000000000              -0.290341099              -0.103748172               0.000000000              -0.313636532              -0.113053931               0.000000000              -0.336931966              -0.122359690               0.000000000              -0.360227399              -0.131665448               0.000000000              -0.383522833              -0.140971207               0.000000000              -0.406818266              -0.150276966               0.000000000              -0.430113700              -0.159582724               0.000000000              -0.453409133              -0.168888483               0.000000000              -0.476704567              -0.178194241               0.000000000              -0.500000000              -0.187500000               0.000000000              -0.122875978              -0.050896897               0.000000000              -0.146446229              -0.063340840               0.000000000              -0.170016481              -0.075784784               0.000000000              -0.193586732              -0.088228728               0.000000000              -0.217156983              -0.100672672               0.000000000              -0.240727235              -0.113116616               0.000000000              -0.264297486              -0.125560560               0.000000000              -0.287867738              -0.138004504               0.000000000              -0.311437989              -0.150448448               0.000000000              -0.335008240              -0.162892392               0.000000000              -0.358578492              -0.175336336               0.000000000              -0.382148743              -0.187780280               0.000000000              -0.405718994              -0.200224224               0.000000000              -0.429289246              -0.212668168               0.000000000              -0.452859497              -0.225112112               0.000000000              -0.476429749              -0.237556056               0.000000000              -0.500000000              -0.250000000               0.000000000              -0.117295528              -0.062695766               0.000000000              -0.141214558              -0.078308531               0.000000000              -0.165133587              -0.093921295               0.000000000              -0.189052617              -0.109534060               0.000000000              -0.212971646              -0.125146824               0.000000000              -0.236890676              -0.140759589               0.000000000              -0.260809705              -0.156372354               0.000000000              -0.284728735              -0.171985118               0.000000000              -0.308647764              -0.187597883               0.000000000              -0.332566794              -0.203210648               0.000000000              -0.356485823              -0.218823412               0.000000000              -0.380404853              -0.234436177               0.000000000              -0.404323882              -0.250048941               0.000000000              -0.428242912              -0.265661706               0.000000000              -0.452161941              -0.281274471               0.000000000              -0.476080971              -0.296887235               0.000000000              -0.500000000              -0.312500000               0.000000000              -0.110585458              -0.073890841               0.000000000              -0.134923867              -0.092710163               0.000000000              -0.159262276              -0.111529486               0.000000000              -0.183600685              -0.130348808               0.000000000              -0.207939094              -0.149168131               0.000000000              -0.232277503              -0.167987453               0.000000000              -0.256615912              -0.186806776               0.000000000              -0.280954320              -0.205626098               0.000000000              -0.305292729              -0.224445420               0.000000000              -0.329631138              -0.243264743               0.000000000              -0.353969547              -0.262084065               0.000000000              -0.378307956              -0.280903388               0.000000000              -0.402646365              -0.299722710               0.000000000              -0.426984773              -0.318542033               0.000000000              -0.451323182              -0.337361355               0.000000000              -0.475661591              -0.356180678               0.000000000              -0.500000000              -0.375000000               0.000000000              -0.102810390              -0.084374307               0.000000000              -0.127634741              -0.106444663               0.000000000              -0.152459092              -0.128515018               0.000000000              -0.177283442              -0.150585374               0.000000000              -0.202107793              -0.172655730               0.000000000              -0.226932143              -0.194726086               0.000000000              -0.251756494              -0.216796442               0.000000000              -0.276580845              -0.238866798               0.000000000              -0.301405195              -0.260937153               0.000000000              -0.326229546              -0.283007509               0.000000000              -0.351053896              -0.305077865               0.000000000              -0.375878247              -0.327148221               0.000000000              -0.400702598              -0.349218577               0.000000000              -0.425526948              -0.371288933               0.000000000              -0.450351299              -0.393359288               0.000000000              -0.475175649              -0.415429644               0.000000000              -0.500000000              -0.437500000               0.000000000              -0.094045202              -0.094045202               0.000000000              -0.119417377              -0.119417377               0.000000000              -0.144789552              -0.144789552               0.000000000              -0.170161727              -0.170161727               0.000000000              -0.195533901              -0.195533901               0.000000000              -0.220906076              -0.220906076               0.000000000              -0.246278251              -0.246278251               0.000000000              -0.271650426              -0.271650426               0.000000000              -0.297022601              -0.297022601               0.000000000              -0.322394776              -0.322394776               0.000000000              -0.347766951              -0.347766951               0.000000000              -0.373139126              -0.373139126               0.000000000              -0.398511300              -0.398511300               0.000000000              -0.423883475              -0.423883475               0.000000000              -0.449255650              -0.449255650               0.000000000              -0.474627825              -0.474627825               0.000000000              -0.500000000              -0.500000000               0.000000000              -0.084374307              -0.102810390               0.000000000              -0.106444663              -0.127634741               0.000000000              -0.128515018              -0.152459092               0.000000000              -0.150585374              -0.177283442               0.000000000              -0.172655730              -0.202107793               0.000000000              -0.194726086              -0.226932143               0.000000000              -0.216796442              -0.251756494               0.000000000              -0.238866798              -0.276580845               0.000000000              -0.260937153              -0.301405195               0.000000000              -0.283007509              -0.326229546               0.000000000              -0.305077865              -0.351053896               0.000000000              -0.327148221              -0.375878247               0.000000000              -0.349218577              -0.400702598               0.000000000              -0.371288933              -0.425526948               0.000000000              -0.393359288              -0.450351299               0.000000000              -0.415429644              -0.475175649               0.000000000              -0.437500000              -0.500000000               0.000000000              -0.073890841              -0.110585458               0.000000000              -0.092710163              -0.134923867               0.000000000              -0.111529486              -0.159262276               0.000000000              -0.130348808              -0.183600685               0.000000000              -0.149168131              -0.207939094               0.000000000              -0.167987453              -0.232277503               0.000000000              -0.186806776              -0.256615912               0.000000000              -0.205626098              -0.280954320               0.000000000              -0.224445420              -0.305292729               0.000000000              -0.243264743              -0.329631138               0.000000000              -0.262084065              -0.353969547               0.000000000              -0.280903388              -0.378307956               0.000000000              -0.299722710              -0.402646365               0.000000000              -0.318542033              -0.426984773               0.000000000              -0.337361355              -0.451323182               0.000000000              -0.356180678              -0.475661591               0.000000000              -0.375000000              -0.500000000               0.000000000              -0.062695766              -0.117295528               0.000000000              -0.078308531              -0.141214558               0.000000000              -0.093921295              -0.165133587               0.000000000              -0.109534060              -0.189052617               0.000000000              -0.125146824              -0.212971646               0.000000000              -0.140759589              -0.236890676               0.000000000              -0.156372354              -0.260809705               0.000000000              -0.171985118              -0.284728735               0.000000000              -0.187597883              -0.308647764               0.000000000              -0.203210648              -0.332566794               0.000000000              -0.218823412              -0.356485823               0.000000000              -0.234436177              -0.380404853               0.000000000              -0.250048941              -0.404323882               0.000000000              -0.265661706              -0.428242912               0.000000000              -0.281274471              -0.452161941               0.000000000              -0.296887235              -0.476080971               0.000000000              -0.312500000              -0.500000000               0.000000000              -0.050896897              -0.122875978               0.000000000              -0.063340840              -0.146446229               0.000000000              -0.075784784              -0.170016481               0.000000000              -0.088228728              -0.193586732               0.000000000              -0.100672672              -0.217156983               0.000000000              -0.113116616              -0.240727235               0.000000000              -0.125560560              -0.264297486               0.000000000              -0.138004504              -0.287867738               0.000000000              -0.150448448              -0.311437989               0.000000000              -0.162892392              -0.335008240               0.000000000              -0.175336336              -0.358578492               0.000000000              -0.187780280              -0.382148743               0.000000000              -0.200224224              -0.405718994               0.000000000              -0.212668168              -0.429289246               0.000000000              -0.225112112              -0.452859497               0.000000000              -0.237556056              -0.476429749               0.000000000              -0.250000000              -0.500000000               0.000000000              -0.038607862              -0.127273065               0.000000000              -0.047913621              -0.150568498               0.000000000              -0.057219379              -0.173863932               0.000000000              -0.066525138              -0.197159365               0.000000000              -0.075830897              -0.220454798               0.000000000              -0.085136655              -0.243750232               0.000000000              -0.094442414              -0.267045665               0.000000000              -0.103748172              -0.290341099               0.000000000              -0.113053931              -0.313636532               0.000000000              -0.122359690              -0.336931966               0.000000000              -0.131665448              -0.360227399               0.000000000              -0.140971207              -0.383522833               0.000000000              -0.150276966              -0.406818266               0.000000000              -0.159582724              -0.430113700               0.000000000              -0.168888483              -0.453409133               0.000000000              -0.178194241              -0.476704567               0.000000000              -0.187500000              -0.500000000               0.000000000              -0.025947013              -0.130444442               0.000000000              -0.032137825              -0.153541665               0.000000000              -0.038328636              -0.176638887               0.000000000              -0.044519448              -0.199736109               0.000000000              -0.050710260              -0.222833332               0.000000000              -0.056901071              -0.245930554               0.000000000              -0.063091883              -0.269027776               0.000000000              -0.069282695              -0.292124999               0.000000000              -0.075473506              -0.315222221               0.000000000              -0.081664318              -0.338319444               0.000000000              -0.087855130              -0.361416666               0.000000000              -0.094045942              -0.384513888               0.000000000              -0.100236753              -0.407611111               0.000000000              -0.106427565              -0.430708333               0.000000000              -0.112618377              -0.453805555               0.000000000              -0.118809188              -0.476902778               0.000000000              -0.125000000              -0.500000000               0.000000000              -0.013036280              -0.132359569               0.000000000              -0.016127762              -0.155337096               0.000000000              -0.019219245              -0.178314623               0.000000000              -0.022310727              -0.201292150               0.000000000              -0.025402210              -0.224269676               0.000000000              -0.028493692              -0.247247203               0.000000000              -0.031585175              -0.270224730               0.000000000              -0.034676657              -0.293202257               0.000000000              -0.037768140              -0.316179784               0.000000000              -0.040859622              -0.339157311               0.000000000              -0.043951105              -0.362134838               0.000000000              -0.047042587              -0.385112365               0.000000000              -0.050134070              -0.408089892               0.000000000              -0.053225552              -0.431067419               0.000000000              -0.056317035              -0.454044946               0.000000000              -0.059408517              -0.477022473               0.000000000              -0.062500000              -0.500000000               0.000000000               0.000000000              -0.133000000               0.000000000               0.000000000              -0.155937500               0.000000000               0.000000000              -0.178875000               0.000000000               0.000000000              -0.201812500               0.000000000               0.000000000              -0.224750000               0.000000000               0.000000000              -0.247687500               0.000000000               0.000000000              -0.270625000               0.000000000               0.000000000              -0.293562500               0.000000000               0.000000000              -0.316500000               0.000000000               0.000000000              -0.339437500               0.000000000               0.000000000              -0.362375000               0.000000000               0.000000000              -0.385312500               0.000000000               0.000000000              -0.408250000               0.000000000               0.000000000              -0.431187500               0.000000000               0.000000000              -0.454125000               0.000000000               0.000000000              -0.477062500               0.000000000               0.000000000              -0.500000000               0.000000000              -0.133000000               0.000000000               0.000000000              -0.155937500               0.000000000               0.000000000              -0.178875000               0.000000000               0.000000000              -0.201812500               0.000000000               0.000000000              -0.224750000               0.000000000               0.000000000              -0.247687500               0.000000000               0.000000000              -0.270625000               0.000000000               0.000000000              -0.293562500               0.000000000               0.000000000              -0.316500000               0.000000000               0.000000000              -0.339437500               0.000000000               0.000000000              -0.362375000               0.000000000               0.000000000              -0.385312500               0.000000000               0.000000000              -0.408250000               0.000000000               0.000000000              -0.431187500               0.000000000               0.000000000              -0.454125000               0.000000000               0.000000000              -0.477062500               0.000000000               0.000000000              -0.500000000               0.000000000               0.000000000              -0.132359569               0.013036280               0.000000000              -0.155337096               0.016127762               0.000000000              -0.178314623               0.019219245               0.000000000              -0.201292150               0.022310727               0.000000000              -0.224269676               0.025402210               0.000000000              -0.247247203               0.028493692               0.000000000              -0.270224730               0.031585175               0.000000000              -0.293202257               0.034676657               0.000000000              -0.316179784               0.037768140               0.000000000              -0.339157311               0.040859622               0.000000000              -0.362134838               0.043951105               0.000000000              -0.385112365               0.047042587               0.000000000              -0.408089892               0.050134070               0.000000000              -0.431067419               0.053225552               0.000000000              -0.454044946               0.056317035               0.000000000              -0.477022473               0.059408517               0.000000000              -0.500000000               0.062500000               0.000000000              -0.130444442               0.025947013               0.000000000              -0.153541665               0.032137825               0.000000000              -0.176638887               0.038328636               0.000000000              -0.199736109               0.044519448               0.000000000              -0.222833332               0.050710260               0.000000000              -0.245930554               0.056901071               0.000000000              -0.269027776               0.063091883               0.000000000              -0.292124999               0.069282695               0.000000000              -0.315222221               0.075473506               0.000000000              -0.338319444               0.081664318               0.000000000              -0.361416666               0.087855130               0.000000000              -0.384513888               0.094045942               0.000000000              -0.407611111               0.100236753               0.000000000              -0.430708333               0.106427565               0.000000000              -0.453805555               0.112618377               0.000000000              -0.476902778               0.118809188               0.000000000              -0.500000000               0.125000000               0.000000000              -0.127273065               0.038607862               0.000000000              -0.150568498               0.047913621               0.000000000              -0.173863932               0.057219379               0.000000000              -0.197159365               0.066525138               0.000000000              -0.220454798               0.075830897               0.000000000              -0.243750232               0.085136655               0.000000000              -0.267045665               0.094442414               0.000000000              -0.290341099               0.103748172               0.000000000              -0.313636532               0.113053931               0.000000000              -0.336931966               0.122359690               0.000000000              -0.360227399               0.131665448               0.000000000              -0.383522833               0.140971207               0.000000000              -0.406818266               0.150276966               0.000000000              -0.430113700               0.159582724               0.000000000              -0.453409133               0.168888483               0.000000000              -0.476704567               0.178194241               0.000000000              -0.500000000               0.187500000               0.000000000              -0.122875978               0.050896897               0.000000000              -0.146446229               0.063340840               0.000000000              -0.170016481               0.075784784               0.000000000              -0.193586732               0.088228728               0.000000000              -0.217156983               0.100672672               0.000000000              -0.240727235               0.113116616               0.000000000              -0.264297486               0.125560560               0.000000000              -0.287867738               0.138004504               0.000000000              -0.311437989               0.150448448               0.000000000              -0.335008240               0.162892392               0.000000000              -0.358578492               0.175336336               0.000000000              -0.382148743               0.187780280               0.000000000              -0.405718994               0.200224224               0.000000000              -0.429289246               0.212668168               0.000000000              -0.452859497               0.225112112               0.000000000              -0.476429749               0.237556056               0.000000000              -0.500000000               0.250000000               0.000000000              -0.117295528               0.062695766               0.000000000              -0.141214558               0.078308531               0.000000000              -0.165133587               0.093921295               0.000000000              -0.189052617               0.109534060               0.000000000              -0.212971646               0.125146824               0.000000000              -0.236890676               0.140759589               0.000000000              -0.260809705               0.156372354               0.000000000              -0.284728735               0.171985118               0.000000000              -0.308647764               0.187597883               0.000000000              -0.332566794               0.203210648               0.000000000              -0.356485823               0.218823412               0.000000000              -0.380404853               0.234436177               0.000000000              -0.404323882               0.250048941               0.000000000              -0.428242912               0.265661706               0.000000000              -0.452161941               0.281274471               0.000000000              -0.476080971               0.296887235               0.000000000              -0.500000000               0.312500000               0.000000000              -0.110585458               0.073890841               0.000000000              -0.134923867               0.092710163               0.000000000              -0.159262276               0.111529486               0.000000000              -0.183600685               0.130348808               0.000000000              -0.207939094               0.149168131               0.000000000              -0.232277503               0.167987453               0.000000000              -0.256615912               0.186806776               0.000000000              -0.280954320               0.205626098               0.000000000              -0.305292729               0.224445420               0.000000000              -0.329631138               0.243264743               0.000000000              -0.353969547               0.262084065               0.000000000              -0.378307956               0.280903388               0.000000000              -0.402646365               0.299722710               0.000000000              -0.426984773               0.318542033               0.000000000              -0.451323182               0.337361355               0.000000000              -0.475661591               0.356180678               0.000000000              -0.500000000               0.375000000               0.000000000              -0.102810390               0.084374307               0.000000000              -0.127634741               0.106444663               0.000000000              -0.152459092               0.128515018               0.000000000              -0.177283442               0.150585374               0.000000000              -0.202107793               0.172655730               0.000000000              -0.226932143               0.194726086               0.000000000              -0.251756494               0.216796442               0.000000000              -0.276580845               0.238866798               0.000000000              -0.301405195               0.260937153               0.000000000              -0.326229546               0.283007509               0.000000000              -0.351053896               0.305077865               0.000000000              -0.375878247               0.327148221               0.000000000              -0.400702598               0.349218577               0.000000000              -0.425526948               0.371288933               0.000000000              -0.450351299               0.393359288               0.000000000              -0.475175649               0.415429644               0.000000000              -0.500000000               0.437500000               0.000000000              -0.094045202               0.094045202               0.000000000              -0.119417377               0.119417377               0.000000000              -0.144789552               0.144789552               0.000000000              -0.170161727               0.170161727               0.000000000              -0.195533901               0.195533901               0.000000000              -0.220906076               0.220906076               0.000000000              -0.246278251               0.246278251               0.000000000              -0.271650426               0.271650426               0.000000000              -0.297022601               0.297022601               0.000000000              -0.322394776               0.322394776               0.000000000              -0.347766951               0.347766951               0.000000000              -0.373139126               0.373139126               0.000000000              -0.398511300               0.398511300               0.000000000              -0.423883475               0.423883475               0.000000000              -0.449255650               0.449255650               0.000000000              -0.474627825               0.474627825               0.000000000              -0.500000000               0.500000000               0.000000000              -0.084374307               0.102810390               0.000000000              -0.106444663               0.127634741               0.000000000              -0.128515018               0.152459092               0.000000000              -0.150585374               0.177283442               0.000000000              -0.172655730               0.202107793               0.000000000              -0.194726086               0.226932143               0.000000000              -0.216796442               0.251756494               0.000000000              -0.238866798               0.276580845               0.000000000              -0.260937153               0.301405195               0.000000000              -0.283007509               0.326229546               0.000000000              -0.305077865               0.351053896               0.000000000              -0.327148221               0.375878247               0.000000000              -0.349218577               0.400702598               0.000000000              -0.371288933               0.425526948               0.000000000              -0.393359288               0.450351299               0.000000000              -0.415429644               0.475175649               0.000000000              -0.437500000               0.500000000               0.000000000              -0.073890841               0.110585458               0.000000000              -0.092710163               0.134923867               0.000000000              -0.111529486               0.159262276               0.000000000              -0.130348808               0.183600685               0.000000000              -0.149168131               0.207939094               0.000000000              -0.167987453               0.232277503               0.000000000              -0.186806776               0.256615912               0.000000000              -0.205626098               0.280954320               0.000000000              -0.224445420               0.305292729               0.000000000              -0.243264743               0.329631138               0.000000000              -0.262084065               0.353969547               0.000000000              -0.280903388               0.378307956               0.000000000              -0.299722710               0.402646365               0.000000000              -0.318542033               0.426984773               0.000000000              -0.337361355               0.451323182               0.000000000              -0.356180678               0.475661591               0.000000000              -0.375000000               0.500000000               0.000000000              -0.062695766               0.117295528               0.000000000              -0.078308531               0.141214558               0.000000000              -0.093921295               0.165133587               0.000000000              -0.109534060               0.189052617               0.000000000              -0.125146824               0.212971646               0.000000000              -0.140759589               0.236890676               0.000000000              -0.156372354               0.260809705               0.000000000              -0.171985118               0.284728735               0.000000000              -0.187597883               0.308647764               0.000000000              -0.203210648               0.332566794               0.000000000              -0.218823412               0.356485823               0.000000000              -0.234436177               0.380404853               0.000000000              -0.250048941               0.404323882               0.000000000              -0.265661706               0.428242912               0.000000000              -0.281274471               0.452161941               0.000000000              -0.296887235               0.476080971               0.000000000              -0.312500000               0.500000000               0.000000000              -0.050896897               0.122875978               0.000000000              -0.063340840               0.146446229               0.000000000              -0.075784784               0.170016481               0.000000000              -0.088228728               0.193586732               0.000000000              -0.100672672               0.217156983               0.000000000              -0.113116616               0.240727235               0.000000000              -0.125560560               0.264297486               0.000000000              -0.138004504               0.287867738               0.000000000              -0.150448448               0.311437989               0.000000000              -0.162892392               0.335008240               0.000000000              -0.175336336               0.358578492               0.000000000              -0.187780280               0.382148743               0.000000000              -0.200224224               0.405718994               0.000000000              -0.212668168               0.429289246               0.000000000              -0.225112112               0.452859497               0.000000000              -0.237556056               0.476429749               0.000000000              -0.250000000               0.500000000               0.000000000              -0.038607862               0.127273065               0.000000000              -0.047913621               0.150568498               0.000000000              -0.057219379               0.173863932               0.000000000              -0.066525138               0.197159365               0.000000000              -0.075830897               0.220454798               0.000000000              -0.085136655               0.243750232               0.000000000              -0.094442414               0.267045665               0.000000000              -0.103748172               0.290341099               0.000000000              -0.113053931               0.313636532               0.000000000              -0.122359690               0.336931966               0.000000000              -0.131665448               0.360227399               0.000000000              -0.140971207               0.383522833               0.000000000              -0.150276966               0.406818266               0.000000000              -0.159582724               0.430113700               0.000000000              -0.168888483               0.453409133               0.000000000              -0.178194241               0.476704567               0.000000000              -0.187500000               0.500000000               0.000000000              -0.025947013               0.130444442               0.000000000              -0.032137825               0.153541665               0.000000000              -0.038328636               0.176638887               0.000000000              -0.044519448               0.199736109               0.000000000              -0.050710260               0.222833332               0.000000000              -0.056901071               0.245930554               0.000000000              -0.063091883               0.269027776               0.000000000              -0.069282695               0.292124999               0.000000000              -0.075473506               0.315222221               0.000000000              -0.081664318               0.338319444               0.000000000              -0.087855130               0.361416666               0.000000000              -0.094045942               0.384513888               0.000000000              -0.100236753               0.407611111               0.000000000              -0.106427565               0.430708333               0.000000000              -0.112618377               0.453805555               0.000000000              -0.118809188               0.476902778               0.000000000              -0.125000000               0.500000000               0.000000000              -0.013036280               0.132359569               0.000000000              -0.016127762               0.155337096               0.000000000              -0.019219245               0.178314623               0.000000000              -0.022310727               0.201292150               0.000000000              -0.025402210               0.224269676               0.000000000              -0.028493692               0.247247203               0.000000000              -0.031585175               0.270224730               0.000000000              -0.034676657               0.293202257               0.000000000              -0.037768140               0.316179784               0.000000000              -0.040859622               0.339157311               0.000000000              -0.043951105               0.362134838               0.000000000              -0.047042587               0.385112365               0.000000000              -0.050134070               0.408089892               0.000000000              -0.053225552               0.431067419               0.000000000              -0.056317035               0.454044946               0.000000000              -0.059408517               0.477022473               0.000000000              -0.062500000               0.500000000               0.000000000               0.000000000               0.133000000               0.000000000               0.000000000               0.155937500               0.000000000               0.000000000               0.178875000               0.000000000               0.000000000               0.201812500               0.000000000               0.000000000               0.224750000               0.000000000               0.000000000               0.247687500               0.000000000               0.000000000               0.270625000               0.000000000               0.000000000               0.293562500               0.000000000               0.000000000               0.316500000               0.000000000               0.000000000               0.339437500               0.000000000               0.000000000               0.362375000               0.000000000               0.000000000               0.385312500               0.000000000               0.000000000               0.408250000               0.000000000               0.000000000               0.431187500               0.000000000               0.000000000               0.454125000               0.000000000               0.000000000               0.477062500               0.000000000               0.000000000               0.500000000               0.000000000 </DataArray>
</Points>
<Cells>
<DataArray type="Int32"                                    Name="connectivity"                                                      NumberOfComponents=" 1" format="ascii">
         0          1         18         17          1          2         19         18          2          3         20         19          3          4         21         20          4          5         22         21          5          6         23         22          6          7         24         23          7          8         25         24          8          9         26         25          9         10         27         26         10         11         28         27         11         12         29         28         12         13         30         29         13         14         31         30         14         15         32         31         15         16         33         32         17         18         35         34         18         19         36         35         19         20         37         36         20         21         38         37         21         22         39         38         22         23         40         39         23         24         41         40         24         25         42         41         25         26         43         42         26         27         44         43         27         28         45         44         28         29         46         45         29         30         47         46         30         31         48         47         31         32         49         48         32         33         50         49         34         35         52         51         35         36         53         52         36         37         54         53         37         38         55         54         38         39         56         55         39         40         57         56         40         41         58         57         41         42         59         58         42         43         60         59         43         44         61         60         44         45         62         61         45         46         63         62         46         47         64         63         47         48         65         64         48         49         66         65         49         50         67         66         51         52         69         68         52         53         70         69         53         54         71         70         54         55         72         71         55         56         73         72         56         57         74         73         57         58         75         74         58         59         76         75         59         60         77         76         60         61         78         77         61         62         79         78         62         63         80         79         63         64         81         80         64         65         82         81         65         66         83         82         66         67         84         83         68         69         86         85         69         70         87         86         70         71         88         87         71         72         89         88         72         73         90         89         73         74         91         90         74         75         92         91         75         76         93         92         76         77         94         93         77         78         95         94         78         79         96         95         79         80         97         96         80         81         98         97         81         82         99         98         82         83        100         99         83         84        101        100         85         86        103        102         86         87        104        103         87         88        105        104         88         89        106        105         89         90        107        106         90         91        108        107         91         92        109        108         92         93        110        109         93         94        111        110         94         95        112        111         95         96        113        112         96         97        114        113         97         98        115        114         98         99        116        115         99        100        117        116        100        101        118        117        102        103        120        119        103        104        121        120        104        105        122        121        105        106        123        122        106        107        124        123        107        108        125        124        108        109        126        125        109        110        127        126        110        111        128        127        111        112        129        128        112        113        130        129        113        114        131        130        114        115        132        131        115        116        133        132        116        117        134        133        117        118        135        134        119        120        137        136        120        121        138        137        121        122        139        138        122        123        140        139        123        124        141        140        124        125        142        141        125        126        143        142        126        127        144        143        127        128        145        144        128        129        146        145        129        130        147        146        130        131        148        147        131        132        149        148        132        133        150        149        133        134        151        150        134        135        152        151        136        137        154        153        137        138        155        154        138        139        156        155        139        140        157        156        140        141        158        157        141        142        159        158        142        143        160        159        143        144        161        160        144        145        162        161        145        146        163        162        146        147        164        163        147        148        165        164        148        149        166        165        149        150        167        166        150        151        168        167        151        152        169        168        153        154        171        170        154        155        172        171        155        156        173        172        156        157        174        173        157        158        175        174        158        159        176        175        159        160        177        176        160        161        178        177        161        162        179        178        162        163        180        179        163        164        181        180        164        165        182        181        165        166        183        182        166        167        184        183        167        168        185        184        168        169        186        185        170        171        188        187        171        172        189        188        172        173        190        189        173        174        191        190        174        175        192        191        175        176        193        192        176        177        194        193        177        178        195        194        178        179        196        195        179        180        197        196        180        181        198        197        181        182        199        198        182        183        200        199        183        184        201        200        184        185        202        201        185        186        203        202        187        188        205        204        188        189        206        205        189        190        207        206        190        191        208        207        191        192        209        208        192        193        210        209        193        194        211        210        194        195        212        211        195        196        213        212        196        197        214        213        197        198        215        214        198        199        216        215        199        200        217        216        200        201        218        217        201        202        219        218        202        203        220        219        204        205        222        221        205        206        223        222        206        207        224        223        207        208        225        224        208        209        226        225        209        210        227        226        210        211        228        227        211        212        229        228        212        213        230        229        213        214        231        230        214        215        232        231        215        216        233        232        216        217        234        233        217        218        235        234        218        219        236        235        219        220        237        236        221        222        239        238        222        223        240        239        223        224        241        240        224        225        242        241        225        226        243        242        226        227        244        243        227        228        245        244        228        229        246        245        229        230        247        246        230        231        248        247        231        232        249        248        232        233        250        249        233        234        251        250        234        235        252        251        235        236        253        252        236        237        254        253        238        239        256        255        239        240        257        256        240        241        258        257        241        242        259        258        242        243        260        259        243        244        261        260        244        245        262        261        245        246        263        262        246        247        264        263        247        248        265        264        248        249        266        265        249        250        267        266        250        251        268        267        251        252        269        268        252        253        270        269        253        254        271        270        255        256        273        272        256        257        274        273        257        258        275        274        258        259        276        275        259        260        277        276        260        261        278        277        261        262        279        278        262        263        280        279        263        264        281        280        264        265        282        281        265        266        283        282        266        267        284        283        267        268        285        284        268        269        286        285        269        270        287        286        270        271        288        287        306        307          1          0        307        308          2          1        308        309          3          2        309        310          4          3        310        311          5          4        311        312          6          5        312        313          7          6        313        314          8          7        314        315          9          8        315        316         10          9        316        317         11         10        317        318         12         11        318        319         13         12        319        320         14         13        320        321         15         14        321        322         16         15        323        324        307        306        324        325        308        307        325        326        309        308        326        327        310        309        327        328        311        310        328        329        312        311        329        330        313        312        330        331        314        313        331        332        315        314        332        333        316        315        333        334        317        316        334        335        318        317        335        336        319        318        336        337        320        319        337        338        321        320        338        339        322        321        340        341        324        323        341        342        325        324        342        343        326        325        343        344        327        326        344        345        328        327        345        346        329        328        346        347        330        329        347        348        331        330        348        349        332        331        349        350        333        332        350        351        334        333        351        352        335        334        352        353        336        335        353        354        337        336        354        355        338        337        355        356        339        338        357        358        341        340        358        359        342        341        359        360        343        342        360        361        344        343        361        362        345        344        362        363        346        345        363        364        347        346        364        365        348        347        365        366        349        348        366        367        350        349        367        368        351        350        368        369        352        351        369        370        353        352        370        371        354        353        371        372        355        354        372        373        356        355        374        375        358        357        375        376        359        358        376        377        360        359        377        378        361        360        378        379        362        361        379        380        363        362        380        381        364        363        381        382        365        364        382        383        366        365        383        384        367        366        384        385        368        367        385        386        369        368        386        387        370        369        387        388        371        370        388        389        372        371        389        390        373        372        391        392        375        374        392        393        376        375        393        394        377        376        394        395        378        377        395        396        379        378        396        397        380        379        397        398        381        380        398        399        382        381        399        400        383        382        400        401        384        383        401        402        385        384        402        403        386        385        403        404        387        386        404        405        388        387        405        406        389        388        406        407        390        389        408        409        392        391        409        410        393        392        410        411        394        393        411        412        395        394        412        413        396        395        413        414        397        396        414        415        398        397        415        416        399        398        416        417        400        399        417        418        401        400        418        419        402        401        419        420        403        402        420        421        404        403        421        422        405        404        422        423        406        405        423        424        407        406        425        426        409        408        426        427        410        409        427        428        411        410        428        429        412        411        429        430        413        412        430        431        414        413        431        432        415        414        432        433        416        415        433        434        417        416        434        435        418        417        435        436        419        418        436        437        420        419        437        438        421        420        438        439        422        421        439        440        423        422        440        441        424        423        442        443        426        425        443        444        427        426        444        445        428        427        445        446        429        428        446        447        430        429        447        448        431        430        448        449        432        431        449        450        433        432        450        451        434        433        451        452        435        434        452        453        436        435        453        454        437        436        454        455        438        437        455        456        439        438        456        457        440        439        457        458        441        440        459        460        443        442        460        461        444        443        461        462        445        444        462        463        446        445        463        464        447        446        464        465        448        447        465        466        449        448        466        467        450        449        467        468        451        450        468        469        452        451        469        470        453        452        470        471        454        453        471        472        455        454        472        473        456        455        473        474        457        456        474        475        458        457        476        477        460        459        477        478        461        460        478        479        462        461        479        480        463        462        480        481        464        463        481        482        465        464        482        483        466        465        483        484        467        466        484        485        468        467        485        486        469        468        486        487        470        469        487        488        471        470        488        489        472        471        489        490        473        472        490        491        474        473        491        492        475        474        493        494        477        476        494        495        478        477        495        496        479        478        496        497        480        479        497        498        481        480        498        499        482        481        499        500        483        482        500        501        484        483        501        502        485        484        502        503        486        485        503        504        487        486        504        505        488        487        505        506        489        488        506        507        490        489        507        508        491        490        508        509        492        491        510        511        494        493        511        512        495        494        512        513        496        495        513        514        497        496        514        515        498        497        515        516        499        498        516        517        500        499        517        518        501        500        518        519        502        501        519        520        503        502        520        521        504        503        521        522        505        504        522        523        506        505        523        524        507        506        524        525        508        507        525        526        509        508        527        528        511        510        528        529        512        511        529        530        513        512        530        531        514        513        531        532        515        514        532        533        516        515        533        534        517        516        534        535        518        517        535        536        519        518        536        537        520        519        537        538        521        520        538        539        522        521        539        540        523        522        540        541        524        523        541        542        525        524        542        543        526        525        544        545        528        527        545        546        529        528        546        547        530        529        547        548        531        530        548        549        532        531        549        550        533        532        550        551        534        533        551        552        535        534        552        553        536        535        553        554        537        536        554        555        538        537        555        556        539        538        556        557        540        539        557        558        541        540        558        559        542        541        559        560        543        542        561        562        545        544        562        563        546        545        563        564        547        546        564        565        548        547        565        566        549        548        566        567        550        549        567        568        551        550        568        569        552        551        569        570        553        552        570        571        554        553        571        572        555        554        572        573        556        555        573        574        557        556        574        575        558        557        575        576        559        558        576        577        560        559        578        579        596        595        579        580        597        596        580        581        598        597        581        582        599        598        582        583        600        599        583        584        601        600        584        585        602        601        585        586        603        602        586        587        604        603        587        588        605        604        588        589        606        605        589        590        607        606        590        591        608        607        591        592        609        608        592        593        610        609        593        594        611        610        595        596        613        612        596        597        614        613        597        598        615        614        598        599        616        615        599        600        617        616        600        601        618        617        601        602        619        618        602        603        620        619        603        604        621        620        604        605        622        621        605        606        623        622        606        607        624        623        607        608        625        624        608        609        626        625        609        610        627        626        610        611        628        627        612        613        630        629        613        614        631        630        614        615        632        631        615        616        633        632        616        617        634        633        617        618        635        634        618        619        636        635        619        620        637        636        620        621        638        637        621        622        639        638        622        623        640        639        623        624        641        640        624        625        642        641        625        626        643        642        626        627        644        643        627        628        645        644        629        630        647        646        630        631        648        647        631        632        649        648        632        633        650        649        633        634        651        650        634        635        652        651        635        636        653        652        636        637        654        653        637        638        655        654        638        639        656        655        639        640        657        656        640        641        658        657        641        642        659        658        642        643        660        659        643        644        661        660        644        645        662        661        646        647        664        663        647        648        665        664        648        649        666        665        649        650        667        666        650        651        668        667        651        652        669        668        652        653        670        669        653        654        671        670        654        655        672        671        655        656        673        672        656        657        674        673        657        658        675        674        658        659        676        675        659        660        677        676        660        661        678        677        661        662        679        678        663        664        681        680        664        665        682        681        665        666        683        682        666        667        684        683        667        668        685        684        668        669        686        685        669        670        687        686        670        671        688        687        671        672        689        688        672        673        690        689        673        674        691        690        674        675        692        691        675        676        693        692        676        677        694        693        677        678        695        694        678        679        696        695        680        681        698        697        681        682        699        698        682        683        700        699        683        684        701        700        684        685        702        701        685        686        703        702        686        687        704        703        687        688        705        704        688        689        706        705        689        690        707        706        690        691        708        707        691        692        709        708        692        693        710        709        693        694        711        710        694        695        712        711        695        696        713        712        697        698        715        714        698        699        716        715        699        700        717        716        700        701        718        717        701        702        719        718        702        703        720        719        703        704        721        720        704        705        722        721        705        706        723        722        706        707        724        723        707        708        725        724        708        709        726        725        709        710        727        726        710        711        728        727        711        712        729        728        712        713        730        729        714        715        732        731        715        716        733        732        716        717        734        733        717        718        735        734        718        719        736        735        719        720        737        736        720        721        738        737        721        722        739        738        722        723        740        739        723        724        741        740        724        725        742        741        725        726        743        742        726        727        744        743        727        728        745        744        728        729        746        745        729        730        747        746        731        732        749        748        732        733        750        749        733        734        751        750        734        735        752        751        735        736        753        752        736        737        754        753        737        738        755        754        738        739        756        755        739        740        757        756        740        741        758        757        741        742        759        758        742        743        760        759        743        744        761        760        744        745        762        761        745        746        763        762        746        747        764        763        748        749        766        765        749        750        767        766        750        751        768        767        751        752        769        768        752        753        770        769        753        754        771        770        754        755        772        771        755        756        773        772        756        757        774        773        757        758        775        774        758        759        776        775        759        760        777        776        760        761        778        777        761        762        779        778        762        763        780        779        763        764        781        780        765        766        783        782        766        767        784        783        767        768        785        784        768        769        786        785        769        770        787        786        770        771        788        787        771        772        789        788        772        773        790        789        773        774        791        790        774        775        792        791        775        776        793        792        776        777        794        793        777        778        795        794        778        779        796        795        779        780        797        796        780        781        798        797        782        783        800        799        783        784        801        800        784        785        802        801        785        786        803        802        786        787        804        803        787        788        805        804        788        789        806        805        789        790        807        806        790        791        808        807        791        792        809        808        792        793        810        809        793        794        811        810        794        795        812        811        795        796        813        812        796        797        814        813        797        798        815        814        799        800        817        816        800        801        818        817        801        802        819        818        802        803        820        819        803        804        821        820        804        805        822        821        805        806        823        822        806        807        824        823        807        808        825        824        808        809        826        825        809        810        827        826        810        811        828        827        811        812        829        828        812        813        830        829        813        814        831        830        814        815        832        831        816        817        834        833        817        818        835        834        818        819        836        835        819        820        837        836        820        821        838        837        821        822        839        838        822        823        840        839        823        824        841        840        824        825        842        841        825        826        843        842        826        827        844        843        827        828        845        844        828        829        846        845        829        830        847        846        830        831        848        847        831        832        849        848        833        834        562        561        834        835        563        562        835        836        564        563        836        837        565        564        837        838        566        565        838        839        567        566        839        840        568        567        840        841        569        568        841        842        570        569        842        843        571        570        843        844        572        571        844        845        573        572        845        846        574        573        846        847        575        574        847        848        576        575        848        849        577        576        884        885        579        578        885        886        580        579        886        887        581        580        887        888        582        581        888        889        583        582        889        890        584        583        890        891        585        584        891        892        586        585        892        893        587        586        893        894        588        587        894        895        589        588        895        896        590        589        896        897        591        590        897        898        592        591        898        899        593        592        899        900        594        593        901        902        885        884        902        903        886        885        903        904        887        886        904        905        888        887        905        906        889        888        906        907        890        889        907        908        891        890        908        909        892        891        909        910        893        892        910        911        894        893        911        912        895        894        912        913        896        895        913        914        897        896        914        915        898        897        915        916        899        898        916        917        900        899        918        919        902        901        919        920        903        902        920        921        904        903        921        922        905        904        922        923        906        905        923        924        907        906        924        925        908        907        925        926        909        908        926        927        910        909        927        928        911        910        928        929        912        911        929        930        913        912        930        931        914        913        931        932        915        914        932        933        916        915        933        934        917        916        935        936        919        918        936        937        920        919        937        938        921        920        938        939        922        921        939        940        923        922        940        941        924        923        941        942        925        924        942        943        926        925        943        944        927        926        944        945        928        927        945        946        929        928        946        947        930        929        947        948        931        930        948        949        932        931        949        950        933        932        950        951        934        933        952        953        936        935        953        954        937        936        954        955        938        937        955        956        939        938        956        957        940        939        957        958        941        940        958        959        942        941        959        960        943        942        960        961        944        943        961        962        945        944        962        963        946        945        963        964        947        946        964        965        948        947        965        966        949        948        966        967        950        949        967        968        951        950        969        970        953        952        970        971        954        953        971        972        955        954        972        973        956        955        973        974        957        956        974        975        958        957        975        976        959        958        976        977        960        959        977        978        961        960        978        979        962        961        979        980        963        962        980        981        964        963        981        982        965        964        982        983        966        965        983        984        967        966        984        985        968        967        986        987        970        969        987        988        971        970        988        989        972        971        989        990        973        972        990        991        974        973        991        992        975        974        992        993        976        975        993        994        977        976        994        995        978        977        995        996        979        978        996        997        980        979        997        998        981        980        998        999        982        981        999       1000        983        982       1000       1001        984        983       1001       1002        985        984       1003       1004        987        986       1004       1005        988        987       1005       1006        989        988       1006       1007        990        989       1007       1008        991        990       1008       1009        992        991       1009       1010        993        992       1010       1011        994        993       1011       1012        995        994       1012       1013        996        995       1013       1014        997        996       1014       1015        998        997       1015       1016        999        998       1016       1017       1000        999       1017       1018       1001       1000       1018       1019       1002       1001       1020       1021       1004       1003       1021       1022       1005       1004       1022       1023       1006       1005       1023       1024       1007       1006       1024       1025       1008       1007       1025       1026       1009       1008       1026       1027       1010       1009       1027       1028       1011       1010       1028       1029       1012       1011       1029       1030       1013       1012       1030       1031       1014       1013       1031       1032       1015       1014       1032       1033       1016       1015       1033       1034       1017       1016       1034       1035       1018       1017       1035       1036       1019       1018       1037       1038       1021       1020       1038       1039       1022       1021       1039       1040       1023       1022       1040       1041       1024       1023       1041       1042       1025       1024       1042       1043       1026       1025       1043       1044       1027       1026       1044       1045       1028       1027       1045       1046       1029       1028       1046       1047       1030       1029       1047       1048       1031       1030       1048       1049       1032       1031       1049       1050       1033       1032       1050       1051       1034       1033       1051       1052       1035       1034       1052       1053       1036       1035       1054       1055       1038       1037       1055       1056       1039       1038       1056       1057       1040       1039       1057       1058       1041       1040       1058       1059       1042       1041       1059       1060       1043       1042       1060       1061       1044       1043       1061       1062       1045       1044       1062       1063       1046       1045       1063       1064       1047       1046       1064       1065       1048       1047       1065       1066       1049       1048       1066       1067       1050       1049       1067       1068       1051       1050       1068       1069       1052       1051       1069       1070       1053       1052       1071       1072       1055       1054       1072       1073       1056       1055       1073       1074       1057       1056       1074       1075       1058       1057       1075       1076       1059       1058       1076       1077       1060       1059       1077       1078       1061       1060       1078       1079       1062       1061       1079       1080       1063       1062       1080       1081       1064       1063       1081       1082       1065       1064       1082       1083       1066       1065       1083       1084       1067       1066       1084       1085       1068       1067       1085       1086       1069       1068       1086       1087       1070       1069       1088       1089       1072       1071       1089       1090       1073       1072       1090       1091       1074       1073       1091       1092       1075       1074       1092       1093       1076       1075       1093       1094       1077       1076       1094       1095       1078       1077       1095       1096       1079       1078       1096       1097       1080       1079       1097       1098       1081       1080       1098       1099       1082       1081       1099       1100       1083       1082       1100       1101       1084       1083       1101       1102       1085       1084       1102       1103       1086       1085       1103       1104       1087       1086       1105       1106       1089       1088       1106       1107       1090       1089       1107       1108       1091       1090       1108       1109       1092       1091       1109       1110       1093       1092       1110       1111       1094       1093       1111       1112       1095       1094       1112       1113       1096       1095       1113       1114       1097       1096       1114       1115       1098       1097       1115       1116       1099       1098       1116       1117       1100       1099       1117       1118       1101       1100       1118       1119       1102       1101       1119       1120       1103       1102       1120       1121       1104       1103       1122       1123       1106       1105       1123       1124       1107       1106       1124       1125       1108       1107       1125       1126       1109       1108       1126       1127       1110       1109       1127       1128       1111       1110       1128       1129       1112       1111       1129       1130       1113       1112       1130       1131       1114       1113       1131       1132       1115       1114       1132       1133       1116       1115       1133       1134       1117       1116       1134       1135       1118       1117       1135       1136       1119       1118       1136       1137       1120       1119       1137       1138       1121       1120        272        273       1123       1122        273        274       1124       1123        274        275       1125       1124        275        276       1126       1125        276        277       1127       1126        277        278       1128       1127        278        279       1129       1128        279        280       1130       1129        280        281       1131       1130        281        282       1132       1131        282        283       1133       1132        283        284       1134       1133        284        285       1135       1134        285        286       1136       1135        286        287       1137       1136        287        288       1138       1137 </DataArray>
<DataArray type="Int32"                                    Name="offsets"                                                      NumberOfComponents=" 1" format="ascii">
         4          8         12         16         20         24         28         32         36         40         44         48         52         56         60         64         68         72         76         80         84         88         92         96        100        104        108        112        116        120        124        128        132        136        140        144        148        152        156        160        164        168        172        176        180        184        188        192        196        200        204        208        212        216        220        224        228        232        236        240        244        248        252        256        260        264        268        272        276        280        284        288        292        296        300        304        308        312        316        320        324        328        332        336        340        344        348        352        356        360        364        368        372        376        380        384        388        392        396        400        404        408        412        416        420        424        428        432        436        440        444        448        452        456        460        464        468        472        476        480        484        488        492        496        500        504        508        512        516        520        524        528        532        536        540        544        548        552        556        560        564        568        572        576        580        584        588        592        596        600        604        608        612        616        620        624        628        632        636        640        644        648        652        656        660        664        668        672        676        680        684        688        692        696        700        704        708        712        716        720        724        728        732        736        740        744        748        752        756        760        764        768        772        776        780        784        788        792        796        800        804        808        812        816        820        824        828        832        836        840        844        848        852        856        860        864        868        872        876        880        884        888        892        896        900        904        908        912        916        920        924        928        932        936        940        944        948        952        956        960        964        968        972        976        980        984        988        992        996       1000       1004       1008       1012       1016       1020       1024       1028       1032       1036       1040       1044       1048       1052       1056       1060       1064       1068       1072       1076       1080       1084       1088       1092       1096       1100       1104       1108       1112       1116       1120       1124       1128       1132       1136       1140       1144       1148       1152       1156       1160       1164       1168       1172       1176       1180       1184       1188       1192       1196       1200       1204       1208       1212       1216       1220       1224       1228       1232       1236       1240       1244       1248       1252       1256       1260       1264       1268       1272       1276       1280       1284       1288       1292       1296       1300       1304       1308       1312       1316       1320       1324       1328       1332       1336       1340       1344       1348       1352       1356       1360       1364       1368       1372       1376       1380       1384       1388       1392       1396       1400       1404       1408       1412       1416       1420       1424       1428       1432       1436       1440       1444       1448       1452       1456       1460       1464       1468       1472       1476       1480       1484       1488       1492       1496       1500       1504       1508       1512       1516       1520       1524       1528       1532       1536       1540       1544       1548       1552       1556       1560       1564       1568       1572       1576       1580       1584       1588       1592       1596       1600       1604       1608       1612       1616       1620       1624       1628       1632       1636       1640       1644       1648       1652       1656       1660       1664       1668       1672       1676       1680       1684       1688       1692       1696       1700       1704       1708       1712       1716       1720       1724       1728       1732       1736       1740       1744       1748       1752       1756       1760       1764       1768       1772       1776       1780       1784       1788       1792       1796       1800       1804       1808       1812       1816       1820       1824       1828       1832       1836       1840       1844       1848       1852       1856       1860       1864       1868       1872       1876       1880       1884       1888       1892       1896       1900       1904       1908       1912       1916       1920       1924       1928       1932       1936       1940       1944       1948       1952       1956       1960       1964       1968       1972       1976       1980       1984       1988       1992       1996       2000       2004       2008       2012       2016       2020       2024       2028       2032       2036       2040       2044       2048       2052       2056       2060       2064       2068       2072       2076       2080       2084       2088       2092       2096       2100       2104       2108       2112       2116       2120       2124       2128       2132       2136       2140       2144       2148       2152       2156       2160       2164       2168       2172       2176       2180       2184       2188       2192       2196       2200       2204       2208       2212       2216       2220       2224       2228       2232       2236       2240       2244       2248       2252       2256       2260       2264       2268       2272       2276       2280       2284       2288       2292       2296       2300       2304       2308       2312       2316       2320       2324       2328       2332       2336       2340       2344       2348       2352       2356       2360       2364       2368       2372       2376       2380       2384       2388       2392       2396       2400       2404       2408       2412       2416       2420       2424       2428       2432       2436       2440       2444       2448       2452       2456       2460       2464       2468       2472       2476       2480       2484       2488       2492       2496       2500       2504       2508       2512       2516       2520       2524       2528       2532       2536       2540       2544       2548       2552       2556       2560       2564       2568       2572       2576       2580       2584       2588       2592       2596       2600       2604       2608       2612       2616       2620       2624       2628       2632       2636       2640       2644       2648       2652       2656       2660       2664       2668       2672       2676       2680       2684       2688       2692       2696       2700       2704       2708       2712       2716       2720       2724       2728       2732       2736       2740       2744       2748       2752       2756       2760       2764       2768       2772       2776       2780       2784       2788       2792       2796       2800       2804       2808       2812       2816       2820       2824       2828       2832       2836       2840       2844       2848       2852       2856       2860       2864       2868       2872       2876       2880       2884       2888       2892       2896       2900       2904       2908       2912       2916       2920       2924       2928       2932       2936       2940       2944       2948       2952       2956       2960       2964       2968       2972       2976       2980       2984       2988       2992       2996       3000       3004       3008       3012       3016       3020       3024       3028       3032       3036       3040       3044       3048       3052       3056       3060       3064       3068       3072       3076       3080       3084       3088       3092       3096       3100       3104       3108       3112       3116       3120       3124       3128       3132       3136       3140       3144       3148       3152       3156       3160       3164       3168       3172       3176       3180       3184       3188       3192       3196       3200       3204       3208       3212       3216       3220       3224       3228       3232       3236       3240       3244       3248       3252       3256       3260       3264       3268       3272       3276       3280       3284       3288       3292       3296       3300       3304       3308       3312       3316       3320       3324       3328       3332       3336       3340       3344       3348       3352       3356       3360       3364       3368       3372       3376       3380       3384       3388       3392       3396       3400       3404       3408       3412       3416       3420       3424       3428       3432       3436       3440       3444       3448       3452       3456       3460       3464       3468       3472       3476       3480       3484       3488       3492       3496       3500       3504       3508       3512       3516       3520       3524       3528       3532       3536       3540       3544       3548       3552       3556       3560       3564       3568       3572       3576       3580       3584       3588       3592       3596       3600       3604       3608       3612       3616       3620       3624       3628       3632       3636       3640       3644       3648       3652       3656       3660       3664       3668       3672       3676       3680       3684       3688       3692       3696       3700       3704       3708       3712       3716       3720       3724       3728       3732       3736       3740       3744       3748       3752       3756       3760       3764       3768       3772       3776       3780       3784       3788       3792       3796       3800       3804       3808       3812       3816       3820       3824       3828       3832       3836       3840       3844       3848       3852       3856       3860       3864       3868       3872       3876       3880       3884       3888       3892       3896       3900       3904       3908       3912       3916       3920       3924       3928       3932       3936       3940       3944       3948       3952       3956       3960       3964       3968       3972       3976       3980       3984       3988       3992       3996       4000       4004       4008       4012       4016       4020       4024       4028       4032       4036       4040       4044       4048       4052       4056       4060       4064       4068       4072       4076       4080       4084       4088       4092       4096 </DataArray>
<DataArray type="UInt8"                                    Name="types"                                                      NumberOfComponents=" 1" format="ascii">
         9          9          9          9          9          9          9          9          9          9          9          9          9          9          9          9          9          9          9          9          9          9          9          9          9          9          9          9          9          9          9          9          9          9          9          9          9          9          9          9          9          9          9          9          9          9          9          9          9          9          9          9          9          9          9          9          9          9          9          9          9          9          9          9          9          9          9          9          9          9          9          9          9          9          9          9          9          9          9          9          9          9          9          9          9          9          9          9          9          9          9          9          9          9          9          9          9          9          9          9          9          9          9          9          9          9          9          9          9          9          9          9          9          9          9          9          9          9          9          9          9          9          9          9          9          9          9          9          9          9          9          9          9          9          9          9          9          9          9          9          9          9          9          9          9          9          9          9          9          9          9          9          9          9          9          9          9          9          9          9          9          9          9          9          9          9          9          9          9          9          9          9          9          9          9          9          9          9          9          9          9          9          9          9          9          9          9          9          9          9          9          9          9          9          9          9          9          9          9          9          9          9          9          9          9          9          9          9          9          9          9          9          9          9          9          9          9          9          9          9          9          9          9          9          9          9          9          9          9          9          9          9          9          9          9          9          9          9          9          9          9          9          9          9          9          9          9          9          9          9          9          9          9          9          9          9          9          9          9          9          9          9          9          9          9          9          9          9          9          9          9          9          9          9          9          9          9          9          9          9          9          9          9          9          9          9          9          9          9          9          9          9          9          9          9          9          9          9          9          9          9          9          9          9          9          9          9          9          9          9          9          9          9          9          9          9          9          9          9          9          9          9          9          9          9          9          9          9          9          9          9          9          9          9          9          9          9          9          9          9          9          9          9          9          9          9          9          9          9          9          9          9          9          9          9          9          9          9          9          9          9          9          9          9          9          9          9          9          9          9          9          9          9          9          9          9          9          9          9          9          9          9          9          9          9          9          9          9          9          9          9          9          9          9          9          9          9          9          9          9          9          9          9          9          9          9          9          9          9          9          9          9          9          9          9          9          9          9          9          9          9          9          9          9          9          9          9          9          9          9          9          9          9          9          9          9          9          9          9          9          9          9          9          9          9          9          9          9          9          9          9          9          9          9          9          9          9          9          9          9          9          9          9          9          9          9          9          9          9          9          9          9          9          9          9          9          9          9          9          9          9          9          9          9          9          9          9          9          9          9          9          9          9          9          9          9          9          9          9          9          9          9          9          9          9          9          9          9          9          9          9          9          9          9          9          9          9          9          9          9          9          9          9          9          9          9          9          9          9          9          9          9          9          9          9          9          9          9          9          9          9          9          9          9          9          9          9          9          9          9          9          9          9          9          9          9          9          9          9          9          9          9          9          9          9          9          9          9          9          9          9          9          9          9          9          9          9          9          9          9          9          9          9          9          9          9          9          9          9          9          9          9          9          9          9          9          9          9          9          9          9          9          9          9          9          9          9          9          9          9          9          9          9          9          9          9          9          9          9          9          9          9          9          9          9          9          9          9          9          9          9          9          9          9          9          9          9          9          9          9          9          9          9          9          9          9          9          9          9          9          9          9          9          9          9          9          9          9          9          9          9          9          9          9          9          9          9          9          9          9          9          9          9          9          9          9          9          9          9          9          9          9          9          9          9          9          9          9          9          9          9          9          9          9          9          9          9          9          9          9          9          9          9          9          9          9          9          9          9          9          9          9          9          9          9          9          9          9          9          9          9          9          9          9          9          9          9          9          9          9          9          9          9          9          9          9          9          9          9          9          9          9          9          9          9          9          9          9          9          9          9          9          9          9          9          9          9          9          9          9          9          9          9          9          9          9          9          9          9          9          9          9          9          9          9          9          9          9          9          9          9          9          9          9          9          9          9          9          9          9          9          9          9          9          9          9          9          9          9          9          9          9          9          9          9          9          9          9          9          9          9          9          9          9          9          9          9          9          9          9          9          9          9          9          9          9          9          9          9          9          9          9          9          9          9          9          9          9          9          9          9          9          9          9          9          9          9          9          9          9          9          9          9          9          9          9          9          9          9          9          9          9          9          9          9          9          9          9          9          9          9          9          9          9          9          9          9          9          9          9          9          9          9          9          9          9          9          9          9          9          9          9          9          9          9          9          9          9          9          9          9          9          9          9          9          9          9          9          9          9          9          9          9          9          9          9          9          9          9          9          9          9          9          9          9          9          9          9          9          9          9          9          9          9          9          9          9          9          9          9          9          9          9          9          9          9          9          9          9          9          9          9          9          9          9          9          9          9          9          9          9          9          9          9          9          9          9          9          9          9          9          9          9          9          9          9          9          9          9          9          9          9          9          9          9          9          9          9          9          9          9          9          9          9          9          9          9          9          9          9          9          9          9          9          9          9          9          9          9          9          9          9          9          9          9          9          9          9          9          9          9          9          9          9 </DataArray>
</Cells>
<CellData>
<DataArray type="Int32"                                    Name="material"                                                      NumberOfComponents=" 1" format="ascii">
         1          1          1          1          1          1          1          1          1          1          1          1          1          1          1          1          1          1          1          1          1          1          1          1          1          1          1          1          1          1          1          1          1          1          1          1          1          1          1          1          1          1          1          1          1          1          1          1          1          1          1          1          1          1          1          1          1          1          1          1          1          1          1          1          1          1          1          1          1          1          1          1          1          1          1          1          1          1          1          1          1          1          1          1          1          1          1          1          1          1          1          1          1          1          1          1          1          1          1          1          1          1          1          1          1          1          1          1          1          1          1          1          1          1          1          1          1          1          1          1          1          1          1          1          1          1          1          1          1          1          1          1          1          1          1          1          1          1          1          1          1          1          1          1          1          1          1          1          1          1          1          1          1          1          1          1          1          1          1          1          1          1          1          1          1          1          1          1          1          1          1          1          1          1          1          1          1          1          1          1          1          1          1          1          1          1          1          1          1          1          1          1          1          1          1          1          1          1          1          1          1          1          1          1          1          1          1          1          1          1          1          1          1          1          1          1          1          1          1          1          1          1          1          1          1          1          1          1          1          1          1          1          1          1          1          1          1          1          1          1          1          1          1          1          1          1          1          1          1          1          1          1          1          1          1          1          1          1          1          1          1          1          1          1          1          1          1          1          1          1          1          1          1          1          1          1          1          1          1          1          1          1          1          1          1          1          1          1          1          1          1          1          1          1          1          1          1          1          1          1          1          1          1          1          1          1          1          1          1          1          1          1          1          1          1          1          1          1          1          1          1          1          1          1          1          1          1          1          1          1          1          1          1          1          1          1          1          1          1          1          1          1          1          1          1          1          1          1          1          1          1          1          1          1          1          1          1          1          1          1          1          1          1          1          1          1          1          1          1          1          1          1          1          1          1          1          1          1          1          1          1          1          1          1          1          1          1          1          1          1          1          1          1          1          1          1          1          1          1          1          1          1          1          1          1          1          1          1          1          1          1          1          1          1          1          1          1          1          1          1          1          1          1          1          1          1          1          1          1          1          1          1          1          1          1          1          1          1          1          1          1          1          1          1          1          1          1          1          1          1          1          1          1          1          1          1          1          1          1          1          1          1          1          1          1          1          1          1          1          1          1          1          1          1          1          1          1          1          1          1          1          1          1          1          1          1          1          1          1          1          1          1          1          1          1          1          1          1          1          1          1          1          1          1          1          1          1          1          1          1          1          1          1          1          1          1          1          1          1          1          1          1          1          1          1          1          1          1          1          1          1          1          1          1          1          1          1          1          1          1          1          1          1          1          1          1          1          1          1          1          1          1          1          1          1          1          1          1          1          1          1          1          1          1          1          1          1          1          1          1          1          1          1          1          1          1          1          1          1          1          1          1          1          1          1          1          1          1          1          1          1          1          1          1          1          1          1          1          1          1          1          1          1          1          1          1          1          1          1          1          1          1          1          1          1          1          1          1          1          1          1          1          1          1          1          1          1          1          1          1          1          1          1          1          1          1          1          1          1          1          1          1          1          1          1          1          1          1          1          1          1          1          1          1          1          1          1          1          1          1          1          1          1          1          1          1          1          1          1          1          1          1          1          1          1          1          1          1          1          1          1          1          1          1          1          1          1          1          1          1          1          1          1          1          1          1          1          1          1          1          1          1          1          1          1          1          1          1          1          1          1          1          1          1          1          1          1          1          1          1          1          1          1          1          1          1          1          1          1          1          1          1          1          1          1          1          1          1          1          1          1          1          1          1          1          1          1          1          1          1          1          1          1          1          1          1          1          1          1          1          1          1          1          1          1          1          1          1          1          1          1          1          1          1          1          1          1          1          1          1          1          1          1          1          1          1          1          1          1          1          1          1          1          1          1          1          1          1          1          1          1          1          1          1          1          1          1          1          1          1          1          1          1          1          1          1          1          1          1          1          1          1          1          1          1          1          1          1          1          1          1          1          1          1          1          1          1          1          1          1          1          1          1          1          1          1          1          1          1          1          1          1          1          1          1          1          1          1          1          1          1          1          1          1          1          1          1          1          1          1          1          1          1          1          1          1          1          1          1          1          1          1          1          1          1          1          1          1          1          1          1          1          1          1          1          1          1          1          1          1          1          1          1          1          1          1          1          1          1          1          1          1          1          1          1          1          1          1          1          1          1          1          1          1          1          1          1          1          1          1          1          1          1          1          1          1          1          1          1          1          1          1          1          1          1          1          1          1          1          1          1          1          1          1          1          1          1          1          1          1          1          1          1          1          1          1          1          1          1          1          1          1          1          1          1          1          1          1          1          1          1          1          1          1          1          1          1          1          1          1          1          1          1          1          1          1          1          1          1          1          1          1          1          1          1          1          1          1          1          1          1          1          1          1          1          1          1          1          1          1          1          1          1          1 </DataArray>
</CellData>
<PointData>
<DataArray type="Float64"                                    Name="u"                                                      NumberOfComponents=" 3" format="ascii">
             -0.000514148              -0.000000000               0.999999984              -0.000558383               0.000000000               0.999999984              -0.000578373               0.000000000               0.999999984              -0.000589984              -0.000000000               0.999999984              -0.000599136               0.000000000               0.999999984              -0.000608262               0.000000000               0.999999984              -0.000618288               0.000000000               0.999999984              -0.000629413               0.000000000               0.999999984              -0.000641615               0.000000000               0.999999984              -0.000654816               0.000000000               0.999999984              -0.000668822              -0.000000000               0.999999984              -0.000683372              -0.000000000               0.999999984              -0.000698257              -0.000000000               0.999999984              -0.000713167               0.000000000               0.999999984              -0.000727912              -0.000000000               0.999999984              -0.000742092               0.000000000               0.999999984              -0.000755096               0.000000000               0.999999984              -0.000511206               0.000113027               0.999999984              -0.000552402               0.000093727               0.999999984              -0.000570533               0.000085927               0.999999984              -0.000581018               0.000083983               0.999999984              -0.000589489               0.000085092               0.999999984              -0.000598172               0.000088057               0.999999984              -0.000607793               0.000091794               0.999999984              -0.000618523               0.000095882               0.999999984              -0.000630300               0.000100098               0.999999984              -0.000642960               0.000103987               0.999999984              -0.000656247               0.000107340               0.999999984              -0.000669875               0.000109897               0.999999984              -0.000683598               0.000111456               0.999999984              -0.000697227               0.000111870               0.999999984              -0.000710586               0.000110665               0.999999984              -0.000723316               0.000107010               0.999999984              -0.000734995               0.000099991               0.999999984              -0.000502616               0.000224896               0.999999984              -0.000534994               0.000186766               0.999999984              -0.000547850               0.000172181               0.999999984              -0.000555283               0.000169094               0.999999984              -0.000561949               0.000171985               0.999999984              -0.000569414               0.000178125               0.999999984              -0.000578067               0.000185840               0.999999984              -0.000587768               0.000194234               0.999999984              -0.000598315               0.000202556               0.999999984              -0.000609453               0.000210235               0.999999984              -0.000620820               0.000216857               0.999999984              -0.000632225               0.000222097               0.999999984              -0.000643418               0.000225582               0.999999984              -0.000654195               0.000226869               0.999999984              -0.000664316               0.000225298               0.999999984              -0.000673562               0.000219829               0.999999984              -0.000681956               0.000209637               0.999999984              -0.000488448               0.000334514               0.999999984              -0.000506954               0.000278620               0.999999984              -0.000512287               0.000258934               0.999999984              -0.000515662               0.000256092               0.999999984              -0.000520122               0.000261644               0.999999984              -0.000526217               0.000271557               0.999999984              -0.000533663               0.000283476               0.999999984              -0.000542000               0.000296150               0.999999984              -0.000550915               0.000308662               0.999999984              -0.000559996               0.000320060               0.999999984              -0.000568908               0.000329888               0.999999984              -0.000577292               0.000337780               0.999999984              -0.000584955               0.000343461               0.999999984              -0.000591734               0.000346481               0.999999984              -0.000597629               0.000346245               0.999999984              -0.000602773               0.000342005               0.999999984              -0.000607340               0.000333560               0.999999984              -0.000468973               0.000440731               0.999999984              -0.000469783               0.000368986               0.999999984              -0.000466763               0.000346240               0.999999984              -0.000466224               0.000345120               0.999999984              -0.000468869               0.000354275               0.999999984              -0.000473915               0.000368371               0.999999984              -0.000480398               0.000384631               0.999999984              -0.000487615               0.000401456               0.999999984              -0.000494907               0.000417877               0.999999984              -0.000501744               0.000432786               0.999999984              -0.000507813               0.000445785               0.999999984              -0.000512937               0.000456624               0.999999984              -0.000516893               0.000465080               0.999999984              -0.000519720               0.000470849               0.999999984              -0.000521590               0.000473710               0.999999984              -0.000522742               0.000473634               0.999999984              -0.000523589               0.000470753               0.999999984              -0.000444646               0.000542439               0.999999984              -0.000425543               0.000457624               0.999999984              -0.000414792               0.000433874               0.999999984              -0.000411583               0.000435632               0.999999984              -0.000413413               0.000448937               0.999999984              -0.000418145               0.000467460               0.999999984              -0.000424206               0.000487971               0.999999984              -0.000430413               0.000508873               0.999999984              -0.000436022               0.000528932               0.999999984              -0.000440710               0.000547261               0.999999984              -0.000444100               0.000563499               0.999999984              -0.000446041               0.000577476               0.999999984              -0.000446486               0.000588878               0.999999984              -0.000445584               0.000597922               0.999999984              -0.000443633               0.000604896               0.999999984              -0.000440948               0.000609789               0.999999984              -0.000437579               0.000612757               0.999999984              -0.000415926               0.000638583               0.999999984              -0.000376518               0.000544392               0.999999984              -0.000360119               0.000521258               0.999999984              -0.000356098               0.000526467               0.999999984              -0.000358346               0.000544023               0.999999984              -0.000363497               0.000567060               0.999999984              -0.000369320               0.000591742               0.999999984              -0.000374601               0.000616498               0.999999984              -0.000378706               0.000640133               0.999999984              -0.000381084               0.000661866               0.999999984              -0.000381494               0.000681179               0.999999984              -0.000379975               0.000697915               0.999999984              -0.000376636               0.000712179               0.999999984              -0.000371812               0.000724508               0.999999984              -0.000365639               0.000735209               0.999999984              -0.000358174               0.000744230               0.999999984              -0.000349344               0.000751143               0.999999984              -0.000383512               0.000728075               0.999999984              -0.000325322               0.000628945               0.999999984              -0.000305997               0.000607639               0.999999984              -0.000303150               0.000616312               0.999999984              -0.000306910               0.000637886               0.999999984              -0.000312838               0.000665108               0.999999984              -0.000318554               0.000693838               0.999999984              -0.000322880               0.000722501               0.999999984              -0.000324985               0.000749728               0.999999984              -0.000324603               0.000774258               0.999999984              -0.000321608               0.000795849               0.999999984              -0.000316020               0.000814760               0.999999984              -0.000308152               0.000831463               0.999999984              -0.000298227               0.000846685               0.999999984              -0.000286451               0.000860498               0.999999984              -0.000272939               0.000872557               0.999999984              -0.000257829               0.000882307               0.999999984              -0.000348663               0.000809421               0.999999984              -0.000273822               0.000711180               0.999999984              -0.000255253               0.000691963               0.999999984              -0.000254959               0.000703710               0.999999984              -0.000260754               0.000729032               0.999999984              -0.000267590               0.000760122               0.999999984              -0.000273036               0.000793001               0.999999984              -0.000275881               0.000825320               0.999999984              -0.000275555               0.000855233               0.999999984              -0.000271575               0.000881943               0.999999984              -0.000263908               0.000905330               0.999999984              -0.000252875               0.000926171               0.999999984              -0.000239087               0.000945193               0.999999984              -0.000223120               0.000962753               0.999999984              -0.000205344               0.000978874               0.999999984              -0.000186020               0.000993249               0.999999984              -0.000165940               0.001006065               0.999999984              -0.000313163               0.000885757               0.999999984              -0.000231500               0.000800777               0.999999984              -0.000209896               0.000776807               0.999999984              -0.000208235               0.000782687               0.999999984              -0.000213378               0.000803154               0.999999984              -0.000220079               0.000830981               0.999999984              -0.000225968               0.000862315               0.999999984              -0.000229560               0.000894306               0.999999984              -0.000230250               0.000925330               0.999999984              -0.000227630               0.000953945               0.999999984              -0.000221136               0.000979683               0.999999984              -0.000210754               0.001002754               0.999999984              -0.000197017               0.001023719               0.999999984              -0.000180775               0.001043307               0.999999984              -0.000162785               0.001061692               0.999999984              -0.000143371               0.001079119               0.999999984              -0.000123378               0.001095207               0.999999984              -0.000274286               0.000954795               0.999999984              -0.000192019               0.000886763               0.999999984              -0.000167429               0.000863187               0.999999984              -0.000163667               0.000865152               0.999999984              -0.000167520               0.000881685               0.999999984              -0.000173516               0.000906512               0.999999984              -0.000179267               0.000936144               0.999999984              -0.000183318               0.000967592               0.999999984              -0.000184891               0.000999128               0.999999984              -0.000183327               0.001029503               0.999999984              -0.000178084               0.001057768               0.999999984              -0.000168741               0.001083517               0.999999984              -0.000155535               0.001106783               0.999999984              -0.000138963               0.001128213               0.999999984              -0.000119869               0.001148364               0.999999984              -0.000098990               0.001167822               0.999999984              -0.000076986               0.001186617               0.999999984              -0.000232775               0.001015109               0.999999984              -0.000155195               0.000966787               0.999999984              -0.000129041               0.000947298               0.999999984              -0.000123034               0.000948085               0.999999984              -0.000125044               0.000962173               0.999999984              -0.000129879               0.000984832               0.999999984              -0.000134933               0.001012905               0.999999984              -0.000138866               0.001043863               0.999999984              -0.000140931               0.001075908               0.999999984              -0.000140153               0.001107611               0.999999984              -0.000136084               0.001138293               0.999999984              -0.000128076               0.001167081               0.999999984              -0.000115857               0.001193633               0.999999984              -0.000099569               0.001217931               0.999999984              -0.000079551               0.001240498               0.999999984              -0.000056252               0.001261937               0.999999984              -0.000030387               0.001282815               0.999999984              -0.000189034               0.001065675               0.999999984              -0.000120942               0.001037694               0.999999984              -0.000095367               0.001025065               0.999999984              -0.000087714               0.001027137               0.999999984              -0.000087852               0.001040493               0.999999984              -0.000091099               0.001062150               0.999999984              -0.000094997               0.001089489               0.999999984              -0.000098353               0.001120164               0.999999984              -0.000100371               0.001152851               0.999999984              -0.000100112               0.001186094               0.999999984              -0.000096886               0.001219008               0.999999984              -0.000090151               0.001250928               0.999999984              -0.000079625               0.001281246               0.999999984              -0.000064789               0.001309500               0.999999984              -0.000045101               0.001335797               0.999999984              -0.000020399               0.001360410               0.999999984               0.000009159               0.001383950               0.999999984              -0.000143422               0.001105835               0.999999984              -0.000088859               0.001096458               0.999999984              -0.000066463               0.001091991               0.999999984              -0.000058464               0.001097136               0.999999984              -0.000057184               0.001111279               0.999999984              -0.000058802               0.001132969               0.999999984              -0.000061417               0.001160236               0.999999984              -0.000063876               0.001191265               0.999999984              -0.000065502               0.001224676               0.999999984              -0.000065486               0.001259397               0.999999984              -0.000062967               0.001294672               0.999999984              -0.000057622               0.001329576               0.999999984              -0.000049235               0.001363590               0.999999984              -0.000036937               0.001396232               0.999999984              -0.000019541               0.001427187               0.999999984               0.000003688               0.001456268               0.999999984               0.000033496               0.001483664               0.999999984              -0.000096400               0.001134948               0.999999984              -0.000058409               0.001140444               0.999999984              -0.000041742               0.001143624               0.999999984              -0.000035092               0.001152455               0.999999984              -0.000033295               0.001168246               0.999999984              -0.000033764               0.001190662               0.999999984              -0.000035237               0.001218320               0.999999984              -0.000036805               0.001249801               0.999999984              -0.000037874               0.001284067               0.999999984              -0.000037744               0.001320147               0.999999984              -0.000036040               0.001357321               0.999999984              -0.000032434               0.001394827               0.999999984              -0.000026553               0.001432136               0.999999984              -0.000017630               0.001468708               0.999999984              -0.000004658               0.001504124               0.999999984               0.000013561               0.001537903               0.999999984               0.000038214               0.001569705               0.999999984              -0.000048457               0.001152527               0.999999984              -0.000028967               0.001167628               0.999999984              -0.000020047               0.001176312               0.999999984              -0.000016278               0.001188117               0.999999984              -0.000015031               0.001205451               0.999999984              -0.000015007               0.001228639               0.999999984              -0.000015639               0.001256756               0.999999984              -0.000016404               0.001288733               0.999999984              -0.000016907               0.001323615               0.999999984              -0.000016797               0.001360609               0.999999984              -0.000015911               0.001399111               0.999999984              -0.000014125               0.001438418               0.999999984              -0.000011118               0.001478081               0.999999984              -0.000006408               0.001517500               0.999999984               0.000000598               0.001556160               0.999999984               0.000010752               0.001593408               0.999999984               0.000024765               0.001628634               0.999999984               0.000000000               0.001158482               0.999999984              -0.000000000               0.001176845               0.999999984              -0.000000000               0.001187394               0.999999984              -0.000000000               0.001200362               0.999999984              -0.000000000               0.001218403               0.999999984              -0.000000000               0.001241957               0.999999984               0.000000000               0.001270275               0.999999984               0.000000000               0.001302382               0.999999984              -0.000000000               0.001337505               0.999999984              -0.000000000               0.001374815               0.999999984               0.000000000               0.001413768               0.999999984               0.000000000               0.001453724               0.999999984               0.000000000               0.001494230               0.999999984              -0.000000000               0.001534734               0.999999984              -0.000000000               0.001574643               0.999999984               0.000000000               0.001613188               0.999999984              -0.000000000               0.001649667               0.999999984              -0.000514148              -0.000000000               0.999999984              -0.000558383               0.000000000               0.999999984              -0.000578373               0.000000000               0.999999984              -0.000589984              -0.000000000               0.999999984              -0.000599136               0.000000000               0.999999984              -0.000608262               0.000000000               0.999999984              -0.000618288               0.000000000               0.999999984              -0.000629413               0.000000000               0.999999984              -0.000641615               0.000000000               0.999999984              -0.000654816               0.000000000               0.999999984              -0.000668822              -0.000000000               0.999999984              -0.000683372              -0.000000000               0.999999984              -0.000698257              -0.000000000               0.999999984              -0.000713167               0.000000000               0.999999984              -0.000727912              -0.000000000               0.999999984              -0.000742092               0.000000000               0.999999984              -0.000755096               0.000000000               0.999999984              -0.000511206              -0.000113027               0.999999984              -0.000552402              -0.000093727               0.999999984              -0.000570533              -0.000085927               0.999999984              -0.000581018              -0.000083983               0.999999984              -0.000589489              -0.000085092               0.999999984              -0.000598172              -0.000088057               0.999999984              -0.000607793              -0.000091794               0.999999984              -0.000618523              -0.000095882               0.999999984              -0.000630300              -0.000100098               0.999999984              -0.000642960              -0.000103987               0.999999984              -0.000656247              -0.000107340               0.999999984              -0.000669875              -0.000109897               0.999999984              -0.000683598              -0.000111456               0.999999984              -0.000697227              -0.000111870               0.999999984              -0.000710586              -0.000110665               0.999999984              -0.000723316              -0.000107010               0.999999984              -0.000734995              -0.000099991               0.999999984              -0.000502616              -0.000224896               0.999999984              -0.000534994              -0.000186766               0.999999984              -0.000547850              -0.000172181               0.999999984              -0.000555283              -0.000169094               0.999999984              -0.000561949              -0.000171985               0.999999984              -0.000569414              -0.000178125               0.999999984              -0.000578067              -0.000185840               0.999999984              -0.000587768              -0.000194234               0.999999984              -0.000598315              -0.000202556               0.999999984              -0.000609453              -0.000210235               0.999999984              -0.000620820              -0.000216857               0.999999984              -0.000632225              -0.000222097               0.999999984              -0.000643418              -0.000225582               0.999999984              -0.000654195              -0.000226869               0.999999984              -0.000664316              -0.000225298               0.999999984              -0.000673562              -0.000219829               0.999999984              -0.000681956              -0.000209637               0.999999984              -0.000488448              -0.000334514               0.999999984              -0.000506954              -0.000278620               0.999999984              -0.000512287              -0.000258934               0.999999984              -0.000515662              -0.000256092               0.999999984              -0.000520122              -0.000261644               0.999999984              -0.000526217              -0.000271557               0.999999984              -0.000533663              -0.000283476               0.999999984              -0.000542000              -0.000296150               0.999999984              -0.000550915              -0.000308662               0.999999984              -0.000559996              -0.000320060               0.999999984              -0.000568908              -0.000329888               0.999999984              -0.000577292              -0.000337780               0.999999984              -0.000584955              -0.000343461               0.999999984              -0.000591734              -0.000346481               0.999999984              -0.000597629              -0.000346245               0.999999984              -0.000602773              -0.000342005               0.999999984              -0.000607340              -0.000333560               0.999999984              -0.000468973              -0.000440731               0.999999984              -0.000469783              -0.000368986               0.999999984              -0.000466763              -0.000346240               0.999999984              -0.000466224              -0.000345120               0.999999984              -0.000468869              -0.000354275               0.999999984              -0.000473915              -0.000368371               0.999999984              -0.000480398              -0.000384631               0.999999984              -0.000487615              -0.000401456               0.999999984              -0.000494907              -0.000417877               0.999999984              -0.000501744              -0.000432786               0.999999984              -0.000507813              -0.000445785               0.999999984              -0.000512937              -0.000456624               0.999999984              -0.000516893              -0.000465080               0.999999984              -0.000519720              -0.000470849               0.999999984              -0.000521590              -0.000473710               0.999999984              -0.000522742              -0.000473634               0.999999984              -0.000523589              -0.000470753               0.999999984              -0.000444646              -0.000542439               0.999999984              -0.000425543              -0.000457624               0.999999984              -0.000414792              -0.000433874               0.999999984              -0.000411583              -0.000435632               0.999999984              -0.000413413              -0.000448937               0.999999984              -0.000418145              -0.000467460               0.999999984              -0.000424206              -0.000487971               0.999999984              -0.000430413              -0.000508873               0.999999984              -0.000436022              -0.000528932               0.999999984              -0.000440710              -0.000547261               0.999999984              -0.000444100              -0.000563499               0.999999984              -0.000446041              -0.000577476               0.999999984              -0.000446486              -0.000588878               0.999999984              -0.000445584              -0.000597922               0.999999984              -0.000443633              -0.000604896               0.999999984              -0.000440948              -0.000609789               0.999999984              -0.000437579              -0.000612757               0.999999984              -0.000415926              -0.000638583               0.999999984              -0.000376518              -0.000544392               0.999999984              -0.000360119              -0.000521258               0.999999984              -0.000356098              -0.000526467               0.999999984              -0.000358346              -0.000544023               0.999999984              -0.000363497              -0.000567060               0.999999984              -0.000369320              -0.000591742               0.999999984              -0.000374601              -0.000616498               0.999999984              -0.000378706              -0.000640133               0.999999984              -0.000381084              -0.000661866               0.999999984              -0.000381494              -0.000681179               0.999999984              -0.000379975              -0.000697915               0.999999984              -0.000376636              -0.000712179               0.999999984              -0.000371812              -0.000724508               0.999999984              -0.000365639              -0.000735209               0.999999984              -0.000358174              -0.000744230               0.999999984              -0.000349344              -0.000751143               0.999999984              -0.000383512              -0.000728075               0.999999984              -0.000325322              -0.000628945               0.999999984              -0.000305997              -0.000607639               0.999999984              -0.000303150              -0.000616312               0.999999984              -0.000306910              -0.000637886               0.999999984              -0.000312838              -0.000665108               0.999999984              -0.000318554              -0.000693838               0.999999984              -0.000322880              -0.000722501               0.999999984              -0.000324985              -0.000749728               0.999999984              -0.000324603              -0.000774258               0.999999984              -0.000321608              -0.000795849               0.999999984              -0.000316020              -0.000814760               0.999999984              -0.000308152              -0.000831463               0.999999984              -0.000298227              -0.000846685               0.999999984              -0.000286451              -0.000860498               0.999999984              -0.000272939              -0.000872557               0.999999984              -0.000257829              -0.000882307               0.999999984              -0.000348663              -0.000809421               0.999999984              -0.000273822              -0.000711180               0.999999984              -0.000255253              -0.000691963               0.999999984              -0.000254959              -0.000703710               0.999999984              -0.000260754              -0.000729032               0.999999984              -0.000267590              -0.000760122               0.999999984              -0.000273036              -0.000793001               0.999999984              -0.000275881              -0.000825320               0.999999984              -0.000275555              -0.000855233               0.999999984              -0.000271575              -0.000881943               0.999999984              -0.000263908              -0.000905330               0.999999984              -0.000252875              -0.000926171               0.999999984              -0.000239087              -0.000945193               0.999999984              -0.000223120              -0.000962753               0.999999984              -0.000205344              -0.000978874               0.999999984              -0.000186020              -0.000993249               0.999999984              -0.000165940              -0.001006065               0.999999984              -0.000313163              -0.000885757               0.999999984              -0.000231500              -0.000800777               0.999999984              -0.000209896              -0.000776807               0.999999984              -0.000208235              -0.000782687               0.999999984              -0.000213378              -0.000803154               0.999999984              -0.000220079              -0.000830981               0.999999984              -0.000225968              -0.000862315               0.999999984              -0.000229560              -0.000894306               0.999999984              -0.000230250              -0.000925330               0.999999984              -0.000227630              -0.000953945               0.999999984              -0.000221136              -0.000979683               0.999999984              -0.000210754              -0.001002754               0.999999984              -0.000197017              -0.001023719               0.999999984              -0.000180775              -0.001043307               0.999999984              -0.000162785              -0.001061692               0.999999984              -0.000143371              -0.001079119               0.999999984              -0.000123378              -0.001095207               0.999999984              -0.000274286              -0.000954795               0.999999984              -0.000192019              -0.000886763               0.999999984              -0.000167429              -0.000863187               0.999999984              -0.000163667              -0.000865152               0.999999984              -0.000167520              -0.000881685               0.999999984              -0.000173516              -0.000906512               0.999999984              -0.000179267              -0.000936144               0.999999984              -0.000183318              -0.000967592               0.999999984              -0.000184891              -0.000999128               0.999999984              -0.000183327              -0.001029503               0.999999984              -0.000178084              -0.001057768               0.999999984              -0.000168741              -0.001083517               0.999999984              -0.000155535              -0.001106783               0.999999984              -0.000138963              -0.001128213               0.999999984              -0.000119869              -0.001148364               0.999999984              -0.000098990              -0.001167822               0.999999984              -0.000076986              -0.001186617               0.999999984              -0.000232775              -0.001015109               0.999999984              -0.000155195              -0.000966787               0.999999984              -0.000129041              -0.000947298               0.999999984              -0.000123034              -0.000948085               0.999999984              -0.000125044              -0.000962173               0.999999984              -0.000129879              -0.000984832               0.999999984              -0.000134933              -0.001012905               0.999999984              -0.000138866              -0.001043863               0.999999984              -0.000140931              -0.001075908               0.999999984              -0.000140153              -0.001107611               0.999999984              -0.000136084              -0.001138293               0.999999984              -0.000128076              -0.001167081               0.999999984              -0.000115857              -0.001193633               0.999999984              -0.000099569              -0.001217931               0.999999984              -0.000079551              -0.001240498               0.999999984              -0.000056252              -0.001261937               0.999999984              -0.000030387              -0.001282815               0.999999984              -0.000189034              -0.001065675               0.999999984              -0.000120942              -0.001037694               0.999999984              -0.000095367              -0.001025065               0.999999984              -0.000087714              -0.001027137               0.999999984              -0.000087852              -0.001040493               0.999999984              -0.000091099              -0.001062150               0.999999984              -0.000094997              -0.001089489               0.999999984              -0.000098353              -0.001120164               0.999999984              -0.000100371              -0.001152851               0.999999984              -0.000100112              -0.001186094               0.999999984              -0.000096886              -0.001219008               0.999999984              -0.000090151              -0.001250928               0.999999984              -0.000079625              -0.001281246               0.999999984              -0.000064789              -0.001309500               0.999999984              -0.000045101              -0.001335797               0.999999984              -0.000020399              -0.001360410               0.999999984               0.000009159              -0.001383950               0.999999984              -0.000143422              -0.001105835               0.999999984              -0.000088859              -0.001096458               0.999999984              -0.000066463              -0.001091991               0.999999984              -0.000058464              -0.001097136               0.999999984              -0.000057184              -0.001111279               0.999999984              -0.000058802              -0.001132969               0.999999984              -0.000061417              -0.001160236               0.999999984              -0.000063876              -0.001191265               0.999999984              -0.000065502              -0.001224676               0.999999984              -0.000065486              -0.001259397               0.999999984              -0.000062967              -0.001294672               0.999999984              -0.000057622              -0.001329576               0.999999984              -0.000049235              -0.001363590               0.999999984              -0.000036937              -0.001396232               0.999999984              -0.000019541              -0.001427187               0.999999984               0.000003688              -0.001456268               0.999999984               0.000033496              -0.001483664               0.999999984              -0.000096400              -0.001134948               0.999999984              -0.000058409              -0.001140444               0.999999984              -0.000041742              -0.001143624               0.999999984              -0.000035092              -0.001152455               0.999999984              -0.000033295              -0.001168246               0.999999984              -0.000033764              -0.001190662               0.999999984              -0.000035237              -0.001218320               0.999999984              -0.000036805              -0.001249801               0.999999984              -0.000037874              -0.001284067               0.999999984              -0.000037744              -0.001320147               0.999999984              -0.000036040              -0.001357321               0.999999984              -0.000032434              -0.001394827               0.999999984              -0.000026553              -0.001432136               0.999999984              -0.000017630              -0.001468708               0.999999984              -0.000004658              -0.001504124               0.999999984               0.000013561              -0.001537903               0.999999984               0.000038214              -0.001569705               0.999999984              -0.000048457              -0.001152527               0.999999984              -0.000028967              -0.001167628               0.999999984              -0.000020047              -0.001176312               0.999999984              -0.000016278              -0.001188117               0.999999984              -0.000015031              -0.001205451               0.999999984              -0.000015007              -0.001228639               0.999999984              -0.000015639              -0.001256756               0.999999984              -0.000016404              -0.001288733               0.999999984              -0.000016907              -0.001323615               0.999999984              -0.000016797              -0.001360609               0.999999984              -0.000015911              -0.001399111               0.999999984              -0.000014125              -0.001438418               0.999999984              -0.000011118              -0.001478081               0.999999984              -0.000006408              -0.001517500               0.999999984               0.000000598              -0.001556160               0.999999984               0.000010752              -0.001593408               0.999999984               0.000024765              -0.001628634               0.999999984              -0.000000000              -0.001158482               0.999999984              -0.000000000              -0.001176845               0.999999984              -0.000000000              -0.001187394               0.999999984              -0.000000000              -0.001200362               0.999999984               0.000000000              -0.001218403               0.999999984               0.000000000              -0.001241957               0.999999984              -0.000000000              -0.001270275               0.999999984              -0.000000000              -0.001302382               0.999999984              -0.000000000              -0.001337505               0.999999984               0.000000000              -0.001374815               0.999999984               0.000000000              -0.001413768               0.999999984              -0.000000000              -0.001453724               0.999999984              -0.000000000              -0.001494230               0.999999984               0.000000000              -0.001534734               0.999999984               0.000000000              -0.001574643               0.999999984              -0.000000000              -0.001613188               0.999999984               0.000000000              -0.001649667               0.999999984               0.000514148               0.000000000               0.999999984               0.000558383              -0.000000000               0.999999984               0.000578373               0.000000000               0.999999984               0.000589984              -0.000000000               0.999999984               0.000599136               0.000000000               0.999999984               0.000608262               0.000000000               0.999999984               0.000618288               0.000000000               0.999999984               0.000629413               0.000000000               0.999999984               0.000641615               0.000000000               0.999999984               0.000654816              -0.000000000               0.999999984               0.000668822              -0.000000000               0.999999984               0.000683372               0.000000000               0.999999984               0.000698257               0.000000000               0.999999984               0.000713167               0.000000000               0.999999984               0.000727912               0.000000000               0.999999984               0.000742092              -0.000000000               0.999999984               0.000755096              -0.000000000               0.999999984               0.000511206              -0.000113027               0.999999984               0.000552402              -0.000093727               0.999999984               0.000570533              -0.000085927               0.999999984               0.000581018              -0.000083983               0.999999984               0.000589489              -0.000085092               0.999999984               0.000598172              -0.000088057               0.999999984               0.000607793              -0.000091794               0.999999984               0.000618523              -0.000095882               0.999999984               0.000630300              -0.000100098               0.999999984               0.000642960              -0.000103987               0.999999984               0.000656247              -0.000107340               0.999999984               0.000669875              -0.000109897               0.999999984               0.000683598              -0.000111456               0.999999984               0.000697227              -0.000111870               0.999999984               0.000710586              -0.000110665               0.999999984               0.000723316              -0.000107010               0.999999984               0.000734995              -0.000099991               0.999999984               0.000502616              -0.000224896               0.999999984               0.000534994              -0.000186766               0.999999984               0.000547850              -0.000172181               0.999999984               0.000555283              -0.000169094               0.999999984               0.000561949              -0.000171985               0.999999984               0.000569414              -0.000178125               0.999999984               0.000578067              -0.000185840               0.999999984               0.000587768              -0.000194234               0.999999984               0.000598315              -0.000202556               0.999999984               0.000609453              -0.000210235               0.999999984               0.000620820              -0.000216857               0.999999984               0.000632225              -0.000222097               0.999999984               0.000643418              -0.000225582               0.999999984               0.000654195              -0.000226869               0.999999984               0.000664316              -0.000225298               0.999999984               0.000673562              -0.000219829               0.999999984               0.000681956              -0.000209637               0.999999984               0.000488448              -0.000334514               0.999999984               0.000506954              -0.000278620               0.999999984               0.000512287              -0.000258934               0.999999984               0.000515662              -0.000256092               0.999999984               0.000520122              -0.000261644               0.999999984               0.000526217              -0.000271557               0.999999984               0.000533663              -0.000283476               0.999999984               0.000542000              -0.000296150               0.999999984               0.000550915              -0.000308662               0.999999984               0.000559996              -0.000320060               0.999999984               0.000568908              -0.000329888               0.999999984               0.000577292              -0.000337780               0.999999984               0.000584955              -0.000343461               0.999999984               0.000591734              -0.000346481               0.999999984               0.000597629              -0.000346245               0.999999984               0.000602773              -0.000342005               0.999999984               0.000607340              -0.000333560               0.999999984               0.000468973              -0.000440731               0.999999984               0.000469783              -0.000368986               0.999999984               0.000466763              -0.000346240               0.999999984               0.000466224              -0.000345120               0.999999984               0.000468869              -0.000354275               0.999999984               0.000473915              -0.000368371               0.999999984               0.000480398              -0.000384631               0.999999984               0.000487615              -0.000401456               0.999999984               0.000494907              -0.000417877               0.999999984               0.000501744              -0.000432786               0.999999984               0.000507813              -0.000445785               0.999999984               0.000512937              -0.000456624               0.999999984               0.000516893              -0.000465080               0.999999984               0.000519720              -0.000470849               0.999999984               0.000521590              -0.000473710               0.999999984               0.000522742              -0.000473634               0.999999984               0.000523589              -0.000470753               0.999999984               0.000444646              -0.000542439               0.999999984               0.000425543              -0.000457624               0.999999984               0.000414792              -0.000433874               0.999999984               0.000411583              -0.000435632               0.999999984               0.000413413              -0.000448937               0.999999984               0.000418145              -0.000467460               0.999999984               0.000424206              -0.000487971               0.999999984               0.000430413              -0.000508873               0.999999984               0.000436022              -0.000528932               0.999999984               0.000440710              -0.000547261               0.999999984               0.000444100              -0.000563499               0.999999984               0.000446041              -0.000577476               0.999999984               0.000446486              -0.000588878               0.999999984               0.000445584              -0.000597922               0.999999984               0.000443633              -0.000604896               0.999999984               0.000440948              -0.000609789               0.999999984               0.000437579              -0.000612757               0.999999984               0.000415926              -0.000638583               0.999999984               0.000376518              -0.000544392               0.999999984               0.000360119              -0.000521258               0.999999984               0.000356098              -0.000526467               0.999999984               0.000358346              -0.000544023               0.999999984               0.000363497              -0.000567060               0.999999984               0.000369320              -0.000591742               0.999999984               0.000374601              -0.000616498               0.999999984               0.000378706              -0.000640133               0.999999984               0.000381084              -0.000661866               0.999999984               0.000381494              -0.000681179               0.999999984               0.000379975              -0.000697915               0.999999984               0.000376636              -0.000712179               0.999999984               0.000371812              -0.000724508               0.999999984               0.000365639              -0.000735209               0.999999984               0.000358174              -0.000744230               0.999999984               0.000349344              -0.000751143               0.999999984               0.000383512              -0.000728075               0.999999984               0.000325322              -0.000628945               0.999999984               0.000305997              -0.000607639               0.999999984               0.000303150              -0.000616312               0.999999984               0.000306910              -0.000637886               0.999999984               0.000312838              -0.000665108               0.999999984               0.000318554              -0.000693838               0.999999984               0.000322880              -0.000722501               0.999999984               0.000324985              -0.000749728               0.999999984               0.000324603              -0.000774258               0.999999984               0.000321608              -0.000795849               0.999999984               0.000316020              -0.000814760               0.999999984               0.000308152              -0.000831463               0.999999984               0.000298227              -0.000846685               0.999999984               0.000286451              -0.000860498               0.999999984               0.000272939              -0.000872557               0.999999984               0.000257829              -0.000882307               0.999999984               0.000348663              -0.000809421               0.999999984               0.000273822              -0.000711180               0.999999984               0.000255253              -0.000691963               0.999999984               0.000254959              -0.000703710               0.999999984               0.000260754              -0.000729032               0.999999984               0.000267590              -0.000760122               0.999999984               0.000273036              -0.000793001               0.999999984               0.000275881              -0.000825320               0.999999984               0.000275555              -0.000855233               0.999999984               0.000271575              -0.000881943               0.999999984               0.000263908              -0.000905330               0.999999984               0.000252875              -0.000926171               0.999999984               0.000239087              -0.000945193               0.999999984               0.000223120              -0.000962753               0.999999984               0.000205344              -0.000978874               0.999999984               0.000186020              -0.000993249               0.999999984               0.000165940              -0.001006065               0.999999984               0.000313163              -0.000885757               0.999999984               0.000231500              -0.000800777               0.999999984               0.000209896              -0.000776807               0.999999984               0.000208235              -0.000782687               0.999999984               0.000213378              -0.000803154               0.999999984               0.000220079              -0.000830981               0.999999984               0.000225968              -0.000862315               0.999999984               0.000229560              -0.000894306               0.999999984               0.000230250              -0.000925330               0.999999984               0.000227630              -0.000953945               0.999999984               0.000221136              -0.000979683               0.999999984               0.000210754              -0.001002754               0.999999984               0.000197017              -0.001023719               0.999999984               0.000180775              -0.001043307               0.999999984               0.000162785              -0.001061692               0.999999984               0.000143371              -0.001079119               0.999999984               0.000123378              -0.001095207               0.999999984               0.000274286              -0.000954795               0.999999984               0.000192019              -0.000886763               0.999999984               0.000167429              -0.000863187               0.999999984               0.000163667              -0.000865152               0.999999984               0.000167520              -0.000881685               0.999999984               0.000173516              -0.000906512               0.999999984               0.000179267              -0.000936144               0.999999984               0.000183318              -0.000967592               0.999999984               0.000184891              -0.000999128               0.999999984               0.000183327              -0.001029503               0.999999984               0.000178084              -0.001057768               0.999999984               0.000168741              -0.001083517               0.999999984               0.000155535              -0.001106783               0.999999984               0.000138963              -0.001128213               0.999999984               0.000119869              -0.001148364               0.999999984               0.000098990              -0.001167822               0.999999984               0.000076986              -0.001186617               0.999999984               0.000232775              -0.001015109               0.999999984               0.000155195              -0.000966787               0.999999984               0.000129041              -0.000947298               0.999999984               0.000123034              -0.000948085               0.999999984               0.000125044              -0.000962173               0.999999984               0.000129879              -0.000984832               0.999999984               0.000134933              -0.001012905               0.999999984               0.000138866              -0.001043863               0.999999984               0.000140931              -0.001075908               0.999999984               0.000140153              -0.001107611               0.999999984               0.000136084              -0.001138293               0.999999984               0.000128076              -0.001167081               0.999999984               0.000115857              -0.001193633               0.999999984               0.000099569              -0.001217931               0.999999984               0.000079551              -0.001240498               0.999999984               0.000056252              -0.001261937               0.999999984               0.000030387              -0.001282815               0.999999984               0.000189034              -0.001065675               0.999999984               0.000120942              -0.001037694               0.999999984               0.000095367              -0.001025065               0.999999984               0.000087714              -0.001027137               0.999999984               0.000087852              -0.001040493               0.999999984               0.000091099              -0.001062150               0.999999984               0.000094997              -0.001089489               0.999999984               0.000098353              -0.001120164               0.999999984               0.000100371              -0.001152851               0.999999984               0.000100112              -0.001186094               0.999999984               0.000096886              -0.001219008               0.999999984               0.000090151              -0.001250928               0.999999984               0.000079625              -0.001281246               0.999999984               0.000064789              -0.001309500               0.999999984               0.000045101              -0.001335797               0.999999984               0.000020399              -0.001360410               0.999999984              -0.000009159              -0.001383950               0.999999984               0.000143422              -0.001105835               0.999999984               0.000088859              -0.001096458               0.999999984               0.000066463              -0.001091991               0.999999984               0.000058464              -0.001097136               0.999999984               0.000057184              -0.001111279               0.999999984               0.000058802              -0.001132969               0.999999984               0.000061417              -0.001160236               0.999999984               0.000063876              -0.001191265               0.999999984               0.000065502              -0.001224676               0.999999984               0.000065486              -0.001259397               0.999999984               0.000062967              -0.001294672               0.999999984               0.000057622              -0.001329576               0.999999984               0.000049235              -0.001363590               0.999999984               0.000036937              -0.001396232               0.999999984               0.000019541              -0.001427187               0.999999984              -0.000003688              -0.001456268               0.999999984              -0.000033496              -0.001483664               0.999999984               0.000096400              -0.001134948               0.999999984               0.000058409              -0.001140444               0.999999984               0.000041742              -0.001143624               0.999999984               0.000035092              -0.001152455               0.999999984               0.000033295              -0.001168246               0.999999984               0.000033764              -0.001190662               0.999999984               0.000035237              -0.001218320               0.999999984               0.000036805              -0.001249801               0.999999984               0.000037874              -0.001284067               0.999999984               0.000037744              -0.001320147               0.999999984               0.000036040              -0.001357321               0.999999984               0.000032434              -0.001394827               0.999999984               0.000026553              -0.001432136               0.999999984               0.000017630              -0.001468708               0.999999984               0.000004658              -0.001504124               0.999999984              -0.000013561              -0.001537903               0.999999984              -0.000038214              -0.001569705               0.999999984               0.000048457              -0.001152527               0.999999984               0.000028967              -0.001167628               0.999999984               0.000020047              -0.001176312               0.999999984               0.000016278              -0.001188117               0.999999984               0.000015031              -0.001205451               0.999999984               0.000015007              -0.001228639               0.999999984               0.000015639              -0.001256756               0.999999984               0.000016404              -0.001288733               0.999999984               0.000016907              -0.001323615               0.999999984               0.000016797              -0.001360609               0.999999984               0.000015911              -0.001399111               0.999999984               0.000014125              -0.001438418               0.999999984               0.000011118              -0.001478081               0.999999984               0.000006408              -0.001517500               0.999999984              -0.000000598              -0.001556160               0.999999984              -0.000010752              -0.001593408               0.999999984              -0.000024765              -0.001628634               0.999999984              -0.000000000              -0.001158482               0.999999984              -0.000000000              -0.001176845               0.999999984              -0.000000000              -0.001187394               0.999999984              -0.000000000              -0.001200362               0.999999984               0.000000000              -0.001218403               0.999999984               0.000000000              -0.001241957               0.999999984              -0.000000000              -0.001270275               0.999999984              -0.000000000              -0.001302382               0.999999984              -0.000000000              -0.001337505               0.999999984               0.000000000              -0.001374815               0.999999984               0.000000000              -0.001413768               0.999999984              -0.000000000              -0.001453724               0.999999984              -0.000000000              -0.001494230               0.999999984               0.000000000              -0.001534734               0.999999984               0.000000000              -0.001574643               0.999999984              -0.000000000              -0.001613188               0.999999984               0.000000000              -0.001649667               0.999999984               0.000514148               0.000000000               0.999999984               0.000558383              -0.000000000               0.999999984               0.000578373               0.000000000               0.999999984               0.000589984              -0.000000000               0.999999984               0.000599136               0.000000000               0.999999984               0.000608262               0.000000000               0.999999984               0.000618288               0.000000000               0.999999984               0.000629413               0.000000000               0.999999984               0.000641615               0.000000000               0.999999984               0.000654816              -0.000000000               0.999999984               0.000668822              -0.000000000               0.999999984               0.000683372               0.000000000               0.999999984               0.000698257               0.000000000               0.999999984               0.000713167               0.000000000               0.999999984               0.000727912               0.000000000               0.999999984               0.000742092              -0.000000000               0.999999984               0.000755096              -0.000000000               0.999999984               0.000511206               0.000113027               0.999999984               0.000552402               0.000093727               0.999999984               0.000570533               0.000085927               0.999999984               0.000581018               0.000083983               0.999999984               0.000589489               0.000085092               0.999999984               0.000598172               0.000088057               0.999999984               0.000607793               0.000091794               0.999999984               0.000618523               0.000095882               0.999999984               0.000630300               0.000100098               0.999999984               0.000642960               0.000103987               0.999999984               0.000656247               0.000107340               0.999999984               0.000669875               0.000109897               0.999999984               0.000683598               0.000111456               0.999999984               0.000697227               0.000111870               0.999999984               0.000710586               0.000110665               0.999999984               0.000723316               0.000107010               0.999999984               0.000734995               0.000099991               0.999999984               0.000502616               0.000224896               0.999999984               0.000534994               0.000186766               0.999999984               0.000547850               0.000172181               0.999999984               0.000555283               0.000169094               0.999999984               0.000561949               0.000171985               0.999999984               0.000569414               0.000178125               0.999999984               0.000578067               0.000185840               0.999999984               0.000587768               0.000194234               0.999999984               0.000598315               0.000202556               0.999999984               0.000609453               0.000210235               0.999999984               0.000620820               0.000216857               0.999999984               0.000632225               0.000222097               0.999999984               0.000643418               0.000225582               0.999999984               0.000654195               0.000226869               0.999999984               0.000664316               0.000225298               0.999999984               0.000673562               0.000219829               0.999999984               0.000681956               0.000209637               0.999999984               0.000488448               0.000334514               0.999999984               0.000506954               0.000278620               0.999999984               0.000512287               0.000258934               0.999999984               0.000515662               0.000256092               0.999999984               0.000520122               0.000261644               0.999999984               0.000526217               0.000271557               0.999999984               0.000533663               0.000283476               0.999999984               0.000542000               0.000296150               0.999999984               0.000550915               0.000308662               0.999999984               0.000559996               0.000320060               0.999999984               0.000568908               0.000329888               0.999999984               0.000577292               0.000337780               0.999999984               0.000584955               0.000343461               0.999999984               0.000591734               0.000346481               0.999999984               0.000597629               0.000346245               0.999999984               0.000602773               0.000342005               0.999999984               0.000607340               0.000333560               0.999999984               0.000468973               0.000440731               0.999999984               0.000469783               0.000368986               0.999999984               0.000466763               0.000346240               0.999999984               0.000466224               0.000345120               0.999999984               0.000468869               0.000354275               0.999999984               0.000473915               0.000368371               0.999999984               0.000480398               0.000384631               0.999999984               0.000487615               0.000401456               0.999999984               0.000494907               0.000417877               0.999999984               0.000501744               0.000432786               0.999999984               0.000507813               0.000445785               0.999999984               0.000512937               0.000456624               0.999999984               0.000516893               0.000465080               0.999999984               0.000519720               0.000470849               0.999999984               0.000521590               0.000473710               0.999999984               0.000522742               0.000473634               0.999999984               0.000523589               0.000470753               0.999999984               0.000444646               0.000542439               0.999999984               0.000425543               0.000457624               0.999999984               0.000414792               0.000433874               0.999999984               0.000411583               0.000435632               0.999999984               0.000413413               0.000448937               0.999999984               0.000418145               0.000467460               0.999999984               0.000424206               0.000487971               0.999999984               0.000430413               0.000508873               0.999999984               0.000436022               0.000528932               0.999999984               0.000440710               0.000547261               0.999999984               0.000444100               0.000563499               0.999999984               0.000446041               0.000577476               0.999999984               0.000446486               0.000588878               0.999999984               0.000445584               0.000597922               0.999999984               0.000443633               0.000604896               0.999999984               0.000440948               0.000609789               0.999999984               0.000437579               0.000612757               0.999999984               0.000415926               0.000638583               0.999999984               0.000376518               0.000544392               0.999999984               0.000360119               0.000521258               0.999999984               0.000356098               0.000526467               0.999999984               0.000358346               0.000544023               0.999999984               0.000363497               0.000567060               0.999999984               0.000369320               0.000591742               0.999999984               0.000374601               0.000616498               0.999999984               0.000378706               0.000640133               0.999999984               0.000381084               0.000661866               0.999999984               0.000381494               0.000681179               0.999999984               0.000379975               0.000697915               0.999999984               0.000376636               0.000712179               0.999999984               0.000371812               0.000724508               0.999999984               0.000365639               0.000735209               0.999999984               0.000358174               0.000744230               0.999999984               0.000349344               0.000751143               0.999999984               0.000383512               0.000728075               0.999999984               0.000325322               0.000628945               0.999999984               0.000305997               0.000607639               0.999999984               0.000303150               0.000616312               0.999999984               0.000306910               0.000637886               0.999999984               0.000312838               0.000665108               0.999999984               0.000318554               0.000693838               0.999999984               0.000322880               0.000722501               0.999999984               0.000324985               0.000749728               0.999999984               0.000324603               0.000774258               0.999999984               0.000321608               0.000795849               0.999999984               0.000316020               0.000814760               0.999999984               0.000308152               0.000831463               0.999999984               0.000298227               0.000846685               0.999999984               0.000286451               0.000860498               0.999999984               0.000272939               0.000872557               0.999999984               0.000257829               0.000882307               0.999999984               0.000348663               0.000809421               0.999999984               0.000273822               0.000711180               0.999999984               0.000255253               0.000691963               0.999999984               0.000254959               0.000703710               0.999999984               0.000260754               0.000729032               0.999999984               0.000267590               0.000760122               0.999999984               0.000273036               0.000793001               0.999999984               0.000275881               0.000825320               0.999999984               0.000275555               0.000855233               0.999999984               0.000271575               0.000881943               0.999999984               0.000263908               0.000905330               0.999999984               0.000252875               0.000926171               0.999999984               0.000239087               0.000945193               0.999999984               0.000223120               0.000962753               0.999999984               0.000205344               0.000978874               0.999999984               0.000186020               0.000993249               0.999999984               0.000165940               0.001006065               0.999999984               0.000313163               0.000885757               0.999999984               0.000231500               0.000800777               0.999999984               0.000209896               0.000776807               0.999999984               0.000208235               0.000782687               0.999999984               0.000213378               0.000803154               0.999999984               0.000220079               0.000830981               0.999999984               0.000225968               0.000862315               0.999999984               0.000229560               0.000894306               0.999999984               0.000230250               0.000925330               0.999999984               0.000227630               0.000953945               0.999999984               0.000221136               0.000979683               0.999999984               0.000210754               0.001002754               0.999999984               0.000197017               0.001023719               0.999999984               0.000180775               0.001043307               0.999999984               0.000162785               0.001061692               0.999999984               0.000143371               0.001079119               0.999999984               0.000123378               0.001095207               0.999999984               0.000274286               0.000954795               0.999999984               0.000192019               0.000886763               0.999999984               0.000167429               0.000863187               0.999999984               0.000163667               0.000865152               0.999999984               0.000167520               0.000881685               0.999999984               0.000173516               0.000906512               0.999999984               0.000179267               0.000936144               0.999999984               0.000183318               0.000967592               0.999999984               0.000184891               0.000999128               0.999999984               0.000183327               0.001029503               0.999999984               0.000178084               0.001057768               0.999999984               0.000168741               0.001083517               0.999999984               0.000155535               0.001106783               0.999999984               0.000138963               0.001128213               0.999999984               0.000119869               0.001148364               0.999999984               0.000098990               0.001167822               0.999999984               0.000076986               0.001186617               0.999999984               0.000232775               0.001015109               0.999999984               0.000155195               0.000966787               0.999999984               0.000129041               0.000947298               0.999999984               0.000123034               0.000948085               0.999999984               0.000125044               0.000962173               0.999999984               0.000129879               0.000984832               0.999999984               0.000134933               0.001012905               0.999999984               0.000138866               0.001043863               0.999999984               0.000140931               0.001075908               0.999999984               0.000140153               0.001107611               0.999999984               0.000136084               0.001138293               0.999999984               0.000128076               0.001167081               0.999999984               0.000115857               0.001193633               0.999999984               0.000099569               0.001217931               0.999999984               0.000079551               0.001240498               0.999999984               0.000056252               0.001261937               0.999999984               0.000030387               0.001282815               0.999999984               0.000189034               0.001065675               0.999999984               0.000120942               0.001037694               0.999999984               0.000095367               0.001025065               0.999999984               0.000087714               0.001027137               0.999999984               0.000087852               0.001040493               0.999999984               0.000091099               0.001062150               0.999999984               0.000094997               0.001089489               0.999999984               0.000098353               0.001120164               0.999999984               0.000100371               0.001152851               0.999999984               0.000100112               0.001186094               0.999999984               0.000096886               0.001219008               0.999999984               0.000090151               0.001250928               0.999999984               0.000079625               0.001281246               0.999999984               0.000064789               0.001309500               0.999999984               0.000045101               0.001335797               0.999999984               0.000020399               0.001360410               0.999999984              -0.000009159               0.001383950               0.999999984               0.000143422               0.001105835               0.999999984               0.000088859               0.001096458               0.999999984               0.000066463               0.001091991               0.999999984               0.000058464               0.001097136               0.999999984               0.000057184               0.001111279               0.999999984               0.000058802               0.001132969               0.999999984               0.000061417               0.001160236               0.999999984               0.000063876               0.001191265               0.999999984               0.000065502               0.001224676               0.999999984               0.000065486               0.001259397               0.999999984               0.000062967               0.001294672               0.999999984               0.000057622               0.001329576               0.999999984               0.000049235               0.001363590               0.999999984               0.000036937               0.001396232               0.999999984               0.000019541               0.001427187               0.999999984              -0.000003688               0.001456268               0.999999984              -0.000033496               0.001483664               0.999999984               0.000096400               0.001134948               0.999999984               0.000058409               0.001140444               0.999999984               0.000041742               0.001143624               0.999999984               0.000035092               0.001152455               0.999999984               0.000033295               0.001168246               0.999999984               0.000033764               0.001190662               0.999999984               0.000035237               0.001218320               0.999999984               0.000036805               0.001249801               0.999999984               0.000037874               0.001284067               0.999999984               0.000037744               0.001320147               0.999999984               0.000036040               0.001357321               0.999999984               0.000032434               0.001394827               0.999999984               0.000026553               0.001432136               0.999999984               0.000017630               0.001468708               0.999999984               0.000004658               0.001504124               0.999999984              -0.000013561               0.001537903               0.999999984              -0.000038214               0.001569705               0.999999984               0.000048457               0.001152527               0.999999984               0.000028967               0.001167628               0.999999984               0.000020047               0.001176312               0.999999984               0.000016278               0.001188117               0.999999984               0.000015031               0.001205451               0.999999984               0.000015007               0.001228639               0.999999984               0.000015639               0.001256756               0.999999984               0.000016404               0.001288733               0.999999984               0.000016907               0.001323615               0.999999984               0.000016797               0.001360609               0.999999984               0.000015911               0.001399111               0.999999984               0.000014125               0.001438418               0.999999984               0.000011118               0.001478081               0.999999984               0.000006408               0.001517500               0.999999984              -0.000000598               0.001556160               0.999999984              -0.000010752               0.001593408               0.999999984              -0.000024765               0.001628634               0.999999984               0.000000000               0.001158482               0.999999984              -0.000000000               0.001176845               0.999999984              -0.000000000               0.001187394               0.999999984              -0.000000000               0.001200362               0.999999984              -0.000000000               0.001218403               0.999999984              -0.000000000               0.001241957               0.999999984               0.000000000               0.001270275               0.999999984               0.000000000               0.001302382               0.999999984              -0.000000000               0.001337505               0.999999984              -0.000000000               0.001374815               0.999999984               0.000000000               0.001413768               0.999999984               0.000000000               0.001453724               0.999999984               0.000000000               0.001494230               0.999999984              -0.000000000               0.001534734               0.999999984              -0.000000000               0.001574643               0.999999984               0.000000000               0.001613188               0.999999984              -0.000000000               0.001649667               0.999999984 </DataArray>
<DataArray type="Float64"                                    Name="defo"                                                      NumberOfComponents=" 3" format="ascii">
             -0.000514148              -0.000000000               0.999999984              -0.000558383               0.000000000               0.999999984              -0.000578373               0.000000000               0.999999984              -0.000589984              -0.000000000               0.999999984              -0.000599136               0.000000000               0.999999984              -0.000608262               0.000000000               0.999999984              -0.000618288               0.000000000               0.999999984              -0.000629413               0.000000000               0.999999984              -0.000641615               0.000000000               0.999999984              -0.000654816               0.000000000               0.999999984              -0.000668822              -0.000000000               0.999999984              -0.000683372              -0.000000000               0.999999984              -0.000698257              -0.000000000               0.999999984              -0.000713167               0.000000000               0.999999984              -0.000727912              -0.000000000               0.999999984              -0.000742092               0.000000000               0.999999984              -0.000755096               0.000000000               0.999999984              -0.000511206               0.000113027               0.999999984              -0.000552402               0.000093727               0.999999984              -0.000570533               0.000085927               0.999999984              -0.000581018               0.000083983               0.999999984              -0.000589489               0.000085092               0.999999984              -0.000598172               0.000088057               0.999999984              -0.000607793               0.000091794               0.999999984              -0.000618523               0.000095882               0.999999984              -0.000630300               0.000100098               0.999999984              -0.000642960               0.000103987               0.999999984              -0.000656247               0.000107340               0.999999984              -0.000669875               0.000109897               0.999999984              -0.000683598               0.000111456               0.999999984              -0.000697227               0.000111870               0.999999984              -0.000710586               0.000110665               0.999999984              -0.000723316               0.000107010               0.999999984              -0.000734995               0.000099991               0.999999984              -0.000502616               0.000224896               0.999999984              -0.000534994               0.000186766               0.999999984              -0.000547850               0.000172181               0.999999984              -0.000555283               0.000169094               0.999999984              -0.000561949               0.000171985               0.999999984              -0.000569414               0.000178125               0.999999984              -0.000578067               0.000185840               0.999999984              -0.000587768               0.000194234               0.999999984              -0.000598315               0.000202556               0.999999984              -0.000609453               0.000210235               0.999999984              -0.000620820               0.000216857               0.999999984              -0.000632225               0.000222097               0.999999984              -0.000643418               0.000225582               0.999999984              -0.000654195               0.000226869               0.999999984              -0.000664316               0.000225298               0.999999984              -0.000673562               0.000219829               0.999999984              -0.000681956               0.000209637               0.999999984              -0.000488448               0.000334514               0.999999984              -0.000506954               0.000278620               0.999999984              -0.000512287               0.000258934               0.999999984              -0.000515662               0.000256092               0.999999984              -0.000520122               0.000261644               0.999999984              -0.000526217               0.000271557               0.999999984              -0.000533663               0.000283476               0.999999984              -0.000542000               0.000296150               0.999999984              -0.000550915               0.000308662               0.999999984              -0.000559996               0.000320060               0.999999984              -0.000568908               0.000329888               0.999999984              -0.000577292               0.000337780               0.999999984              -0.000584955               0.000343461               0.999999984              -0.000591734               0.000346481               0.999999984              -0.000597629               0.000346245               0.999999984              -0.000602773               0.000342005               0.999999984              -0.000607340               0.000333560               0.999999984              -0.000468973               0.000440731               0.999999984              -0.000469783               0.000368986               0.999999984              -0.000466763               0.000346240               0.999999984              -0.000466224               0.000345120               0.999999984              -0.000468869               0.000354275               0.999999984              -0.000473915               0.000368371               0.999999984              -0.000480398               0.000384631               0.999999984              -0.000487615               0.000401456               0.999999984              -0.000494907               0.000417877               0.999999984              -0.000501744               0.000432786               0.999999984              -0.000507813               0.000445785               0.999999984              -0.000512937               0.000456624               0.999999984              -0.000516893               0.000465080               0.999999984              -0.000519720               0.000470849               0.999999984              -0.000521590               0.000473710               0.999999984              -0.000522742               0.000473634               0.999999984              -0.000523589               0.000470753               0.999999984              -0.000444646               0.000542439               0.999999984              -0.000425543               0.000457624               0.999999984              -0.000414792               0.000433874               0.999999984              -0.000411583               0.000435632               0.999999984              -0.000413413               0.000448937               0.999999984              -0.000418145               0.000467460               0.999999984              -0.000424206               0.000487971               0.999999984              -0.000430413               0.000508873               0.999999984              -0.000436022               0.000528932               0.999999984              -0.000440710               0.000547261               0.999999984              -0.000444100               0.000563499               0.999999984              -0.000446041               0.000577476               0.999999984              -0.000446486               0.000588878               0.999999984              -0.000445584               0.000597922               0.999999984              -0.000443633               0.000604896               0.999999984              -0.000440948               0.000609789               0.999999984              -0.000437579               0.000612757               0.999999984              -0.000415926               0.000638583               0.999999984              -0.000376518               0.000544392               0.999999984              -0.000360119               0.000521258               0.999999984              -0.000356098               0.000526467               0.999999984              -0.000358346               0.000544023               0.999999984              -0.000363497               0.000567060               0.999999984              -0.000369320               0.000591742               0.999999984              -0.000374601               0.000616498               0.999999984              -0.000378706               0.000640133               0.999999984              -0.000381084               0.000661866               0.999999984              -0.000381494               0.000681179               0.999999984              -0.000379975               0.000697915               0.999999984              -0.000376636               0.000712179               0.999999984              -0.000371812               0.000724508               0.999999984              -0.000365639               0.000735209               0.999999984              -0.000358174               0.000744230               0.999999984              -0.000349344               0.000751143               0.999999984              -0.000383512               0.000728075               0.999999984              -0.000325322               0.000628945               0.999999984              -0.000305997               0.000607639               0.999999984              -0.000303150               0.000616312               0.999999984              -0.000306910               0.000637886               0.999999984              -0.000312838               0.000665108               0.999999984              -0.000318554               0.000693838               0.999999984              -0.000322880               0.000722501               0.999999984              -0.000324985               0.000749728               0.999999984              -0.000324603               0.000774258               0.999999984              -0.000321608               0.000795849               0.999999984              -0.000316020               0.000814760               0.999999984              -0.000308152               0.000831463               0.999999984              -0.000298227               0.000846685               0.999999984              -0.000286451               0.000860498               0.999999984              -0.000272939               0.000872557               0.999999984              -0.000257829               0.000882307               0.999999984              -0.000348663               0.000809421               0.999999984              -0.000273822               0.000711180               0.999999984              -0.000255253               0.000691963               0.999999984              -0.000254959               0.000703710               0.999999984              -0.000260754               0.000729032               0.999999984              -0.000267590               0.000760122               0.999999984              -0.000273036               0.000793001               0.999999984              -0.000275881               0.000825320               0.999999984              -0.000275555               0.000855233               0.999999984              -0.000271575               0.000881943               0.999999984              -0.000263908               0.000905330               0.999999984              -0.000252875               0.000926171               0.999999984              -0.000239087               0.000945193               0.999999984              -0.000223120               0.000962753               0.999999984              -0.000205344               0.000978874               0.999999984              -0.000186020               0.000993249               0.999999984              -0.000165940               0.001006065               0.999999984              -0.000313163               0.000885757               0.999999984              -0.000231500               0.000800777               0.999999984              -0.000209896               0.000776807               0.999999984              -0.000208235               0.000782687               0.999999984              -0.000213378               0.000803154               0.999999984              -0.000220079               0.000830981               0.999999984              -0.000225968               0.000862315               0.999999984              -0.000229560               0.000894306               0.999999984              -0.000230250               0.000925330               0.999999984              -0.000227630               0.000953945               0.999999984              -0.000221136               0.000979683               0.999999984              -0.000210754               0.001002754               0.999999984              -0.000197017               0.001023719               0.999999984              -0.000180775               0.001043307               0.999999984              -0.000162785               0.001061692               0.999999984              -0.000143371               0.001079119               0.999999984              -0.000123378               0.001095207               0.999999984              -0.000274286               0.000954795               0.999999984              -0.000192019               0.000886763               0.999999984              -0.000167429               0.000863187               0.999999984              -0.000163667               0.000865152               0.999999984              -0.000167520               0.000881685               0.999999984              -0.000173516               0.000906512               0.999999984              -0.000179267               0.000936144               0.999999984              -0.000183318               0.000967592               0.999999984              -0.000184891               0.000999128               0.999999984              -0.000183327               0.001029503               0.999999984              -0.000178084               0.001057768               0.999999984              -0.000168741               0.001083517               0.999999984              -0.000155535               0.001106783               0.999999984              -0.000138963               0.001128213               0.999999984              -0.000119869               0.001148364               0.999999984              -0.000098990               0.001167822               0.999999984              -0.000076986               0.001186617               0.999999984              -0.000232775               0.001015109               0.999999984              -0.000155195               0.000966787               0.999999984              -0.000129041               0.000947298               0.999999984              -0.000123034               0.000948085               0.999999984              -0.000125044               0.000962173               0.999999984              -0.000129879               0.000984832               0.999999984              -0.000134933               0.001012905               0.999999984              -0.000138866               0.001043863               0.999999984              -0.000140931               0.001075908               0.999999984              -0.000140153               0.001107611               0.999999984              -0.000136084               0.001138293               0.999999984              -0.000128076               0.001167081               0.999999984              -0.000115857               0.001193633               0.999999984              -0.000099569               0.001217931               0.999999984              -0.000079551               0.001240498               0.999999984              -0.000056252               0.001261937               0.999999984              -0.000030387               0.001282815               0.999999984              -0.000189034               0.001065675               0.999999984              -0.000120942               0.001037694               0.999999984              -0.000095367               0.001025065               0.999999984              -0.000087714               0.001027137               0.999999984              -0.000087852               0.001040493               0.999999984              -0.000091099               0.001062150               0.999999984              -0.000094997               0.001089489               0.999999984              -0.000098353               0.001120164               0.999999984              -0.000100371               0.001152851               0.999999984              -0.000100112               0.001186094               0.999999984              -0.000096886               0.001219008               0.999999984              -0.000090151               0.001250928               0.999999984              -0.000079625               0.001281246               0.999999984              -0.000064789               0.001309500               0.999999984              -0.000045101               0.001335797               0.999999984              -0.000020399               0.001360410               0.999999984               0.000009159               0.001383950               0.999999984              -0.000143422               0.001105835               0.999999984              -0.000088859               0.001096458               0.999999984              -0.000066463               0.001091991               0.999999984              -0.000058464               0.001097136               0.999999984              -0.000057184               0.001111279               0.999999984              -0.000058802               0.001132969               0.999999984              -0.000061417               0.001160236               0.999999984              -0.000063876               0.001191265               0.999999984              -0.000065502               0.001224676               0.999999984              -0.000065486               0.001259397               0.999999984              -0.000062967               0.001294672               0.999999984              -0.000057622               0.001329576               0.999999984              -0.000049235               0.001363590               0.999999984              -0.000036937               0.001396232               0.999999984              -0.000019541               0.001427187               0.999999984               0.000003688               0.001456268               0.999999984               0.000033496               0.001483664               0.999999984              -0.000096400               0.001134948               0.999999984              -0.000058409               0.001140444               0.999999984              -0.000041742               0.001143624               0.999999984              -0.000035092               0.001152455               0.999999984              -0.000033295               0.001168246               0.999999984              -0.000033764               0.001190662               0.999999984              -0.000035237               0.001218320               0.999999984              -0.000036805               0.001249801               0.999999984              -0.000037874               0.001284067               0.999999984              -0.000037744               0.001320147               0.999999984              -0.000036040               0.001357321               0.999999984              -0.000032434               0.001394827               0.999999984              -0.000026553               0.001432136               0.999999984              -0.000017630               0.001468708               0.999999984              -0.000004658               0.001504124               0.999999984               0.000013561               0.001537903               0.999999984               0.000038214               0.001569705               0.999999984              -0.000048457               0.001152527               0.999999984              -0.000028967               0.001167628               0.999999984              -0.000020047               0.001176312               0.999999984              -0.000016278               0.001188117               0.999999984              -0.000015031               0.001205451               0.999999984              -0.000015007               0.001228639               0.999999984              -0.000015639               0.001256756               0.999999984              -0.000016404               0.001288733               0.999999984              -0.000016907               0.001323615               0.999999984              -0.000016797               0.001360609               0.999999984              -0.000015911               0.001399111               0.999999984              -0.000014125               0.001438418               0.999999984              -0.000011118               0.001478081               0.999999984              -0.000006408               0.001517500               0.999999984               0.000000598               0.001556160               0.999999984               0.000010752               0.001593408               0.999999984               0.000024765               0.001628634               0.999999984               0.000000000               0.001158482               0.999999984              -0.000000000               0.001176845               0.999999984              -0.000000000               0.001187394               0.999999984              -0.000000000               0.001200362               0.999999984              -0.000000000               0.001218403               0.999999984              -0.000000000               0.001241957               0.999999984               0.000000000               0.001270275               0.999999984               0.000000000               0.001302382               0.999999984              -0.000000000               0.001337505               0.999999984              -0.000000000               0.001374815               0.999999984               0.000000000               0.001413768               0.999999984               0.000000000               0.001453724               0.999999984               0.000000000               0.001494230               0.999999984              -0.000000000               0.001534734               0.999999984              -0.000000000               0.001574643               0.999999984               0.000000000               0.001613188               0.999999984              -0.000000000               0.001649667               0.999999984              -0.000514148              -0.000000000               0.999999984              -0.000558383               0.000000000               0.999999984              -0.000578373               0.000000000               0.999999984              -0.000589984              -0.000000000               0.999999984              -0.000599136               0.000000000               0.999999984              -0.000608262               0.000000000               0.999999984              -0.000618288               0.000000000               0.999999984              -0.000629413               0.000000000               0.999999984              -0.000641615               0.000000000               0.999999984              -0.000654816               0.000000000               0.999999984              -0.000668822              -0.000000000               0.999999984              -0.000683372              -0.000000000               0.999999984              -0.000698257              -0.000000000               0.999999984              -0.000713167               0.000000000               0.999999984              -0.000727912              -0.000000000               0.999999984              -0.000742092               0.000000000               0.999999984              -0.000755096               0.000000000               0.999999984              -0.000511206              -0.000113027               0.999999984              -0.000552402              -0.000093727               0.999999984              -0.000570533              -0.000085927               0.999999984              -0.000581018              -0.000083983               0.999999984              -0.000589489              -0.000085092               0.999999984              -0.000598172              -0.000088057               0.999999984              -0.000607793              -0.000091794               0.999999984              -0.000618523              -0.000095882               0.999999984              -0.000630300              -0.000100098               0.999999984              -0.000642960              -0.000103987               0.999999984              -0.000656247              -0.000107340               0.999999984              -0.000669875              -0.000109897               0.999999984              -0.000683598              -0.000111456               0.999999984              -0.000697227              -0.000111870               0.999999984              -0.000710586              -0.000110665               0.999999984              -0.000723316              -0.000107010               0.999999984              -0.000734995              -0.000099991               0.999999984              -0.000502616              -0.000224896               0.999999984              -0.000534994              -0.000186766               0.999999984              -0.000547850              -0.000172181               0.999999984              -0.000555283              -0.000169094               0.999999984              -0.000561949              -0.000171985               0.999999984              -0.000569414              -0.000178125               0.999999984              -0.000578067              -0.000185840               0.999999984              -0.000587768              -0.000194234               0.999999984              -0.000598315              -0.000202556               0.999999984              -0.000609453              -0.000210235               0.999999984              -0.000620820              -0.000216857               0.999999984              -0.000632225              -0.000222097               0.999999984              -0.000643418              -0.000225582               0.999999984              -0.000654195              -0.000226869               0.999999984              -0.000664316              -0.000225298               0.999999984              -0.000673562              -0.000219829               0.999999984              -0.000681956              -0.000209637               0.999999984              -0.000488448              -0.000334514               0.999999984              -0.000506954              -0.000278620               0.999999984              -0.000512287              -0.000258934               0.999999984              -0.000515662              -0.000256092               0.999999984              -0.000520122              -0.000261644               0.999999984              -0.000526217              -0.000271557               0.999999984              -0.000533663              -0.000283476               0.999999984              -0.000542000              -0.000296150               0.999999984              -0.000550915              -0.000308662               0.999999984              -0.000559996              -0.000320060               0.999999984              -0.000568908              -0.000329888               0.999999984              -0.000577292              -0.000337780               0.999999984              -0.000584955              -0.000343461               0.999999984              -0.000591734              -0.000346481               0.999999984              -0.000597629              -0.000346245               0.999999984              -0.000602773              -0.000342005               0.999999984              -0.000607340              -0.000333560               0.999999984              -0.000468973              -0.000440731               0.999999984              -0.000469783              -0.000368986               0.999999984              -0.000466763              -0.000346240               0.999999984              -0.000466224              -0.000345120               0.999999984              -0.000468869              -0.000354275               0.999999984              -0.000473915              -0.000368371               0.999999984              -0.000480398              -0.000384631               0.999999984              -0.000487615              -0.000401456               0.999999984              -0.000494907              -0.000417877               0.999999984              -0.000501744              -0.000432786               0.999999984              -0.000507813              -0.000445785               0.999999984              -0.000512937              -0.000456624               0.999999984              -0.000516893              -0.000465080               0.999999984              -0.000519720              -0.000470849               0.999999984              -0.000521590              -0.000473710               0.999999984              -0.000522742              -0.000473634               0.999999984              -0.000523589              -0.000470753               0.999999984              -0.000444646              -0.000542439               0.999999984              -0.000425543              -0.000457624               0.999999984              -0.000414792              -0.000433874               0.999999984              -0.000411583              -0.000435632               0.999999984              -0.000413413              -0.000448937               0.999999984              -0.000418145              -0.000467460               0.999999984              -0.000424206              -0.000487971               0.999999984              -0.000430413              -0.000508873               0.999999984              -0.000436022              -0.000528932               0.999999984              -0.000440710              -0.000547261               0.999999984              -0.000444100              -0.000563499               0.999999984              -0.000446041              -0.000577476               0.999999984              -0.000446486              -0.000588878               0.999999984              -0.000445584              -0.000597922               0.999999984              -0.000443633              -0.000604896               0.999999984              -0.000440948              -0.000609789               0.999999984              -0.000437579              -0.000612757               0.999999984              -0.000415926              -0.000638583               0.999999984              -0.000376518              -0.000544392               0.999999984              -0.000360119              -0.000521258               0.999999984              -0.000356098              -0.000526467               0.999999984              -0.000358346              -0.000544023               0.999999984              -0.000363497              -0.000567060               0.999999984              -0.000369320              -0.000591742               0.999999984              -0.000374601              -0.000616498               0.999999984              -0.000378706              -0.000640133               0.999999984              -0.000381084              -0.000661866               0.999999984              -0.000381494              -0.000681179               0.999999984              -0.000379975              -0.000697915               0.999999984              -0.000376636              -0.000712179               0.999999984              -0.000371812              -0.000724508               0.999999984              -0.000365639              -0.000735209               0.999999984              -0.000358174              -0.000744230               0.999999984              -0.000349344              -0.000751143               0.999999984              -0.000383512              -0.000728075               0.999999984              -0.000325322              -0.000628945               0.999999984              -0.000305997              -0.000607639               0.999999984              -0.000303150              -0.000616312               0.999999984              -0.000306910              -0.000637886               0.999999984              -0.000312838              -0.000665108               0.999999984              -0.000318554              -0.000693838               0.999999984              -0.000322880              -0.000722501               0.999999984              -0.000324985              -0.000749728               0.999999984              -0.000324603              -0.000774258               0.999999984              -0.000321608              -0.000795849               0.999999984              -0.000316020              -0.000814760               0.999999984              -0.000308152              -0.000831463               0.999999984              -0.000298227              -0.000846685               0.999999984              -0.000286451              -0.000860498               0.999999984              -0.000272939              -0.000872557               0.999999984              -0.000257829              -0.000882307               0.999999984              -0.000348663              -0.000809421               0.999999984              -0.000273822              -0.000711180               0.999999984              -0.000255253              -0.000691963               0.999999984              -0.000254959              -0.000703710               0.999999984              -0.000260754              -0.000729032               0.999999984              -0.000267590              -0.000760122               0.999999984              -0.000273036              -0.000793001               0.999999984              -0.000275881              -0.000825320               0.999999984              -0.000275555              -0.000855233               0.999999984              -0.000271575              -0.000881943               0.999999984              -0.000263908              -0.000905330               0.999999984              -0.000252875              -0.000926171               0.999999984              -0.000239087              -0.000945193               0.999999984              -0.000223120              -0.000962753               0.999999984              -0.000205344              -0.000978874               0.999999984              -0.000186020              -0.000993249               0.999999984              -0.000165940              -0.001006065               0.999999984              -0.000313163              -0.000885757               0.999999984              -0.000231500              -0.000800777               0.999999984              -0.000209896              -0.000776807               0.999999984              -0.000208235              -0.000782687               0.999999984              -0.000213378              -0.000803154               0.999999984              -0.000220079              -0.000830981               0.999999984              -0.000225968              -0.000862315               0.999999984              -0.000229560              -0.000894306               0.999999984              -0.000230250              -0.000925330               0.999999984              -0.000227630              -0.000953945               0.999999984              -0.000221136              -0.000979683               0.999999984              -0.000210754              -0.001002754               0.999999984              -0.000197017              -0.001023719               0.999999984              -0.000180775              -0.001043307               0.999999984              -0.000162785              -0.001061692               0.999999984              -0.000143371              -0.001079119               0.999999984              -0.000123378              -0.001095207               0.999999984              -0.000274286              -0.000954795               0.999999984              -0.000192019              -0.000886763               0.999999984              -0.000167429              -0.000863187               0.999999984              -0.000163667              -0.000865152               0.999999984              -0.000167520              -0.000881685               0.999999984              -0.000173516              -0.000906512               0.999999984              -0.000179267              -0.000936144               0.999999984              -0.000183318              -0.000967592               0.999999984              -0.000184891              -0.000999128               0.999999984              -0.000183327              -0.001029503               0.999999984              -0.000178084              -0.001057768               0.999999984              -0.000168741              -0.001083517               0.999999984              -0.000155535              -0.001106783               0.999999984              -0.000138963              -0.001128213               0.999999984              -0.000119869              -0.001148364               0.999999984              -0.000098990              -0.001167822               0.999999984              -0.000076986              -0.001186617               0.999999984              -0.000232775              -0.001015109               0.999999984              -0.000155195              -0.000966787               0.999999984              -0.000129041              -0.000947298               0.999999984              -0.000123034              -0.000948085               0.999999984              -0.000125044              -0.000962173               0.999999984              -0.000129879              -0.000984832               0.999999984              -0.000134933              -0.001012905               0.999999984              -0.000138866              -0.001043863               0.999999984              -0.000140931              -0.001075908               0.999999984              -0.000140153              -0.001107611               0.999999984              -0.000136084              -0.001138293               0.999999984              -0.000128076              -0.001167081               0.999999984              -0.000115857              -0.001193633               0.999999984              -0.000099569              -0.001217931               0.999999984              -0.000079551              -0.001240498               0.999999984              -0.000056252              -0.001261937               0.999999984              -0.000030387              -0.001282815               0.999999984              -0.000189034              -0.001065675               0.999999984              -0.000120942              -0.001037694               0.999999984              -0.000095367              -0.001025065               0.999999984              -0.000087714              -0.001027137               0.999999984              -0.000087852              -0.001040493               0.999999984              -0.000091099              -0.001062150               0.999999984              -0.000094997              -0.001089489               0.999999984              -0.000098353              -0.001120164               0.999999984              -0.000100371              -0.001152851               0.999999984              -0.000100112              -0.001186094               0.999999984              -0.000096886              -0.001219008               0.999999984              -0.000090151              -0.001250928               0.999999984              -0.000079625              -0.001281246               0.999999984              -0.000064789              -0.001309500               0.999999984              -0.000045101              -0.001335797               0.999999984              -0.000020399              -0.001360410               0.999999984               0.000009159              -0.001383950               0.999999984              -0.000143422              -0.001105835               0.999999984              -0.000088859              -0.001096458               0.999999984              -0.000066463              -0.001091991               0.999999984              -0.000058464              -0.001097136               0.999999984              -0.000057184              -0.001111279               0.999999984              -0.000058802              -0.001132969               0.999999984              -0.000061417              -0.001160236               0.999999984              -0.000063876              -0.001191265               0.999999984              -0.000065502              -0.001224676               0.999999984              -0.000065486              -0.001259397               0.999999984              -0.000062967              -0.001294672               0.999999984              -0.000057622              -0.001329576               0.999999984              -0.000049235              -0.001363590               0.999999984              -0.000036937              -0.001396232               0.999999984              -0.000019541              -0.001427187               0.999999984               0.000003688              -0.001456268               0.999999984               0.000033496              -0.001483664               0.999999984              -0.000096400              -0.001134948               0.999999984              -0.000058409              -0.001140444               0.999999984              -0.000041742              -0.001143624               0.999999984              -0.000035092              -0.001152455               0.999999984              -0.000033295              -0.001168246               0.999999984              -0.000033764              -0.001190662               0.999999984              -0.000035237              -0.001218320               0.999999984              -0.000036805              -0.001249801               0.999999984              -0.000037874              -0.001284067               0.999999984              -0.000037744              -0.001320147               0.999999984              -0.000036040              -0.001357321               0.999999984              -0.000032434              -0.001394827               0.999999984              -0.000026553              -0.001432136               0.999999984              -0.000017630              -0.001468708               0.999999984              -0.000004658              -0.001504124               0.999999984               0.000013561              -0.001537903               0.999999984               0.000038214              -0.001569705               0.999999984              -0.000048457              -0.001152527               0.999999984              -0.000028967              -0.001167628               0.999999984              -0.000020047              -0.001176312               0.999999984              -0.000016278              -0.001188117               0.999999984              -0.000015031              -0.001205451               0.999999984              -0.000015007              -0.001228639               0.999999984              -0.000015639              -0.001256756               0.999999984              -0.000016404              -0.001288733               0.999999984              -0.000016907              -0.001323615               0.999999984              -0.000016797              -0.001360609               0.999999984              -0.000015911              -0.001399111               0.999999984              -0.000014125              -0.001438418               0.999999984              -0.000011118              -0.001478081               0.999999984              -0.000006408              -0.001517500               0.999999984               0.000000598              -0.001556160               0.999999984               0.000010752              -0.001593408               0.999999984               0.000024765              -0.001628634               0.999999984              -0.000000000              -0.001158482               0.999999984              -0.000000000              -0.001176845               0.999999984              -0.000000000              -0.001187394               0.999999984              -0.000000000              -0.001200362               0.999999984               0.000000000              -0.001218403               0.999999984               0.000000000              -0.001241957               0.999999984              -0.000000000              -0.001270275               0.999999984              -0.000000000              -0.001302382               0.999999984              -0.000000000              -0.001337505               0.999999984               0.000000000              -0.001374815               0.999999984               0.000000000              -0.001413768               0.999999984              -0.000000000              -0.001453724               0.999999984              -0.000000000              -0.001494230               0.999999984               0.000000000              -0.001534734               0.999999984               0.000000000              -0.001574643               0.999999984              -0.000000000              -0.001613188               0.999999984               0.000000000              -0.001649667               0.999999984               0.000514148               0.000000000               0.999999984               0.000558383              -0.000000000               0.999999984               0.000578373               0.000000000               0.999999984               0.000589984              -0.000000000               0.999999984               0.000599136               0.000000000               0.999999984               0.000608262               0.000000000               0.999999984               0.000618288               0.000000000               0.999999984               0.000629413               0.000000000               0.999999984               0.000641615               0.000000000               0.999999984               0.000654816              -0.000000000               0.999999984               0.000668822              -0.000000000               0.999999984               0.000683372               0.000000000               0.999999984               0.000698257               0.000000000               0.999999984               0.000713167               0.000000000               0.999999984               0.000727912               0.000000000               0.999999984               0.000742092              -0.000000000               0.999999984               0.000755096              -0.000000000               0.999999984               0.000511206              -0.000113027               0.999999984               0.000552402              -0.000093727               0.999999984               0.000570533              -0.000085927               0.999999984               0.000581018              -0.000083983               0.999999984               0.000589489              -0.000085092               0.999999984               0.000598172              -0.000088057               0.999999984               0.000607793              -0.000091794               0.999999984               0.000618523              -0.000095882               0.999999984               0.000630300              -0.000100098               0.999999984               0.000642960              -0.000103987               0.999999984               0.000656247              -0.000107340               0.999999984               0.000669875              -0.000109897               0.999999984               0.000683598              -0.000111456               0.999999984               0.000697227              -0.000111870               0.999999984               0.000710586              -0.000110665               0.999999984               0.000723316              -0.000107010               0.999999984               0.000734995              -0.000099991               0.999999984               0.000502616              -0.000224896               0.999999984               0.000534994              -0.000186766               0.999999984               0.000547850              -0.000172181               0.999999984               0.000555283              -0.000169094               0.999999984               0.000561949              -0.000171985               0.999999984               0.000569414              -0.000178125               0.999999984               0.000578067              -0.000185840               0.999999984               0.000587768              -0.000194234               0.999999984               0.000598315              -0.000202556               0.999999984               0.000609453              -0.000210235               0.999999984               0.000620820              -0.000216857               0.999999984               0.000632225              -0.000222097               0.999999984               0.000643418              -0.000225582               0.999999984               0.000654195              -0.000226869               0.999999984               0.000664316              -0.000225298               0.999999984               0.000673562              -0.000219829               0.999999984               0.000681956              -0.000209637               0.999999984               0.000488448              -0.000334514               0.999999984               0.000506954              -0.000278620               0.999999984               0.000512287              -0.000258934               0.999999984               0.000515662              -0.000256092               0.999999984               0.000520122              -0.000261644               0.999999984               0.000526217              -0.000271557               0.999999984               0.000533663              -0.000283476               0.999999984               0.000542000              -0.000296150               0.999999984               0.000550915              -0.000308662               0.999999984               0.000559996              -0.000320060               0.999999984               0.000568908              -0.000329888               0.999999984               0.000577292              -0.000337780               0.999999984               0.000584955              -0.000343461               0.999999984               0.000591734              -0.000346481               0.999999984               0.000597629              -0.000346245               0.999999984               0.000602773              -0.000342005               0.999999984               0.000607340              -0.000333560               0.999999984               0.000468973              -0.000440731               0.999999984               0.000469783              -0.000368986               0.999999984               0.000466763              -0.000346240               0.999999984               0.000466224              -0.000345120               0.999999984               0.000468869              -0.000354275               0.999999984               0.000473915              -0.000368371               0.999999984               0.000480398              -0.000384631               0.999999984               0.000487615              -0.000401456               0.999999984               0.000494907              -0.000417877               0.999999984               0.000501744              -0.000432786               0.999999984               0.000507813              -0.000445785               0.999999984               0.000512937              -0.000456624               0.999999984               0.000516893              -0.000465080               0.999999984               0.000519720              -0.000470849               0.999999984               0.000521590              -0.000473710               0.999999984               0.000522742              -0.000473634               0.999999984               0.000523589              -0.000470753               0.999999984               0.000444646              -0.000542439               0.999999984               0.000425543              -0.000457624               0.999999984               0.000414792              -0.000433874               0.999999984               0.000411583              -0.000435632               0.999999984               0.000413413              -0.000448937               0.999999984               0.000418145              -0.000467460               0.999999984               0.000424206              -0.000487971               0.999999984               0.000430413              -0.000508873               0.999999984               0.000436022              -0.000528932               0.999999984               0.000440710              -0.000547261               0.999999984               0.000444100              -0.000563499               0.999999984               0.000446041              -0.000577476               0.999999984               0.000446486              -0.000588878               0.999999984               0.000445584              -0.000597922               0.999999984               0.000443633              -0.000604896               0.999999984               0.000440948              -0.000609789               0.999999984               0.000437579              -0.000612757               0.999999984               0.000415926              -0.000638583               0.999999984               0.000376518              -0.000544392               0.999999984               0.000360119              -0.000521258               0.999999984               0.000356098              -0.000526467               0.999999984               0.000358346              -0.000544023               0.999999984               0.000363497              -0.000567060               0.999999984               0.000369320              -0.000591742               0.999999984               0.000374601              -0.000616498               0.999999984               0.000378706              -0.000640133               0.999999984               0.000381084              -0.000661866               0.999999984               0.000381494              -0.000681179               0.999999984               0.000379975              -0.000697915               0.999999984               0.000376636              -0.000712179               0.999999984               0.000371812              -0.000724508               0.999999984               0.000365639              -0.000735209               0.999999984               0.000358174              -0.000744230               0.999999984               0.000349344              -0.000751143               0.999999984               0.000383512              -0.000728075               0.999999984               0.000325322              -0.000628945               0.999999984               0.000305997              -0.000607639               0.999999984               0.000303150              -0.000616312               0.999999984               0.000306910              -0.000637886               0.999999984               0.000312838              -0.000665108               0.999999984               0.000318554              -0.000693838               0.999999984               0.000322880              -0.000722501               0.999999984               0.000324985              -0.000749728               0.999999984               0.000324603              -0.000774258               0.999999984               0.000321608              -0.000795849               0.999999984               0.000316020              -0.000814760               0.999999984               0.000308152              -0.000831463               0.999999984               0.000298227              -0.000846685               0.999999984               0.000286451              -0.000860498               0.999999984               0.000272939              -0.000872557               0.999999984               0.000257829              -0.000882307               0.999999984               0.000348663              -0.000809421               0.999999984               0.000273822              -0.000711180               0.999999984               0.000255253              -0.000691963               0.999999984               0.000254959              -0.000703710               0.999999984               0.000260754              -0.000729032               0.999999984               0.000267590              -0.000760122               0.999999984               0.000273036              -0.000793001               0.999999984               0.000275881              -0.000825320               0.999999984               0.000275555              -0.000855233               0.999999984               0.000271575              -0.000881943               0.999999984               0.000263908              -0.000905330               0.999999984               0.000252875              -0.000926171               0.999999984               0.000239087              -0.000945193               0.999999984               0.000223120              -0.000962753               0.999999984               0.000205344              -0.000978874               0.999999984               0.000186020              -0.000993249               0.999999984               0.000165940              -0.001006065               0.999999984               0.000313163              -0.000885757               0.999999984               0.000231500              -0.000800777               0.999999984               0.000209896              -0.000776807               0.999999984               0.000208235              -0.000782687               0.999999984               0.000213378              -0.000803154               0.999999984               0.000220079              -0.000830981               0.999999984               0.000225968              -0.000862315               0.999999984               0.000229560              -0.000894306               0.999999984               0.000230250              -0.000925330               0.999999984               0.000227630              -0.000953945               0.999999984               0.000221136              -0.000979683               0.999999984               0.000210754              -0.001002754               0.999999984               0.000197017              -0.001023719               0.999999984               0.000180775              -0.001043307               0.999999984               0.000162785              -0.001061692               0.999999984               0.000143371              -0.001079119               0.999999984               0.000123378              -0.001095207               0.999999984               0.000274286              -0.000954795               0.999999984               0.000192019              -0.000886763               0.999999984               0.000167429              -0.000863187               0.999999984               0.000163667              -0.000865152               0.999999984               0.000167520              -0.000881685               0.999999984               0.000173516              -0.000906512               0.999999984               0.000179267              -0.000936144               0.999999984               0.000183318              -0.000967592               0.999999984               0.000184891              -0.000999128               0.999999984               0.000183327              -0.001029503               0.999999984               0.000178084              -0.001057768               0.999999984               0.000168741              -0.001083517               0.999999984               0.000155535              -0.001106783               0.999999984               0.000138963              -0.001128213               0.999999984               0.000119869              -0.001148364               0.999999984               0.000098990              -0.001167822               0.999999984               0.000076986              -0.001186617               0.999999984               0.000232775              -0.001015109               0.999999984               0.000155195              -0.000966787               0.999999984               0.000129041              -0.000947298               0.999999984               0.000123034              -0.000948085               0.999999984               0.000125044              -0.000962173               0.999999984               0.000129879              -0.000984832               0.999999984               0.000134933              -0.001012905               0.999999984               0.000138866              -0.001043863               0.999999984               0.000140931              -0.001075908               0.999999984               0.000140153              -0.001107611               0.999999984               0.000136084              -0.001138293               0.999999984               0.000128076              -0.001167081               0.999999984               0.000115857              -0.001193633               0.999999984               0.000099569              -0.001217931               0.999999984               0.000079551              -0.001240498               0.999999984               0.000056252              -0.001261937               0.999999984               0.000030387              -0.001282815               0.999999984               0.000189034              -0.001065675               0.999999984               0.000120942              -0.001037694               0.999999984               0.000095367              -0.001025065               0.999999984               0.000087714              -0.001027137               0.999999984               0.000087852              -0.001040493               0.999999984               0.000091099              -0.001062150               0.999999984               0.000094997              -0.001089489               0.999999984               0.000098353              -0.001120164               0.999999984               0.000100371              -0.001152851               0.999999984               0.000100112              -0.001186094               0.999999984               0.000096886              -0.001219008               0.999999984               0.000090151              -0.001250928               0.999999984               0.000079625              -0.001281246               0.999999984               0.000064789              -0.001309500               0.999999984               0.000045101              -0.001335797               0.999999984               0.000020399              -0.001360410               0.999999984              -0.000009159              -0.001383950               0.999999984               0.000143422              -0.001105835               0.999999984               0.000088859              -0.001096458               0.999999984               0.000066463              -0.001091991               0.999999984               0.000058464              -0.001097136               0.999999984               0.000057184              -0.001111279               0.999999984               0.000058802              -0.001132969               0.999999984               0.000061417              -0.001160236               0.999999984               0.000063876              -0.001191265               0.999999984               0.000065502              -0.001224676               0.999999984               0.000065486              -0.001259397               0.999999984               0.000062967              -0.001294672               0.999999984               0.000057622              -0.001329576               0.999999984               0.000049235              -0.001363590               0.999999984               0.000036937              -0.001396232               0.999999984               0.000019541              -0.001427187               0.999999984              -0.000003688              -0.001456268               0.999999984              -0.000033496              -0.001483664               0.999999984               0.000096400              -0.001134948               0.999999984               0.000058409              -0.001140444               0.999999984               0.000041742              -0.001143624               0.999999984               0.000035092              -0.001152455               0.999999984               0.000033295              -0.001168246               0.999999984               0.000033764              -0.001190662               0.999999984               0.000035237              -0.001218320               0.999999984               0.000036805              -0.001249801               0.999999984               0.000037874              -0.001284067               0.999999984               0.000037744              -0.001320147               0.999999984               0.000036040              -0.001357321               0.999999984               0.000032434              -0.001394827               0.999999984               0.000026553              -0.001432136               0.999999984               0.000017630              -0.001468708               0.999999984               0.000004658              -0.001504124               0.999999984              -0.000013561              -0.001537903               0.999999984              -0.000038214              -0.001569705               0.999999984               0.000048457              -0.001152527               0.999999984               0.000028967              -0.001167628               0.999999984               0.000020047              -0.001176312               0.999999984               0.000016278              -0.001188117               0.999999984               0.000015031              -0.001205451               0.999999984               0.000015007              -0.001228639               0.999999984               0.000015639              -0.001256756               0.999999984               0.000016404              -0.001288733               0.999999984               0.000016907              -0.001323615               0.999999984               0.000016797              -0.001360609               0.999999984               0.000015911              -0.001399111               0.999999984               0.000014125              -0.001438418               0.999999984               0.000011118              -0.001478081               0.999999984               0.000006408              -0.001517500               0.999999984              -0.000000598              -0.001556160               0.999999984              -0.000010752              -0.001593408               0.999999984              -0.000024765              -0.001628634               0.999999984              -0.000000000              -0.001158482               0.999999984              -0.000000000              -0.001176845               0.999999984              -0.000000000              -0.001187394               0.999999984              -0.000000000              -0.001200362               0.999999984               0.000000000              -0.001218403               0.999999984               0.000000000              -0.001241957               0.999999984              -0.000000000              -0.001270275               0.999999984              -0.000000000              -0.001302382               0.999999984              -0.000000000              -0.001337505               0.999999984               0.000000000              -0.001374815               0.999999984               0.000000000              -0.001413768               0.999999984              -0.000000000              -0.001453724               0.999999984              -0.000000000              -0.001494230               0.999999984               0.000000000              -0.001534734               0.999999984               0.000000000              -0.001574643               0.999999984              -0.000000000              -0.001613188               0.999999984               0.000000000              -0.001649667               0.999999984               0.000514148               0.000000000               0.999999984               0.000558383              -0.000000000               0.999999984               0.000578373               0.000000000               0.999999984               0.000589984              -0.000000000               0.999999984               0.000599136               0.000000000               0.999999984               0.000608262               0.000000000               0.999999984               0.000618288               0.000000000               0.999999984               0.000629413               0.000000000               0.999999984               0.000641615               0.000000000               0.999999984               0.000654816              -0.000000000               0.999999984               0.000668822              -0.000000000               0.999999984               0.000683372               0.000000000               0.999999984               0.000698257               0.000000000               0.999999984               0.000713167               0.000000000               0.999999984               0.000727912               0.000000000               0.999999984               0.000742092              -0.000000000               0.999999984               0.000755096              -0.000000000               0.999999984               0.000511206               0.000113027               0.999999984               0.000552402               0.000093727               0.999999984               0.000570533               0.000085927               0.999999984               0.000581018               0.000083983               0.999999984               0.000589489               0.000085092               0.999999984               0.000598172               0.000088057               0.999999984               0.000607793               0.000091794               0.999999984               0.000618523               0.000095882               0.999999984               0.000630300               0.000100098               0.999999984               0.000642960               0.000103987               0.999999984               0.000656247               0.000107340               0.999999984               0.000669875               0.000109897               0.999999984               0.000683598               0.000111456               0.999999984               0.000697227               0.000111870               0.999999984               0.000710586               0.000110665               0.999999984               0.000723316               0.000107010               0.999999984               0.000734995               0.000099991               0.999999984               0.000502616               0.000224896               0.999999984               0.000534994               0.000186766               0.999999984               0.000547850               0.000172181               0.999999984               0.000555283               0.000169094               0.999999984               0.000561949               0.000171985               0.999999984               0.000569414               0.000178125               0.999999984               0.000578067               0.000185840               0.999999984               0.000587768               0.000194234               0.999999984               0.000598315               0.000202556               0.999999984               0.000609453               0.000210235               0.999999984               0.000620820               0.000216857               0.999999984               0.000632225               0.000222097               0.999999984               0.000643418               0.000225582               0.999999984               0.000654195               0.000226869               0.999999984               0.000664316               0.000225298               0.999999984               0.000673562               0.000219829               0.999999984               0.000681956               0.000209637               0.999999984               0.000488448               0.000334514               0.999999984               0.000506954               0.000278620               0.999999984               0.000512287               0.000258934               0.999999984               0.000515662               0.000256092               0.999999984               0.000520122               0.000261644               0.999999984               0.000526217               0.000271557               0.999999984               0.000533663               0.000283476               0.999999984               0.000542000               0.000296150               0.999999984               0.000550915               0.000308662               0.999999984               0.000559996               0.000320060               0.999999984               0.000568908               0.000329888               0.999999984               0.000577292               0.000337780               0.999999984               0.000584955               0.000343461               0.999999984               0.000591734               0.000346481               0.999999984               0.000597629               0.000346245               0.999999984               0.000602773               0.000342005               0.999999984               0.000607340               0.000333560               0.999999984               0.000468973               0.000440731               0.999999984               0.000469783               0.000368986               0.999999984               0.000466763               0.000346240               0.999999984               0.000466224               0.000345120               0.999999984               0.000468869               0.000354275               0.999999984               0.000473915               0.000368371               0.999999984               0.000480398               0.000384631               0.999999984               0.000487615               0.000401456               0.999999984               0.000494907               0.000417877               0.999999984               0.000501744               0.000432786               0.999999984               0.000507813               0.000445785               0.999999984               0.000512937               0.000456624               0.999999984               0.000516893               0.000465080               0.999999984               0.000519720               0.000470849               0.999999984               0.000521590               0.000473710               0.999999984               0.000522742               0.000473634               0.999999984               0.000523589               0.000470753               0.999999984               0.000444646               0.000542439               0.999999984               0.000425543               0.000457624               0.999999984               0.000414792               0.000433874               0.999999984               0.000411583               0.000435632               0.999999984               0.000413413               0.000448937               0.999999984               0.000418145               0.000467460               0.999999984               0.000424206               0.000487971               0.999999984               0.000430413               0.000508873               0.999999984               0.000436022               0.000528932               0.999999984               0.000440710               0.000547261               0.999999984               0.000444100               0.000563499               0.999999984               0.000446041               0.000577476               0.999999984               0.000446486               0.000588878               0.999999984               0.000445584               0.000597922               0.999999984               0.000443633               0.000604896               0.999999984               0.000440948               0.000609789               0.999999984               0.000437579               0.000612757               0.999999984               0.000415926               0.000638583               0.999999984               0.000376518               0.000544392               0.999999984               0.000360119               0.000521258               0.999999984               0.000356098               0.000526467               0.999999984               0.000358346               0.000544023               0.999999984               0.000363497               0.000567060               0.999999984               0.000369320               0.000591742               0.999999984               0.000374601               0.000616498               0.999999984               0.000378706               0.000640133               0.999999984               0.000381084               0.000661866               0.999999984               0.000381494               0.000681179               0.999999984               0.000379975               0.000697915               0.999999984               0.000376636               0.000712179               0.999999984               0.000371812               0.000724508               0.999999984               0.000365639               0.000735209               0.999999984               0.000358174               0.000744230               0.999999984               0.000349344               0.000751143               0.999999984               0.000383512               0.000728075               0.999999984               0.000325322               0.000628945               0.999999984               0.000305997               0.000607639               0.999999984               0.000303150               0.000616312               0.999999984               0.000306910               0.000637886               0.999999984               0.000312838               0.000665108               0.999999984               0.000318554               0.000693838               0.999999984               0.000322880               0.000722501               0.999999984               0.000324985               0.000749728               0.999999984               0.000324603               0.000774258               0.999999984               0.000321608               0.000795849               0.999999984               0.000316020               0.000814760               0.999999984               0.000308152               0.000831463               0.999999984               0.000298227               0.000846685               0.999999984               0.000286451               0.000860498               0.999999984               0.000272939               0.000872557               0.999999984               0.000257829               0.000882307               0.999999984               0.000348663               0.000809421               0.999999984               0.000273822               0.000711180               0.999999984               0.000255253               0.000691963               0.999999984               0.000254959               0.000703710               0.999999984               0.000260754               0.000729032               0.999999984               0.000267590               0.000760122               0.999999984               0.000273036               0.000793001               0.999999984               0.000275881               0.000825320               0.999999984               0.000275555               0.000855233               0.999999984               0.000271575               0.000881943               0.999999984               0.000263908               0.000905330               0.999999984               0.000252875               0.000926171               0.999999984               0.000239087               0.000945193               0.999999984               0.000223120               0.000962753               0.999999984               0.000205344               0.000978874               0.999999984               0.000186020               0.000993249               0.999999984               0.000165940               0.001006065               0.999999984               0.000313163               0.000885757               0.999999984               0.000231500               0.000800777               0.999999984               0.000209896               0.000776807               0.999999984               0.000208235               0.000782687               0.999999984               0.000213378               0.000803154               0.999999984               0.000220079               0.000830981               0.999999984               0.000225968               0.000862315               0.999999984               0.000229560               0.000894306               0.999999984               0.000230250               0.000925330               0.999999984               0.000227630               0.000953945               0.999999984               0.000221136               0.000979683               0.999999984               0.000210754               0.001002754               0.999999984               0.000197017               0.001023719               0.999999984               0.000180775               0.001043307               0.999999984               0.000162785               0.001061692               0.999999984               0.000143371               0.001079119               0.999999984               0.000123378               0.001095207               0.999999984               0.000274286               0.000954795               0.999999984               0.000192019               0.000886763               0.999999984               0.000167429               0.000863187               0.999999984               0.000163667               0.000865152               0.999999984               0.000167520               0.000881685               0.999999984               0.000173516               0.000906512               0.999999984               0.000179267               0.000936144               0.999999984               0.000183318               0.000967592               0.999999984               0.000184891               0.000999128               0.999999984               0.000183327               0.001029503               0.999999984               0.000178084               0.001057768               0.999999984               0.000168741               0.001083517               0.999999984               0.000155535               0.001106783               0.999999984               0.000138963               0.001128213               0.999999984               0.000119869               0.001148364               0.999999984               0.000098990               0.001167822               0.999999984               0.000076986               0.001186617               0.999999984               0.000232775               0.001015109               0.999999984               0.000155195               0.000966787               0.999999984               0.000129041               0.000947298               0.999999984               0.000123034               0.000948085               0.999999984               0.000125044               0.000962173               0.999999984               0.000129879               0.000984832               0.999999984               0.000134933               0.001012905               0.999999984               0.000138866               0.001043863               0.999999984               0.000140931               0.001075908               0.999999984               0.000140153               0.001107611               0.999999984               0.000136084               0.001138293               0.999999984               0.000128076               0.001167081               0.999999984               0.000115857               0.001193633               0.999999984               0.000099569               0.001217931               0.999999984               0.000079551               0.001240498               0.999999984               0.000056252               0.001261937               0.999999984               0.000030387               0.001282815               0.999999984               0.000189034               0.001065675               0.999999984               0.000120942               0.001037694               0.999999984               0.000095367               0.001025065               0.999999984               0.000087714               0.001027137               0.999999984               0.000087852               0.001040493               0.999999984               0.000091099               0.001062150               0.999999984               0.000094997               0.001089489               0.999999984               0.000098353               0.001120164               0.999999984               0.000100371               0.001152851               0.999999984               0.000100112               0.001186094               0.999999984               0.000096886               0.001219008               0.999999984               0.000090151               0.001250928               0.999999984               0.000079625               0.001281246               0.999999984               0.000064789               0.001309500               0.999999984               0.000045101               0.001335797               0.999999984               0.000020399               0.001360410               0.999999984              -0.000009159               0.001383950               0.999999984               0.000143422               0.001105835               0.999999984               0.000088859               0.001096458               0.999999984               0.000066463               0.001091991               0.999999984               0.000058464               0.001097136               0.999999984               0.000057184               0.001111279               0.999999984               0.000058802               0.001132969               0.999999984               0.000061417               0.001160236               0.999999984               0.000063876               0.001191265               0.999999984               0.000065502               0.001224676               0.999999984               0.000065486               0.001259397               0.999999984               0.000062967               0.001294672               0.999999984               0.000057622               0.001329576               0.999999984               0.000049235               0.001363590               0.999999984               0.000036937               0.001396232               0.999999984               0.000019541               0.001427187               0.999999984              -0.000003688               0.001456268               0.999999984              -0.000033496               0.001483664               0.999999984               0.000096400               0.001134948               0.999999984               0.000058409               0.001140444               0.999999984               0.000041742               0.001143624               0.999999984               0.000035092               0.001152455               0.999999984               0.000033295               0.001168246               0.999999984               0.000033764               0.001190662               0.999999984               0.000035237               0.001218320               0.999999984               0.000036805               0.001249801               0.999999984               0.000037874               0.001284067               0.999999984               0.000037744               0.001320147               0.999999984               0.000036040               0.001357321               0.999999984               0.000032434               0.001394827               0.999999984               0.000026553               0.001432136               0.999999984               0.000017630               0.001468708               0.999999984               0.000004658               0.001504124               0.999999984              -0.000013561               0.001537903               0.999999984              -0.000038214               0.001569705               0.999999984               0.000048457               0.001152527               0.999999984               0.000028967               0.001167628               0.999999984               0.000020047               0.001176312               0.999999984               0.000016278               0.001188117               0.999999984               0.000015031               0.001205451               0.999999984               0.000015007               0.001228639               0.999999984               0.000015639               0.001256756               0.999999984               0.000016404               0.001288733               0.999999984               0.000016907               0.001323615               0.999999984               0.000016797               0.001360609               0.999999984               0.000015911               0.001399111               0.999999984               0.000014125               0.001438418               0.999999984               0.000011118               0.001478081               0.999999984               0.000006408               0.001517500               0.999999984              -0.000000598               0.001556160               0.999999984              -0.000010752               0.001593408               0.999999984              -0.000024765               0.001628634               0.999999984               0.000000000               0.001158482               0.999999984              -0.000000000               0.001176845               0.999999984              -0.000000000               0.001187394               0.999999984              -0.000000000               0.001200362               0.999999984              -0.000000000               0.001218403               0.999999984              -0.000000000               0.001241957               0.999999984               0.000000000               0.001270275               0.999999984               0.000000000               0.001302382               0.999999984              -0.000000000               0.001337505               0.999999984              -0.000000000               0.001374815               0.999999984               0.000000000               0.001413768               0.999999984               0.000000000               0.001453724               0.999999984               0.000000000               0.001494230               0.999999984              -0.000000000               0.001534734               0.999999984              -0.000000000               0.001574643               0.999999984               0.000000000               0.001613188               0.999999984              -0.000000000               0.001649667               0.999999984 </DataArray>
<DataArray type="Float64"                                    Name="stress"                                                      NumberOfComponents="10" format="ascii">
              0.001873890               0.020758333               0.000000000              -0.001892078               0.007550068               0.005657990               0.000000000               0.000000000               0.000000000               0.000000000               0.001880369               0.016395220               0.000000000              -0.001344261               0.005913106               0.004568845               0.000000000               0.000000000               0.000000000               0.000000000               0.002490497               0.012866773              -0.000000000              -0.000674409               0.004513684               0.003839276               0.000000000               0.000000000               0.000000000               0.000000000               0.002420033               0.010894639               0.000000000              -0.000454317               0.003782949               0.003328632               0.000000000               0.000000000               0.000000000               0.000000000               0.002139512               0.009672350               0.000000000              -0.000406726               0.003359659               0.002952934               0.000000000               0.000000000               0.000000000               0.000000000               0.001811382               0.008853243               0.000000000              -0.000427386               0.003093514               0.002666127               0.000000000               0.000000000               0.000000000               0.000000000               0.001495922               0.008251111               0.000000000              -0.000470417               0.002907148               0.002436731               0.000000000               0.000000000               0.000000000               0.000000000               0.001214587               0.007778223               0.000000000              -0.000516806               0.002764984               0.002248178               0.000000000               0.000000000               0.000000000               0.000000000               0.000967720               0.007384969              -0.000000000              -0.000560225               0.002648373               0.002088149               0.000000000               0.000000000               0.000000000               0.000000000               0.000751803               0.007030311              -0.000000000              -0.000596861               0.002542367               0.001945506               0.000000000               0.000000000               0.000000000               0.000000000               0.000569387               0.006693544              -0.000000000              -0.000623171               0.002438883               0.001815711               0.000000000               0.000000000               0.000000000               0.000000000               0.000415162               0.006357840              -0.000000000              -0.000639042               0.002332273               0.001693230               0.000000000               0.000000000               0.000000000               0.000000000               0.000285855               0.006012900               0.000000000              -0.000644415               0.002219085               0.001574670               0.000000000               0.000000000               0.000000000               0.000000000               0.000176546               0.005649607              -0.000000000              -0.000639995               0.002096515               0.001456521               0.000000000               0.000000000               0.000000000               0.000000000               0.000088307               0.005249779              -0.000000000              -0.000623106               0.001957611               0.001334505               0.000000000               0.000000000               0.000000000               0.000000000               0.000034350               0.004789412              -0.000000000              -0.000585794               0.001791719               0.001205925               0.000000000               0.000000000               0.000000000               0.000000000              -0.000020363               0.004432449              -0.000000000              -0.000561691               0.001664699               0.001103008               0.000000000               0.000000000               0.000000000               0.000000000               0.001950396               0.020342786              -0.001431582              -0.001811445               0.007384676               0.005573230               0.000000000               0.000000000               0.000000000               0.000000000               0.001854204               0.016123232              -0.000744002              -0.001320074               0.005814382               0.004494307               0.000000000               0.000000000               0.000000000               0.000000000               0.002355910               0.012751098              -0.000059419              -0.000710419               0.004487130               0.003776711               0.000000000               0.000000000               0.000000000               0.000000000               0.002243149               0.010860276               0.000228837              -0.000516352               0.003792173               0.003275821               0.000000000               0.000000000               0.000000000               0.000000000               0.001953196               0.009681043               0.000349504              -0.000477681               0.003386209               0.002908528               0.000000000               0.000000000               0.000000000               0.000000000               0.001631245               0.008877850               0.000393008              -0.000498013               0.003125258               0.002627245               0.000000000               0.000000000               0.000000000               0.000000000               0.001331662               0.008286044               0.000399401              -0.000536381               0.002940781               0.002404400               0.000000000               0.000000000               0.000000000               0.000000000               0.001067999               0.007819116               0.000393085              -0.000576889               0.002798642               0.002221754               0.000000000               0.000000000               0.000000000               0.000000000               0.000838397               0.007422920               0.000378179              -0.000613465               0.002678770               0.002065305               0.000000000               0.000000000               0.000000000               0.000000000               0.000642845               0.007065672               0.000357951              -0.000642141               0.002569247               0.001927107               0.000000000               0.000000000               0.000000000               0.000000000               0.000481304               0.006729000               0.000336354              -0.000660634               0.002463189               0.001802555               0.000000000               0.000000000               0.000000000               0.000000000               0.000348908               0.006399773               0.000312288              -0.000669129               0.002356279               0.001687150               0.000000000               0.000000000               0.000000000               0.000000000               0.000239155               0.006066403               0.000286139              -0.000668616               0.002244986               0.001576370               0.000000000               0.000000000               0.000000000               0.000000000               0.000145658               0.005717123               0.000251813              -0.000660017               0.002125694               0.001465677               0.000000000               0.000000000               0.000000000               0.000000000               0.000072700               0.005340679               0.000196972              -0.000640321               0.001993649               0.001353328               0.000000000               0.000000000               0.000000000               0.000000000               0.000027828               0.004924053               0.000112955              -0.000605070               0.001843024               0.001237955               0.000000000               0.000000000               0.000000000               0.000000000              -0.000018897               0.004614291               0.000068936              -0.000583871               0.001732705               0.001148834               0.000000000               0.000000000               0.000000000               0.000000000               0.002140569               0.019155765              -0.002672566              -0.001591754               0.006915776               0.005324021               0.000000000               0.000000000               0.000000000               0.000000000               0.001764590               0.015352953              -0.001390599              -0.001257395               0.005536732               0.004279336               0.000000000               0.000000000               0.000000000               0.000000000               0.001969555               0.012420244              -0.000126571              -0.000813945               0.004411355               0.003597410               0.000000000               0.000000000               0.000000000               0.000000000               0.001748217               0.010752765               0.000389355              -0.000688513               0.003813723               0.003125211               0.000000000               0.000000000               0.000000000               0.000000000               0.001441022               0.009686776               0.000596925              -0.000670462               0.003452381               0.002781918               0.000000000               0.000000000               0.000000000               0.000000000               0.001143667               0.008934859               0.000669022              -0.000687981               0.003207583               0.002519603               0.000000000               0.000000000               0.000000000               0.000000000               0.000889110               0.008366807               0.000680615              -0.000712433               0.003026385               0.002313952               0.000000000               0.000000000               0.000000000               0.000000000               0.000677777               0.007909128               0.000666541              -0.000734473               0.002881174               0.002146701               0.000000000               0.000000000               0.000000000               0.000000000               0.000501080               0.007513496               0.000636612              -0.000751280               0.002754900               0.002003620               0.000000000               0.000000000               0.000000000               0.000000000               0.000359601               0.007154346               0.000598864              -0.000759441               0.002637905               0.001878464               0.000000000               0.000000000               0.000000000               0.000000000               0.000248563               0.006817943               0.000558375              -0.000759030               0.002525635               0.001766605               0.000000000               0.000000000               0.000000000               0.000000000               0.000161274               0.006496611               0.000514615              -0.000751597               0.002416048               0.001664451               0.000000000               0.000000000               0.000000000               0.000000000               0.000095622               0.006185571               0.000463771              -0.000737336               0.002307615               0.001570279               0.000000000               0.000000000               0.000000000               0.000000000               0.000048045               0.005877489               0.000397844              -0.000716668               0.002198033               0.001481365               0.000000000               0.000000000               0.000000000               0.000000000               0.000019905               0.005570889               0.000301782              -0.000688895               0.002086576               0.001397681               0.000000000               0.000000000               0.000000000               0.000000000               0.000005980               0.005268957               0.000168126              -0.000656376               0.001975093               0.001318718               0.000000000               0.000000000               0.000000000               0.000000000              -0.000016947               0.005069954               0.000098861              -0.000640098               0.001903334               0.001263236               0.000000000               0.000000000               0.000000000               0.000000000               0.002344242               0.017348006              -0.003567891              -0.001289409               0.006212413               0.004923004               0.000000000               0.000000000               0.000000000               0.000000000               0.001578433               0.014197639              -0.001866352              -0.001182791               0.005126762               0.003943972               0.000000000               0.000000000               0.000000000               0.000000000               0.001372319               0.011918448              -0.000209781              -0.000975184               0.004297838               0.003322654               0.000000000               0.000000000               0.000000000               0.000000000               0.001026704               0.010566036               0.000433623              -0.000935738               0.003833890               0.002898151               0.000000000               0.000000000               0.000000000               0.000000000               0.000717223               0.009653101               0.000679467              -0.000937677               0.003530227               0.002592550               0.000000000               0.000000000               0.000000000               0.000000000               0.000475270               0.008974710               0.000759797              -0.000943611               0.003306077               0.002362466               0.000000000               0.000000000               0.000000000               0.000000000               0.000297153               0.008436610               0.000770058              -0.000943142               0.003126556               0.002183414               0.000000000               0.000000000               0.000000000               0.000000000               0.000164950               0.007985255               0.000750291              -0.000936299               0.002973824               0.002037526               0.000000000               0.000000000               0.000000000               0.000000000               0.000067485               0.007591054               0.000710344              -0.000923573               0.002838184               0.001914611               0.000000000               0.000000000               0.000000000               0.000000000              -0.000000427               0.007232386               0.000660334              -0.000904206               0.002712173               0.001807967               0.000000000               0.000000000               0.000000000               0.000000000              -0.000041173               0.006903579               0.000608130              -0.000878385               0.002593965               0.001715580               0.000000000               0.000000000               0.000000000               0.000000000              -0.000058475               0.006602518               0.000553274              -0.000847241               0.002483231               0.001635990               0.000000000               0.000000000               0.000000000               0.000000000              -0.000058648               0.006327485               0.000490503              -0.000812927               0.002380116               0.001567190               0.000000000               0.000000000               0.000000000               0.000000000              -0.000048668               0.006077837               0.000409812              -0.000777978               0.002285252               0.001507273               0.000000000               0.000000000               0.000000000               0.000000000              -0.000034610               0.005860045               0.000299842              -0.000745483               0.002201823               0.001456340               0.000000000               0.000000000               0.000000000               0.000000000              -0.000018529               0.005689940               0.000160631              -0.000718189               0.002136024               0.001417835               0.000000000               0.000000000               0.000000000               0.000000000              -0.000014967               0.005603976               0.000087963              -0.000706108               0.002103343               0.001397235               0.000000000               0.000000000               0.000000000               0.000000000               0.002442363               0.015125775              -0.004047866              -0.000974837               0.005366819               0.004391983               0.000000000               0.000000000               0.000000000               0.000000000               0.001273468               0.012801554              -0.002153736              -0.001122642               0.004641356               0.003518713               0.000000000               0.000000000               0.000000000               0.000000000               0.000637558               0.011301840              -0.000330835              -0.001173643               0.004158456               0.002984814               0.000000000               0.000000000               0.000000000               0.000000000               0.000206410               0.010294967               0.000337374              -0.001209464               0.003834776               0.002625312               0.000000000               0.000000000               0.000000000               0.000000000              -0.000063899               0.009543205               0.000579423              -0.001216860               0.003586656               0.002369797               0.000000000               0.000000000               0.000000000               0.000000000              -0.000219188               0.008940613               0.000654343              -0.001199769               0.003380097               0.002180328               0.000000000               0.000000000               0.000000000               0.000000000              -0.000300012               0.008435250               0.000661690              -0.001166908               0.003200691               0.002033783               0.000000000               0.000000000               0.000000000               0.000000000              -0.000334630               0.007997946               0.000642093              -0.001125227               0.003041031               0.001915804               0.000000000               0.000000000               0.000000000               0.000000000              -0.000337844               0.007608061               0.000604141              -0.001077697               0.002895227               0.001817531               0.000000000               0.000000000               0.000000000               0.000000000              -0.000316819               0.007259825               0.000553900              -0.001026283               0.002762012               0.001735729               0.000000000               0.000000000               0.000000000               0.000000000              -0.000279623               0.006950653               0.000501944              -0.000973688               0.002641424               0.001667736               0.000000000               0.000000000               0.000000000               0.000000000              -0.000226731               0.006678980               0.000446267              -0.000919894               0.002532936               0.001613041               0.000000000               0.000000000               0.000000000               0.000000000              -0.000166386               0.006439984               0.000383168              -0.000867391               0.002435770               0.001568380               0.000000000               0.000000000               0.000000000               0.000000000              -0.000110325               0.006239857               0.000307272              -0.000821352               0.002353715               0.001532364               0.000000000               0.000000000               0.000000000               0.000000000              -0.000061783               0.006090961               0.000214729              -0.000784537               0.002291812               0.001507276               0.000000000               0.000000000               0.000000000               0.000000000              -0.000025239               0.005999655               0.000108833              -0.000759420               0.002253005               0.001493585               0.000000000               0.000000000               0.000000000               0.000000000              -0.000012200               0.005966099               0.000055015              -0.000750335               0.002238792               0.001488456               0.000000000               0.000000000               0.000000000               0.000000000               0.002331241               0.012716073              -0.004116355              -0.000715296               0.004477080               0.003761784               0.000000000               0.000000000               0.000000000               0.000000000               0.000846086               0.011309914              -0.002272648              -0.001096456               0.004135419               0.003038963               0.000000000               0.000000000               0.000000000               0.000000000              -0.000141863               0.010615801              -0.000511216              -0.001380170               0.003998622               0.002618451               0.000000000               0.000000000               0.000000000               0.000000000              -0.000581410               0.009932885               0.000104325              -0.001459636               0.003797474               0.002337838               0.000000000               0.000000000               0.000000000               0.000000000              -0.000761239               0.009328275               0.000324332              -0.001451495               0.003593226               0.002141730               0.000000000               0.000000000               0.000000000               0.000000000              -0.000804274               0.008803576               0.000393689              -0.001402046               0.003401845               0.001999798               0.000000000               0.000000000               0.000000000               0.000000000              -0.000774218               0.008339010               0.000408791              -0.001332705               0.003223877               0.001891173               0.000000000               0.000000000               0.000000000               0.000000000              -0.000704592               0.007927489               0.000401533              -0.001255155               0.003060855               0.001805700               0.000000000               0.000000000               0.000000000               0.000000000              -0.000618349               0.007556855               0.000375555              -0.001176485               0.002911088               0.001734603               0.000000000               0.000000000               0.000000000               0.000000000              -0.000520960               0.007228962               0.000338388              -0.001098978               0.002775956               0.001676978               0.000000000               0.000000000               0.000000000               0.000000000              -0.000418297               0.006937869               0.000299471              -0.001024093               0.002653964               0.001629872               0.000000000               0.000000000               0.000000000               0.000000000              -0.000317106               0.006678717               0.000256578              -0.000953752               0.002544134               0.001590382               0.000000000               0.000000000               0.000000000               0.000000000              -0.000222793               0.006455048               0.000210680              -0.000890426               0.002448470               0.001558044               0.000000000               0.000000000               0.000000000               0.000000000              -0.000142602               0.006276316               0.000164289              -0.000838013               0.002371422               0.001533409               0.000000000               0.000000000               0.000000000               0.000000000              -0.000080973               0.006144175               0.000112049              -0.000798385               0.002314166               0.001515781               0.000000000               0.000000000               0.000000000               0.000000000              -0.000034087               0.006051304               0.000054598              -0.000769194               0.002273479               0.001504285               0.000000000               0.000000000               0.000000000               0.000000000              -0.000023383               0.005998605               0.000032012              -0.000758592               0.002252379               0.001493787               0.000000000               0.000000000               0.000000000               0.000000000               0.001959019               0.010319970              -0.003838765              -0.000555366               0.003625077               0.003069710               0.000000000               0.000000000               0.000000000               0.000000000               0.000318630               0.009839425              -0.002269544              -0.001110441               0.003649922               0.002539481               0.000000000               0.000000000               0.000000000               0.000000000              -0.000876273               0.009895864              -0.000759011              -0.001565582               0.003820449               0.002254867               0.000000000               0.000000000               0.000000000               0.000000000              -0.001232324               0.009491774              -0.000232394              -0.001648589               0.003713423               0.002064833               0.000000000               0.000000000               0.000000000               0.000000000              -0.001278368               0.009015396              -0.000026202              -0.001606309               0.003540538               0.001934230               0.000000000               0.000000000               0.000000000               0.000000000              -0.001196808               0.008562699               0.000055640              -0.001519137               0.003360583               0.001841447               0.000000000               0.000000000               0.000000000               0.000000000              -0.001059166               0.008147248               0.000090166              -0.001415590               0.003187586               0.001771996               0.000000000               0.000000000               0.000000000               0.000000000              -0.000902024               0.007773652               0.000103875              -0.001309962               0.003027846               0.001717883               0.000000000               0.000000000               0.000000000               0.000000000              -0.000743041               0.007431985               0.000099942              -0.001207635               0.002879849               0.001672213               0.000000000               0.000000000               0.000000000               0.000000000              -0.000590033               0.007112150               0.000087578              -0.001110278               0.002740786               0.001630507               0.000000000               0.000000000               0.000000000               0.000000000              -0.000452042               0.006814081               0.000073742              -0.001021273               0.002611762               0.001590489               0.000000000               0.000000000               0.000000000               0.000000000              -0.000334220               0.006545678               0.000060734              -0.000943540               0.002496384               0.001552844               0.000000000               0.000000000               0.000000000               0.000000000              -0.000238051               0.006319222               0.000052611              -0.000879170               0.002399443               0.001520273               0.000000000               0.000000000               0.000000000               0.000000000              -0.000162038               0.006137511               0.000050221              -0.000827951               0.002321800               0.001493849               0.000000000               0.000000000               0.000000000               0.000000000              -0.000100485               0.005990343               0.000044879              -0.000786473               0.002258919               0.001472446               0.000000000               0.000000000               0.000000000               0.000000000              -0.000047912               0.005864900               0.000028793              -0.000751078               0.002205306               0.001454229               0.000000000               0.000000000               0.000000000               0.000000000              -0.000042436               0.005777862               0.000028849              -0.000738144               0.002171983               0.001433838               0.000000000               0.000000000               0.000000000               0.000000000               0.001353638               0.008094670              -0.003307944              -0.000504222               0.002866269               0.002362047               0.000000000               0.000000000               0.000000000               0.000000000              -0.000266993               0.008482912              -0.002188803              -0.001160485               0.003214437               0.002053952               0.000000000               0.000000000               0.000000000               0.000000000              -0.001487725               0.009166976              -0.001062749              -0.001703765               0.003623550               0.001919785               0.000000000               0.000000000               0.000000000               0.000000000              -0.001688423               0.008990153              -0.000620331              -0.001756924               0.003582329               0.001825405               0.000000000               0.000000000               0.000000000               0.000000000              -0.001583124               0.008630219              -0.000405870              -0.001672445               0.003434192               0.001761748               0.000000000               0.000000000               0.000000000               0.000000000              -0.001383989               0.008246324              -0.000291387              -0.001549783               0.003265342               0.001715559               0.000000000               0.000000000               0.000000000               0.000000000              -0.001156064               0.007888419              -0.000225993              -0.001419573               0.003102637               0.001683065               0.000000000               0.000000000               0.000000000               0.000000000              -0.000931821               0.007549652              -0.000181976              -0.001293136               0.002947571               0.001654435               0.000000000               0.000000000               0.000000000               0.000000000              -0.000728899               0.007210826              -0.000156913              -0.001174688               0.002795147               0.001620460               0.000000000               0.000000000               0.000000000               0.000000000              -0.000556785               0.006875945              -0.000139667              -0.001068285               0.002648054               0.001579769               0.000000000               0.000000000               0.000000000               0.000000000              -0.000414243               0.006562641              -0.000115994              -0.000975669               0.002512748               0.001537079               0.000000000               0.000000000               0.000000000               0.000000000              -0.000304241               0.006288404              -0.000084306              -0.000900139               0.002396160               0.001496021               0.000000000               0.000000000               0.000000000               0.000000000              -0.000222576               0.006059989              -0.000044850              -0.000840962               0.002300297               0.001459334               0.000000000               0.000000000               0.000000000               0.000000000              -0.000159328               0.005868301              -0.000003558              -0.000793284               0.002220509               0.001427225               0.000000000               0.000000000               0.000000000               0.000000000              -0.000104646               0.005702131               0.000023921              -0.000752007               0.002151360               0.001399354               0.000000000               0.000000000               0.000000000               0.000000000              -0.000054054               0.005556436               0.000027018              -0.000714823               0.002090401               0.001375578               0.000000000               0.000000000               0.000000000               0.000000000              -0.000043002               0.005466181               0.000030193              -0.000699397               0.002055174               0.001355778               0.000000000               0.000000000               0.000000000               0.000000000               0.000613771               0.006210021              -0.002629711              -0.000546090               0.002252015               0.001705926               0.000000000               0.000000000               0.000000000               0.000000000              -0.000825824               0.007278344              -0.002077581              -0.001219475               0.002832582               0.001613106               0.000000000               0.000000000               0.000000000               0.000000000              -0.001937688               0.008462767              -0.001415941              -0.001784475               0.003415719               0.001631244               0.000000000               0.000000000               0.000000000               0.000000000              -0.001974818               0.008518395              -0.001027673              -0.001805352               0.003441220               0.001635868               0.000000000               0.000000000               0.000000000               0.000000000              -0.001750068               0.008288657              -0.000785692              -0.001692353               0.003326976               0.001634622               0.000000000               0.000000000               0.000000000               0.000000000              -0.001460227               0.007991929              -0.000627240              -0.001546573               0.003179474               0.001632901               0.000000000               0.000000000               0.000000000               0.000000000              -0.001163009               0.007692763              -0.000522442              -0.001397720               0.003030136               0.001632415               0.000000000               0.000000000               0.000000000               0.000000000              -0.000899044               0.007368955              -0.000446725              -0.001258258               0.002875713               0.001617455               0.000000000               0.000000000               0.000000000               0.000000000              -0.000670612               0.007023978              -0.000390108              -0.001129474               0.002717794               0.001588320               0.000000000               0.000000000               0.000000000               0.000000000              -0.000478558               0.006680178              -0.000336679              -0.001014479               0.002564863               0.001550384               0.000000000               0.000000000               0.000000000               0.000000000              -0.000331635               0.006363512              -0.000272155              -0.000919800               0.002427749               0.001507950               0.000000000               0.000000000               0.000000000               0.000000000              -0.000233743               0.006089451              -0.000196310              -0.000848833               0.002312741               0.001463908               0.000000000               0.000000000               0.000000000               0.000000000              -0.000179318               0.005854138              -0.000118750              -0.000799010               0.002217696               0.001418687               0.000000000               0.000000000               0.000000000               0.000000000              -0.000149186               0.005645095              -0.000050482              -0.000761580               0.002135539               0.001373960               0.000000000               0.000000000               0.000000000               0.000000000              -0.000126131               0.005452903              -0.000001144              -0.000728910               0.002060586               0.001331676               0.000000000               0.000000000               0.000000000               0.000000000              -0.000107583               0.005283384               0.000019717              -0.000700765               0.001994699               0.001293934               0.000000000               0.000000000               0.000000000               0.000000000              -0.000096497               0.005198564               0.000022839              -0.000686005               0.001961506               0.001275501               0.000000000               0.000000000               0.000000000               0.000000000              -0.000277290               0.004456949              -0.001900020              -0.000661102               0.001706001               0.001044899               0.000000000               0.000000000               0.000000000               0.000000000              -0.001278253               0.005896818              -0.001946924              -0.001216445               0.002371067               0.001154622               0.000000000               0.000000000               0.000000000               0.000000000              -0.002170217               0.007440165              -0.001793192              -0.001743848               0.003061312               0.001317464               0.000000000               0.000000000               0.000000000               0.000000000              -0.002125380               0.007819327              -0.001472081              -0.001774429               0.003197892               0.001423463               0.000000000               0.000000000               0.000000000               0.000000000              -0.001853624               0.007808701              -0.001203103              -0.001671193               0.003159938               0.001488746               0.000000000               0.000000000               0.000000000               0.000000000              -0.001532510               0.007675751              -0.000998822              -0.001534157               0.003069943               0.001535787               0.000000000               0.000000000               0.000000000               0.000000000              -0.001216398               0.007482964              -0.000846914              -0.001391517               0.002958135               0.001566619               0.000000000               0.000000000               0.000000000               0.000000000              -0.000935805               0.007230849              -0.000728723              -0.001254780               0.002828519               0.001573739               0.000000000               0.000000000               0.000000000               0.000000000              -0.000698548               0.006936201              -0.000634175              -0.001128978               0.002688370               0.001559392               0.000000000               0.000000000               0.000000000               0.000000000              -0.000503609               0.006615467              -0.000544850              -0.001015784               0.002543728               0.001527944               0.000000000               0.000000000               0.000000000               0.000000000              -0.000350523               0.006304453              -0.000446878              -0.000919500               0.002407963               0.001488463               0.000000000               0.000000000               0.000000000               0.000000000              -0.000247735               0.006017907              -0.000340475              -0.000845137               0.002287661               0.001442524               0.000000000               0.000000000               0.000000000               0.000000000              -0.000193022               0.005766463              -0.000234580              -0.000793189               0.002186531               0.001393342               0.000000000               0.000000000               0.000000000               0.000000000              -0.000178158               0.005544457              -0.000139951              -0.000759864               0.002101422               0.001341558               0.000000000               0.000000000               0.000000000               0.000000000              -0.000185644               0.005347980              -0.000061267              -0.000738112               0.002028680               0.001290567               0.000000000               0.000000000               0.000000000               0.000000000              -0.000203644               0.005169638              -0.000010654              -0.000722569               0.001964052               0.001241483               0.000000000               0.000000000               0.000000000               0.000000000              -0.000213539               0.005077816               0.000005319              -0.000714803               0.001930856               0.001216054               0.000000000               0.000000000               0.000000000               0.000000000              -0.001461319               0.002869092              -0.001163749              -0.000906630               0.001258564               0.000351934               0.000000000               0.000000000               0.000000000               0.000000000              -0.001797696               0.004518800              -0.001747267              -0.001238984               0.001919246               0.000680262               0.000000000               0.000000000               0.000000000               0.000000000              -0.002319139               0.006262715              -0.002085379              -0.001652513               0.002638388               0.000985875               0.000000000               0.000000000               0.000000000               0.000000000              -0.002201274               0.006944710              -0.001893027              -0.001693563               0.002879401               0.001185838               0.000000000               0.000000000               0.000000000               0.000000000              -0.001909472               0.007185843              -0.001629591              -0.001614279               0.002933350               0.001319071               0.000000000               0.000000000               0.000000000               0.000000000              -0.001579670               0.007245281              -0.001395041              -0.001498033               0.002914414               0.001416381               0.000000000               0.000000000               0.000000000               0.000000000              -0.001267068               0.007187892              -0.001202296              -0.001373634               0.002853818               0.001480184               0.000000000               0.000000000               0.000000000               0.000000000              -0.000984781               0.007040412              -0.001047295              -0.001249342               0.002763228               0.001513886               0.000000000               0.000000000               0.000000000               0.000000000              -0.000735845               0.006834793              -0.000916394              -0.001130288               0.002655004               0.001524716               0.000000000               0.000000000               0.000000000               0.000000000              -0.000528067               0.006585271              -0.000794688              -0.001021182               0.002535462               0.001514280               0.000000000               0.000000000               0.000000000               0.000000000              -0.000355037               0.006315277              -0.000673505              -0.000922546               0.002412587               0.001490041               0.000000000               0.000000000               0.000000000               0.000000000              -0.000225896               0.006036930              -0.000548267              -0.000839325               0.002292065               0.001452740               0.000000000               0.000000000               0.000000000               0.000000000              -0.000147353               0.005774842              -0.000421036              -0.000777111               0.002183965               0.001406854               0.000000000               0.000000000               0.000000000               0.000000000              -0.000123264               0.005540003              -0.000295503              -0.000738723               0.002092890               0.001354167               0.000000000               0.000000000               0.000000000               0.000000000              -0.000148837               0.005339526              -0.000177804              -0.000723253               0.002020908               0.001297656               0.000000000               0.000000000               0.000000000               0.000000000              -0.000217714               0.005161013              -0.000074988              -0.000726768               0.001962576               0.001235809               0.000000000               0.000000000               0.000000000               0.000000000              -0.000279327               0.005061231              -0.000022561              -0.000737400               0.001932860               0.001195460               0.000000000               0.000000000               0.000000000               0.000000000              -0.002857397               0.001555900              -0.000477685              -0.001266009               0.000940630              -0.000325379               0.000000000               0.000000000               0.000000000               0.000000000              -0.002434768               0.003222158              -0.001458698              -0.001315805               0.001512643               0.000196838               0.000000000               0.000000000               0.000000000               0.000000000              -0.002422786               0.004946459              -0.002193887              -0.001526849               0.002157752               0.000630903               0.000000000               0.000000000               0.000000000               0.000000000              -0.002168024               0.005842032              -0.002165182              -0.001543260               0.002461744               0.000918484               0.000000000               0.000000000               0.000000000               0.000000000              -0.001845918               0.006318887              -0.001952942              -0.001482077               0.002600300               0.001118223               0.000000000               0.000000000               0.000000000               0.000000000              -0.001515710               0.006578624              -0.001722173              -0.001390716               0.002656425               0.001265708               0.000000000               0.000000000               0.000000000               0.000000000              -0.001213626               0.006681264              -0.001512860              -0.001290265               0.002657154               0.001366889               0.000000000               0.000000000               0.000000000               0.000000000              -0.000942557               0.006667763              -0.001336497              -0.001186927               0.002618208               0.001431281               0.000000000               0.000000000               0.000000000               0.000000000              -0.000698637               0.006572881              -0.001182327              -0.001083597               0.002552137               0.001468541               0.000000000               0.000000000               0.000000000               0.000000000              -0.000483845               0.006421350              -0.001037629              -0.000984109               0.002468465               0.001484356               0.000000000               0.000000000               0.000000000               0.000000000              -0.000298495               0.006229944              -0.000897118              -0.000890677               0.002373519               0.001482843               0.000000000               0.000000000               0.000000000               0.000000000              -0.000144948               0.006005198              -0.000756714              -0.000805003               0.002270047               0.001465044               0.000000000               0.000000000               0.000000000               0.000000000              -0.000028634               0.005768823              -0.000616168              -0.000731839               0.002166868               0.001435029               0.000000000               0.000000000               0.000000000               0.000000000               0.000037425               0.005541427              -0.000469659              -0.000678642               0.002073338               0.001394695               0.000000000               0.000000000               0.000000000               0.000000000               0.000037870               0.005339132              -0.000314008              -0.000653189               0.001997422               0.001344234               0.000000000               0.000000000               0.000000000               0.000000000              -0.000036834               0.005159753              -0.000153855              -0.000658780               0.001939494               0.001280714               0.000000000               0.000000000               0.000000000               0.000000000              -0.000121246               0.005058065              -0.000064604              -0.000677724               0.001911913               0.001234189               0.000000000               0.000000000               0.000000000               0.000000000              -0.004354218               0.000584644               0.000066993              -0.001705910               0.000763513              -0.000942397               0.000000000               0.000000000               0.000000000               0.000000000              -0.003144951               0.002075440              -0.001118380              -0.001438784               0.001171400              -0.000267385               0.000000000               0.000000000               0.000000000               0.000000000              -0.002503289               0.003601876              -0.002095468              -0.001388965               0.001663601               0.000274635               0.000000000               0.000000000               0.000000000               0.000000000              -0.002046808               0.004602066              -0.002217988              -0.001342809               0.001981609               0.000638800               0.000000000               0.000000000               0.000000000               0.000000000              -0.001667997               0.005266316              -0.002082681              -0.001283786               0.002183349               0.000899563               0.000000000               0.000000000               0.000000000               0.000000000              -0.001336091               0.005711842              -0.001884657              -0.001215012               0.002308932               0.001093920               0.000000000               0.000000000               0.000000000               0.000000000              -0.001046925               0.005973845              -0.001688934              -0.001139326               0.002371037               0.001231711               0.000000000               0.000000000               0.000000000               0.000000000              -0.000791102               0.006104327              -0.001514681              -0.001059702               0.002387989               0.001328287               0.000000000               0.000000000               0.000000000               0.000000000              -0.000559214               0.006139579              -0.001355559              -0.000977151               0.002372223               0.001395072               0.000000000               0.000000000               0.000000000               0.000000000              -0.000346301               0.006101483              -0.001204053              -0.000892547               0.002331323               0.001438776               0.000000000               0.000000000               0.000000000               0.000000000              -0.000155263               0.006010638              -0.001056868              -0.000809552               0.002273376               0.001463825               0.000000000               0.000000000               0.000000000               0.000000000               0.000019566               0.005874632              -0.000915904              -0.000726990               0.002200521               0.001473531               0.000000000               0.000000000               0.000000000               0.000000000               0.000178680               0.005703484              -0.000774670              -0.000645929               0.002116452               0.001470523               0.000000000               0.000000000               0.000000000               0.000000000               0.000306223               0.005517857              -0.000615909              -0.000574897               0.002030900               0.001456002               0.000000000               0.000000000               0.000000000               0.000000000               0.000378172               0.005333915              -0.000432134              -0.000524924               0.001952928               0.001428005               0.000000000               0.000000000               0.000000000               0.000000000               0.000376743               0.005161622              -0.000225836              -0.000503923               0.001888498               0.001384575               0.000000000               0.000000000               0.000000000               0.000000000               0.000337730               0.005069925              -0.000111957              -0.000507091               0.001858988               0.001351897               0.000000000               0.000000000               0.000000000               0.000000000              -0.005800862              -0.000055166               0.000387827              -0.002168426               0.000704415              -0.001464010               0.000000000               0.000000000               0.000000000               0.000000000              -0.003861242               0.001143237              -0.000775341              -0.001590868               0.000911362              -0.000679506               0.000000000               0.000000000               0.000000000               0.000000000              -0.002578098               0.002358723              -0.001788236              -0.001261625               0.001206773              -0.000054852               0.000000000               0.000000000               0.000000000               0.000000000              -0.001875912               0.003365322              -0.002005290              -0.001124131               0.001496472               0.000372341               0.000000000               0.000000000               0.000000000               0.000000000              -0.001412475               0.004149157              -0.001946546              -0.001048321               0.001732478               0.000684157               0.000000000               0.000000000               0.000000000               0.000000000              -0.001062627               0.004738995              -0.001801574              -0.000990858               0.001909935               0.000919076               0.000000000               0.000000000               0.000000000               0.000000000              -0.000778907               0.005143588              -0.001641697              -0.000935037               0.002026191               0.001091154               0.000000000               0.000000000               0.000000000               0.000000000              -0.000537758               0.005405827              -0.001490652              -0.000877386               0.002094386               0.001217000               0.000000000               0.000000000               0.000000000               0.000000000              -0.000323128               0.005562599              -0.001347647              -0.000816496               0.002126346               0.001309850               0.000000000               0.000000000               0.000000000               0.000000000              -0.000120127               0.005644601              -0.001206891              -0.000750621               0.002131722               0.001381101               0.000000000               0.000000000               0.000000000               0.000000000               0.000078405               0.005662438              -0.001072742              -0.000678402               0.002113594               0.001435192               0.000000000               0.000000000               0.000000000               0.000000000               0.000275153               0.005623831              -0.000949561              -0.000599796               0.002074523               0.001474728               0.000000000               0.000000000               0.000000000               0.000000000               0.000470549               0.005544963              -0.000822814              -0.000516664               0.002020524               0.001503860               0.000000000               0.000000000               0.000000000               0.000000000               0.000658945               0.005434838              -0.000669647              -0.000432250               0.001955678               0.001523428               0.000000000               0.000000000               0.000000000               0.000000000               0.000828496               0.005300888              -0.000482909              -0.000351924               0.001884253               0.001532329               0.000000000               0.000000000               0.000000000               0.000000000               0.000960922               0.005153998              -0.000259896              -0.000283903               0.001812617               0.001528713               0.000000000               0.000000000               0.000000000               0.000000000               0.001032745               0.005085822              -0.000141218              -0.000248448               0.001778073               0.001529625               0.000000000               0.000000000               0.000000000               0.000000000              -0.007015243              -0.000422119               0.000454573              -0.002577949               0.000718605              -0.001859344               0.000000000               0.000000000               0.000000000               0.000000000              -0.004488213               0.000465989              -0.000468330              -0.001741327               0.000735767              -0.001005560               0.000000000               0.000000000               0.000000000               0.000000000              -0.002653760               0.001351750              -0.001301069              -0.001164127               0.000838619              -0.000325508               0.000000000               0.000000000               0.000000000               0.000000000              -0.001710616               0.002301218              -0.001524628              -0.000929132               0.001076775               0.000147643               0.000000000               0.000000000               0.000000000               0.000000000              -0.001146859               0.003140423              -0.001517774              -0.000822624               0.001321004               0.000498381               0.000000000               0.000000000               0.000000000               0.000000000              -0.000763371               0.003823851              -0.001430467              -0.000764244               0.001529352               0.000765107               0.000000000               0.000000000               0.000000000               0.000000000              -0.000478945               0.004332315              -0.001320944              -0.000721143               0.001684471               0.000963328               0.000000000               0.000000000               0.000000000               0.000000000              -0.000248190               0.004701517              -0.001209203              -0.000680760               0.001794076               0.001113317               0.000000000               0.000000000               0.000000000               0.000000000              -0.000046976               0.004964342              -0.001098755              -0.000638158               0.001867483               0.001229325               0.000000000               0.000000000               0.000000000               0.000000000               0.000146227               0.005146845              -0.000990887              -0.000588520               0.001911771               0.001323251               0.000000000               0.000000000               0.000000000               0.000000000               0.000347896               0.005261666              -0.000891389              -0.000527246               0.001929620               0.001402374               0.000000000               0.000000000               0.000000000               0.000000000               0.000561637               0.005319741              -0.000799394              -0.000454353               0.001924680               0.001470327               0.000000000               0.000000000               0.000000000               0.000000000               0.000785986               0.005331704              -0.000701568              -0.000371718               0.001901123               0.001529405               0.000000000               0.000000000               0.000000000               0.000000000               0.001026318               0.005302210              -0.000580958              -0.000277906               0.001860021               0.001582115               0.000000000               0.000000000               0.000000000               0.000000000               0.001288555               0.005234630              -0.000426830              -0.000171120               0.001801899               0.001630779               0.000000000               0.000000000               0.000000000               0.000000000               0.001567482               0.005130537              -0.000231728              -0.000053512               0.001727999               0.001674487               0.000000000               0.000000000               0.000000000               0.000000000               0.001775129               0.005095025              -0.000131789               0.000028795               0.001688727               0.001717521               0.000000000               0.000000000               0.000000000               0.000000000              -0.007829605              -0.000593042               0.000293647              -0.002861970               0.000756304              -0.002105666               0.000000000               0.000000000               0.000000000               0.000000000              -0.004920715               0.000062610              -0.000214367              -0.001853093               0.000638563              -0.001214530               0.000000000               0.000000000               0.000000000               0.000000000              -0.002711650               0.000699141              -0.000682298              -0.001104260               0.000601129              -0.000503131               0.000000000               0.000000000               0.000000000               0.000000000              -0.001593800               0.001579049              -0.000823432              -0.000795055               0.000791362              -0.000003693               0.000000000               0.000000000               0.000000000               0.000000000              -0.000947654               0.002430524              -0.000833925              -0.000659184               0.001029894               0.000370710               0.000000000               0.000000000               0.000000000               0.000000000              -0.000530562               0.003161153              -0.000795739              -0.000594104               0.001251742               0.000657638               0.000000000               0.000000000               0.000000000               0.000000000              -0.000242396               0.003733149              -0.000741397              -0.000557541               0.001430217               0.000872676               0.000000000               0.000000000               0.000000000               0.000000000              -0.000020471               0.004171029              -0.000681557              -0.000529054               0.001566680               0.001037626               0.000000000               0.000000000               0.000000000               0.000000000               0.000172763               0.004503139              -0.000620470              -0.000498105               0.001667066               0.001168961               0.000000000               0.000000000               0.000000000               0.000000000               0.000365097               0.004757097              -0.000561860              -0.000457725               0.001738258               0.001280533               0.000000000               0.000000000               0.000000000               0.000000000               0.000566924               0.004942760              -0.000509680              -0.000405248               0.001782653               0.001377405               0.000000000               0.000000000               0.000000000               0.000000000               0.000785191               0.005071032              -0.000460615              -0.000339432               0.001803471               0.001464039               0.000000000               0.000000000               0.000000000               0.000000000               0.001027654               0.005150421              -0.000406647              -0.000258432               0.001802934               0.001544502               0.000000000               0.000000000               0.000000000               0.000000000               0.001305812               0.005181303              -0.000340215              -0.000157983               0.001779745               0.001621762               0.000000000               0.000000000               0.000000000               0.000000000               0.001634597               0.005163745              -0.000252269              -0.000032494               0.001732062               0.001699568               0.000000000               0.000000000               0.000000000               0.000000000               0.002029458               0.005097930              -0.000138092               0.000123804               0.001658025               0.001781829               0.000000000               0.000000000               0.000000000               0.000000000               0.002348258               0.005091337              -0.000081489               0.000244177               0.001615703               0.001859880               0.000000000               0.000000000               0.000000000               0.000000000              -0.008119462              -0.000643355              -0.000000000              -0.002964377               0.000773669              -0.002190708               0.000000000               0.000000000               0.000000000               0.000000000              -0.005076787              -0.000075163              -0.000000000              -0.001894398               0.000606408              -0.001287991               0.000000000               0.000000000               0.000000000               0.000000000              -0.002732414               0.000471531              -0.000000000              -0.001083595               0.000518372              -0.000565224               0.000000000               0.000000000               0.000000000               0.000000000              -0.001549450               0.001326188              -0.000000000              -0.000746816               0.000690996              -0.000055819               0.000000000               0.000000000               0.000000000               0.000000000              -0.000871826               0.002177053               0.000000000              -0.000599065               0.000925365               0.000326300               0.000000000               0.000000000               0.000000000               0.000000000              -0.000440712               0.002919532               0.000000000              -0.000530207               0.001149903               0.000619696               0.000000000               0.000000000               0.000000000               0.000000000              -0.000151918               0.003509806               0.000000000              -0.000495694               0.001335155               0.000839461               0.000000000               0.000000000               0.000000000               0.000000000               0.000065846               0.003971005              -0.000000000              -0.000471682               0.001480882               0.001009200               0.000000000               0.000000000               0.000000000               0.000000000               0.000256758               0.004328739              -0.000000000              -0.000444807               0.001591167               0.001146360               0.000000000               0.000000000               0.000000000               0.000000000               0.000448606               0.004607890               0.000000000              -0.000407758               0.001671867               0.001264109               0.000000000               0.000000000               0.000000000               0.000000000               0.000650952               0.004820129               0.000000000              -0.000358408               0.001726163               0.001367755               0.000000000               0.000000000               0.000000000               0.000000000               0.000869454               0.004974217               0.000000000              -0.000295731               0.001756633               0.001460902               0.000000000               0.000000000               0.000000000               0.000000000               0.001117404               0.005079347              -0.000000000              -0.000215891               0.001765062               0.001549171               0.000000000               0.000000000               0.000000000               0.000000000               0.001410031               0.005134079              -0.000000000              -0.000112998               0.001749009               0.001636011               0.000000000               0.000000000               0.000000000               0.000000000               0.001765101               0.005134471              -0.000000000               0.000020104               0.001704772               0.001724876               0.000000000               0.000000000               0.000000000               0.000000000               0.002205823               0.005082130               0.000000000               0.000191915               0.001630055               0.001821970               0.000000000               0.000000000               0.000000000               0.000000000               0.002567126               0.005085847               0.000000000               0.000326938               0.001586286               0.001913224               0.000000000               0.000000000               0.000000000               0.000000000               0.000000000               0.000000000               0.000000000               0.000000000               0.000000000               0.000000000               0.000000000               0.000000000               0.000000000               0.000000000               0.000000000               0.000000000               0.000000000               0.000000000               0.000000000               0.000000000               0.000000000               0.000000000               0.000000000               0.000000000               0.000000000               0.000000000               0.000000000               0.000000000               0.000000000               0.000000000               0.000000000               0.000000000               0.000000000               0.000000000               0.000000000               0.000000000               0.000000000               0.000000000               0.000000000               0.000000000               0.000000000               0.000000000               0.000000000               0.000000000               0.000000000               0.000000000               0.000000000               0.000000000               0.000000000               0.000000000               0.000000000               0.000000000               0.000000000               0.000000000               0.000000000               0.000000000               0.000000000               0.000000000               0.000000000               0.000000000               0.000000000               0.000000000               0.000000000               0.000000000               0.000000000               0.000000000               0.000000000               0.000000000               0.000000000               0.000000000               0.000000000               0.000000000               0.000000000               0.000000000               0.000000000               0.000000000               0.000000000               0.000000000               0.000000000               0.000000000               0.000000000               0.000000000               0.000000000               0.000000000               0.000000000               0.000000000               0.000000000               0.000000000               0.000000000               0.000000000               0.000000000               0.000000000               0.000000000               0.000000000               0.000000000               0.000000000               0.000000000               0.000000000               0.000000000               0.000000000               0.000000000               0.000000000               0.000000000               0.000000000               0.000000000               0.000000000               0.000000000               0.000000000               0.000000000               0.000000000               0.000000000               0.000000000               0.000000000               0.000000000               0.000000000               0.000000000               0.000000000               0.000000000               0.000000000               0.000000000               0.000000000               0.000000000               0.000000000               0.000000000               0.000000000               0.000000000               0.000000000               0.000000000               0.000000000               0.000000000               0.000000000               0.000000000               0.000000000               0.000000000               0.000000000               0.000000000               0.000000000               0.000000000               0.000000000               0.000000000               0.000000000               0.000000000               0.000000000               0.000000000               0.000000000               0.000000000               0.000000000               0.000000000               0.000000000               0.000000000               0.000000000               0.000000000               0.000000000               0.000000000               0.000000000               0.000000000               0.000000000               0.000000000               0.000000000               0.000000000               0.000000000               0.000000000               0.000000000               0.000000000               0.000000000               0.000000000               0.000000000               0.000000000               0.000000000               0.000000000               0.000000000               0.000000000               0.000000000               0.000000000               0.001950396               0.020342786               0.001431582              -0.001811445               0.007384676               0.005573230               0.000000000               0.000000000               0.000000000               0.000000000               0.001854204               0.016123232               0.000744002              -0.001320074               0.005814382               0.004494307               0.000000000               0.000000000               0.000000000               0.000000000               0.002355910               0.012751098               0.000059419              -0.000710419               0.004487130               0.003776711               0.000000000               0.000000000               0.000000000               0.000000000               0.002243149               0.010860276              -0.000228837              -0.000516352               0.003792173               0.003275821               0.000000000               0.000000000               0.000000000               0.000000000               0.001953196               0.009681043              -0.000349504              -0.000477681               0.003386209               0.002908528               0.000000000               0.000000000               0.000000000               0.000000000               0.001631245               0.008877850              -0.000393008              -0.000498013               0.003125258               0.002627245               0.000000000               0.000000000               0.000000000               0.000000000               0.001331662               0.008286044              -0.000399401              -0.000536381               0.002940781               0.002404400               0.000000000               0.000000000               0.000000000               0.000000000               0.001067999               0.007819116              -0.000393085              -0.000576889               0.002798642               0.002221754               0.000000000               0.000000000               0.000000000               0.000000000               0.000838397               0.007422920              -0.000378179              -0.000613465               0.002678770               0.002065305               0.000000000               0.000000000               0.000000000               0.000000000               0.000642845               0.007065672              -0.000357951              -0.000642141               0.002569247               0.001927107               0.000000000               0.000000000               0.000000000               0.000000000               0.000481304               0.006729000              -0.000336354              -0.000660634               0.002463189               0.001802555               0.000000000               0.000000000               0.000000000               0.000000000               0.000348908               0.006399773              -0.000312288              -0.000669129               0.002356279               0.001687150               0.000000000               0.000000000               0.000000000               0.000000000               0.000239155               0.006066403              -0.000286139              -0.000668616               0.002244986               0.001576370               0.000000000               0.000000000               0.000000000               0.000000000               0.000145658               0.005717123              -0.000251813              -0.000660017               0.002125694               0.001465677               0.000000000               0.000000000               0.000000000               0.000000000               0.000072700               0.005340679              -0.000196972              -0.000640321               0.001993649               0.001353328               0.000000000               0.000000000               0.000000000               0.000000000               0.000027828               0.004924053              -0.000112955              -0.000605070               0.001843024               0.001237955               0.000000000               0.000000000               0.000000000               0.000000000              -0.000018897               0.004614291              -0.000068936              -0.000583871               0.001732705               0.001148834               0.000000000               0.000000000               0.000000000               0.000000000               0.002140569               0.019155765               0.002672566              -0.001591754               0.006915776               0.005324021               0.000000000               0.000000000               0.000000000               0.000000000               0.001764590               0.015352953               0.001390599              -0.001257395               0.005536732               0.004279336               0.000000000               0.000000000               0.000000000               0.000000000               0.001969555               0.012420244               0.000126571              -0.000813945               0.004411355               0.003597410               0.000000000               0.000000000               0.000000000               0.000000000               0.001748217               0.010752765              -0.000389355              -0.000688513               0.003813723               0.003125211               0.000000000               0.000000000               0.000000000               0.000000000               0.001441022               0.009686776              -0.000596925              -0.000670462               0.003452381               0.002781918               0.000000000               0.000000000               0.000000000               0.000000000               0.001143667               0.008934859              -0.000669022              -0.000687981               0.003207583               0.002519603               0.000000000               0.000000000               0.000000000               0.000000000               0.000889110               0.008366807              -0.000680615              -0.000712433               0.003026385               0.002313952               0.000000000               0.000000000               0.000000000               0.000000000               0.000677777               0.007909128              -0.000666541              -0.000734473               0.002881174               0.002146701               0.000000000               0.000000000               0.000000000               0.000000000               0.000501080               0.007513496              -0.000636612              -0.000751280               0.002754900               0.002003620               0.000000000               0.000000000               0.000000000               0.000000000               0.000359601               0.007154346              -0.000598864              -0.000759441               0.002637905               0.001878464               0.000000000               0.000000000               0.000000000               0.000000000               0.000248563               0.006817943              -0.000558375              -0.000759030               0.002525635               0.001766605               0.000000000               0.000000000               0.000000000               0.000000000               0.000161274               0.006496611              -0.000514615              -0.000751597               0.002416048               0.001664451               0.000000000               0.000000000               0.000000000               0.000000000               0.000095622               0.006185571              -0.000463771              -0.000737336               0.002307615               0.001570279               0.000000000               0.000000000               0.000000000               0.000000000               0.000048045               0.005877489              -0.000397844              -0.000716668               0.002198033               0.001481365               0.000000000               0.000000000               0.000000000               0.000000000               0.000019905               0.005570889              -0.000301782              -0.000688895               0.002086576               0.001397681               0.000000000               0.000000000               0.000000000               0.000000000               0.000005980               0.005268957              -0.000168126              -0.000656376               0.001975093               0.001318718               0.000000000               0.000000000               0.000000000               0.000000000              -0.000016947               0.005069954              -0.000098861              -0.000640098               0.001903334               0.001263236               0.000000000               0.000000000               0.000000000               0.000000000               0.002344242               0.017348006               0.003567891              -0.001289409               0.006212413               0.004923004               0.000000000               0.000000000               0.000000000               0.000000000               0.001578433               0.014197639               0.001866352              -0.001182791               0.005126762               0.003943972               0.000000000               0.000000000               0.000000000               0.000000000               0.001372319               0.011918448               0.000209781              -0.000975184               0.004297838               0.003322654               0.000000000               0.000000000               0.000000000               0.000000000               0.001026704               0.010566036              -0.000433623              -0.000935738               0.003833890               0.002898151               0.000000000               0.000000000               0.000000000               0.000000000               0.000717223               0.009653101              -0.000679467              -0.000937677               0.003530227               0.002592550               0.000000000               0.000000000               0.000000000               0.000000000               0.000475270               0.008974710              -0.000759797              -0.000943611               0.003306077               0.002362466               0.000000000               0.000000000               0.000000000               0.000000000               0.000297153               0.008436610              -0.000770058              -0.000943142               0.003126556               0.002183414               0.000000000               0.000000000               0.000000000               0.000000000               0.000164950               0.007985255              -0.000750291              -0.000936299               0.002973824               0.002037526               0.000000000               0.000000000               0.000000000               0.000000000               0.000067485               0.007591054              -0.000710344              -0.000923573               0.002838184               0.001914611               0.000000000               0.000000000               0.000000000               0.000000000              -0.000000427               0.007232386              -0.000660334              -0.000904206               0.002712173               0.001807967               0.000000000               0.000000000               0.000000000               0.000000000              -0.000041173               0.006903579              -0.000608130              -0.000878385               0.002593965               0.001715580               0.000000000               0.000000000               0.000000000               0.000000000              -0.000058475               0.006602518              -0.000553274              -0.000847241               0.002483231               0.001635990               0.000000000               0.000000000               0.000000000               0.000000000              -0.000058648               0.006327485              -0.000490503              -0.000812927               0.002380116               0.001567190               0.000000000               0.000000000               0.000000000               0.000000000              -0.000048668               0.006077837              -0.000409812              -0.000777978               0.002285252               0.001507273               0.000000000               0.000000000               0.000000000               0.000000000              -0.000034610               0.005860045              -0.000299842              -0.000745483               0.002201823               0.001456340               0.000000000               0.000000000               0.000000000               0.000000000              -0.000018529               0.005689940              -0.000160631              -0.000718189               0.002136024               0.001417835               0.000000000               0.000000000               0.000000000               0.000000000              -0.000014967               0.005603976              -0.000087963              -0.000706108               0.002103343               0.001397235               0.000000000               0.000000000               0.000000000               0.000000000               0.002442363               0.015125775               0.004047866              -0.000974837               0.005366819               0.004391983               0.000000000               0.000000000               0.000000000               0.000000000               0.001273468               0.012801554               0.002153736              -0.001122642               0.004641356               0.003518713               0.000000000               0.000000000               0.000000000               0.000000000               0.000637558               0.011301840               0.000330835              -0.001173643               0.004158456               0.002984814               0.000000000               0.000000000               0.000000000               0.000000000               0.000206410               0.010294967              -0.000337374              -0.001209464               0.003834776               0.002625312               0.000000000               0.000000000               0.000000000               0.000000000              -0.000063899               0.009543205              -0.000579423              -0.001216860               0.003586656               0.002369797               0.000000000               0.000000000               0.000000000               0.000000000              -0.000219188               0.008940613              -0.000654343              -0.001199769               0.003380097               0.002180328               0.000000000               0.000000000               0.000000000               0.000000000              -0.000300012               0.008435250              -0.000661690              -0.001166908               0.003200691               0.002033783               0.000000000               0.000000000               0.000000000               0.000000000              -0.000334630               0.007997946              -0.000642093              -0.001125227               0.003041031               0.001915804               0.000000000               0.000000000               0.000000000               0.000000000              -0.000337844               0.007608061              -0.000604141              -0.001077697               0.002895227               0.001817531               0.000000000               0.000000000               0.000000000               0.000000000              -0.000316819               0.007259825              -0.000553900              -0.001026283               0.002762012               0.001735729               0.000000000               0.000000000               0.000000000               0.000000000              -0.000279623               0.006950653              -0.000501944              -0.000973688               0.002641424               0.001667736               0.000000000               0.000000000               0.000000000               0.000000000              -0.000226731               0.006678980              -0.000446267              -0.000919894               0.002532936               0.001613041               0.000000000               0.000000000               0.000000000               0.000000000              -0.000166386               0.006439984              -0.000383168              -0.000867391               0.002435770               0.001568380               0.000000000               0.000000000               0.000000000               0.000000000              -0.000110325               0.006239857              -0.000307272              -0.000821352               0.002353715               0.001532364               0.000000000               0.000000000               0.000000000               0.000000000              -0.000061783               0.006090961              -0.000214729              -0.000784537               0.002291812               0.001507276               0.000000000               0.000000000               0.000000000               0.000000000              -0.000025239               0.005999655              -0.000108833              -0.000759420               0.002253005               0.001493585               0.000000000               0.000000000               0.000000000               0.000000000              -0.000012200               0.005966099              -0.000055015              -0.000750335               0.002238792               0.001488456               0.000000000               0.000000000               0.000000000               0.000000000               0.002331241               0.012716073               0.004116355              -0.000715296               0.004477080               0.003761784               0.000000000               0.000000000               0.000000000               0.000000000               0.000846086               0.011309914               0.002272648              -0.001096456               0.004135419               0.003038963               0.000000000               0.000000000               0.000000000               0.000000000              -0.000141863               0.010615801               0.000511216              -0.001380170               0.003998622               0.002618451               0.000000000               0.000000000               0.000000000               0.000000000              -0.000581410               0.009932885              -0.000104325              -0.001459636               0.003797474               0.002337838               0.000000000               0.000000000               0.000000000               0.000000000              -0.000761239               0.009328275              -0.000324332              -0.001451495               0.003593226               0.002141730               0.000000000               0.000000000               0.000000000               0.000000000              -0.000804274               0.008803576              -0.000393689              -0.001402046               0.003401845               0.001999798               0.000000000               0.000000000               0.000000000               0.000000000              -0.000774218               0.008339010              -0.000408791              -0.001332705               0.003223877               0.001891173               0.000000000               0.000000000               0.000000000               0.000000000              -0.000704592               0.007927489              -0.000401533              -0.001255155               0.003060855               0.001805700               0.000000000               0.000000000               0.000000000               0.000000000              -0.000618349               0.007556855              -0.000375555              -0.001176485               0.002911088               0.001734603               0.000000000               0.000000000               0.000000000               0.000000000              -0.000520960               0.007228962              -0.000338388              -0.001098978               0.002775956               0.001676978               0.000000000               0.000000000               0.000000000               0.000000000              -0.000418297               0.006937869              -0.000299471              -0.001024093               0.002653964               0.001629872               0.000000000               0.000000000               0.000000000               0.000000000              -0.000317106               0.006678717              -0.000256578              -0.000953752               0.002544134               0.001590382               0.000000000               0.000000000               0.000000000               0.000000000              -0.000222793               0.006455048              -0.000210680              -0.000890426               0.002448470               0.001558044               0.000000000               0.000000000               0.000000000               0.000000000              -0.000142602               0.006276316              -0.000164289              -0.000838013               0.002371422               0.001533409               0.000000000               0.000000000               0.000000000               0.000000000              -0.000080973               0.006144175              -0.000112049              -0.000798385               0.002314166               0.001515781               0.000000000               0.000000000               0.000000000               0.000000000              -0.000034087               0.006051304              -0.000054598              -0.000769194               0.002273479               0.001504285               0.000000000               0.000000000               0.000000000               0.000000000              -0.000023383               0.005998605              -0.000032012              -0.000758592               0.002252379               0.001493787               0.000000000               0.000000000               0.000000000               0.000000000               0.001959019               0.010319970               0.003838765              -0.000555366               0.003625077               0.003069710               0.000000000               0.000000000               0.000000000               0.000000000               0.000318630               0.009839425               0.002269544              -0.001110441               0.003649922               0.002539481               0.000000000               0.000000000               0.000000000               0.000000000              -0.000876273               0.009895864               0.000759011              -0.001565582               0.003820449               0.002254867               0.000000000               0.000000000               0.000000000               0.000000000              -0.001232324               0.009491774               0.000232394              -0.001648589               0.003713423               0.002064833               0.000000000               0.000000000               0.000000000               0.000000000              -0.001278368               0.009015396               0.000026202              -0.001606309               0.003540538               0.001934230               0.000000000               0.000000000               0.000000000               0.000000000              -0.001196808               0.008562699              -0.000055640              -0.001519137               0.003360583               0.001841447               0.000000000               0.000000000               0.000000000               0.000000000              -0.001059166               0.008147248              -0.000090166              -0.001415590               0.003187586               0.001771996               0.000000000               0.000000000               0.000000000               0.000000000              -0.000902024               0.007773652              -0.000103875              -0.001309962               0.003027846               0.001717883               0.000000000               0.000000000               0.000000000               0.000000000              -0.000743041               0.007431985              -0.000099942              -0.001207635               0.002879849               0.001672213               0.000000000               0.000000000               0.000000000               0.000000000              -0.000590033               0.007112150              -0.000087578              -0.001110278               0.002740786               0.001630507               0.000000000               0.000000000               0.000000000               0.000000000              -0.000452042               0.006814081              -0.000073742              -0.001021273               0.002611762               0.001590489               0.000000000               0.000000000               0.000000000               0.000000000              -0.000334220               0.006545678              -0.000060734              -0.000943540               0.002496384               0.001552844               0.000000000               0.000000000               0.000000000               0.000000000              -0.000238051               0.006319222              -0.000052611              -0.000879170               0.002399443               0.001520273               0.000000000               0.000000000               0.000000000               0.000000000              -0.000162038               0.006137511              -0.000050221              -0.000827951               0.002321800               0.001493849               0.000000000               0.000000000               0.000000000               0.000000000              -0.000100485               0.005990343              -0.000044879              -0.000786473               0.002258919               0.001472446               0.000000000               0.000000000               0.000000000               0.000000000              -0.000047912               0.005864900              -0.000028793              -0.000751078               0.002205306               0.001454229               0.000000000               0.000000000               0.000000000               0.000000000              -0.000042436               0.005777862              -0.000028849              -0.000738144               0.002171983               0.001433838               0.000000000               0.000000000               0.000000000               0.000000000               0.001353638               0.008094670               0.003307944              -0.000504222               0.002866269               0.002362047               0.000000000               0.000000000               0.000000000               0.000000000              -0.000266993               0.008482912               0.002188803              -0.001160485               0.003214437               0.002053952               0.000000000               0.000000000               0.000000000               0.000000000              -0.001487725               0.009166976               0.001062749              -0.001703765               0.003623550               0.001919785               0.000000000               0.000000000               0.000000000               0.000000000              -0.001688423               0.008990153               0.000620331              -0.001756924               0.003582329               0.001825405               0.000000000               0.000000000               0.000000000               0.000000000              -0.001583124               0.008630219               0.000405870              -0.001672445               0.003434192               0.001761748               0.000000000               0.000000000               0.000000000               0.000000000              -0.001383989               0.008246324               0.000291387              -0.001549783               0.003265342               0.001715559               0.000000000               0.000000000               0.000000000               0.000000000              -0.001156064               0.007888419               0.000225993              -0.001419573               0.003102637               0.001683065               0.000000000               0.000000000               0.000000000               0.000000000              -0.000931821               0.007549652               0.000181976              -0.001293136               0.002947571               0.001654435               0.000000000               0.000000000               0.000000000               0.000000000              -0.000728899               0.007210826               0.000156913              -0.001174688               0.002795147               0.001620460               0.000000000               0.000000000               0.000000000               0.000000000              -0.000556785               0.006875945               0.000139667              -0.001068285               0.002648054               0.001579769               0.000000000               0.000000000               0.000000000               0.000000000              -0.000414243               0.006562641               0.000115994              -0.000975669               0.002512748               0.001537079               0.000000000               0.000000000               0.000000000               0.000000000              -0.000304241               0.006288404               0.000084306              -0.000900139               0.002396160               0.001496021               0.000000000               0.000000000               0.000000000               0.000000000              -0.000222576               0.006059989               0.000044850              -0.000840962               0.002300297               0.001459334               0.000000000               0.000000000               0.000000000               0.000000000              -0.000159328               0.005868301               0.000003558              -0.000793284               0.002220509               0.001427225               0.000000000               0.000000000               0.000000000               0.000000000              -0.000104646               0.005702131              -0.000023921              -0.000752007               0.002151360               0.001399354               0.000000000               0.000000000               0.000000000               0.000000000              -0.000054054               0.005556436              -0.000027018              -0.000714823               0.002090401               0.001375578               0.000000000               0.000000000               0.000000000               0.000000000              -0.000043002               0.005466181              -0.000030193              -0.000699397               0.002055174               0.001355778               0.000000000               0.000000000               0.000000000               0.000000000               0.000613771               0.006210021               0.002629711              -0.000546090               0.002252015               0.001705926               0.000000000               0.000000000               0.000000000               0.000000000              -0.000825824               0.007278344               0.002077581              -0.001219475               0.002832582               0.001613106               0.000000000               0.000000000               0.000000000               0.000000000              -0.001937688               0.008462767               0.001415941              -0.001784475               0.003415719               0.001631244               0.000000000               0.000000000               0.000000000               0.000000000              -0.001974818               0.008518395               0.001027673              -0.001805352               0.003441220               0.001635868               0.000000000               0.000000000               0.000000000               0.000000000              -0.001750068               0.008288657               0.000785692              -0.001692353               0.003326976               0.001634622               0.000000000               0.000000000               0.000000000               0.000000000              -0.001460227               0.007991929               0.000627240              -0.001546573               0.003179474               0.001632901               0.000000000               0.000000000               0.000000000               0.000000000              -0.001163009               0.007692763               0.000522442              -0.001397720               0.003030136               0.001632415               0.000000000               0.000000000               0.000000000               0.000000000              -0.000899044               0.007368955               0.000446725              -0.001258258               0.002875713               0.001617455               0.000000000               0.000000000               0.000000000               0.000000000              -0.000670612               0.007023978               0.000390108              -0.001129474               0.002717794               0.001588320               0.000000000               0.000000000               0.000000000               0.000000000              -0.000478558               0.006680178               0.000336679              -0.001014479               0.002564863               0.001550384               0.000000000               0.000000000               0.000000000               0.000000000              -0.000331635               0.006363512               0.000272155              -0.000919800               0.002427749               0.001507950               0.000000000               0.000000000               0.000000000               0.000000000              -0.000233743               0.006089451               0.000196310              -0.000848833               0.002312741               0.001463908               0.000000000               0.000000000               0.000000000               0.000000000              -0.000179318               0.005854138               0.000118750              -0.000799010               0.002217696               0.001418687               0.000000000               0.000000000               0.000000000               0.000000000              -0.000149186               0.005645095               0.000050482              -0.000761580               0.002135539               0.001373960               0.000000000               0.000000000               0.000000000               0.000000000              -0.000126131               0.005452903               0.000001144              -0.000728910               0.002060586               0.001331676               0.000000000               0.000000000               0.000000000               0.000000000              -0.000107583               0.005283384              -0.000019717              -0.000700765               0.001994699               0.001293934               0.000000000               0.000000000               0.000000000               0.000000000              -0.000096497               0.005198564              -0.000022839              -0.000686005               0.001961506               0.001275501               0.000000000               0.000000000               0.000000000               0.000000000              -0.000277290               0.004456949               0.001900020              -0.000661102               0.001706001               0.001044899               0.000000000               0.000000000               0.000000000               0.000000000              -0.001278253               0.005896818               0.001946924              -0.001216445               0.002371067               0.001154622               0.000000000               0.000000000               0.000000000               0.000000000              -0.002170217               0.007440165               0.001793192              -0.001743848               0.003061312               0.001317464               0.000000000               0.000000000               0.000000000               0.000000000              -0.002125380               0.007819327               0.001472081              -0.001774429               0.003197892               0.001423463               0.000000000               0.000000000               0.000000000               0.000000000              -0.001853624               0.007808701               0.001203103              -0.001671193               0.003159938               0.001488746               0.000000000               0.000000000               0.000000000               0.000000000              -0.001532510               0.007675751               0.000998822              -0.001534157               0.003069943               0.001535787               0.000000000               0.000000000               0.000000000               0.000000000              -0.001216398               0.007482964               0.000846914              -0.001391517               0.002958135               0.001566619               0.000000000               0.000000000               0.000000000               0.000000000              -0.000935805               0.007230849               0.000728723              -0.001254780               0.002828519               0.001573739               0.000000000               0.000000000               0.000000000               0.000000000              -0.000698548               0.006936201               0.000634175              -0.001128978               0.002688370               0.001559392               0.000000000               0.000000000               0.000000000               0.000000000              -0.000503609               0.006615467               0.000544850              -0.001015784               0.002543728               0.001527944               0.000000000               0.000000000               0.000000000               0.000000000              -0.000350523               0.006304453               0.000446878              -0.000919500               0.002407963               0.001488463               0.000000000               0.000000000               0.000000000               0.000000000              -0.000247735               0.006017907               0.000340475              -0.000845137               0.002287661               0.001442524               0.000000000               0.000000000               0.000000000               0.000000000              -0.000193022               0.005766463               0.000234580              -0.000793189               0.002186531               0.001393342               0.000000000               0.000000000               0.000000000               0.000000000              -0.000178158               0.005544457               0.000139951              -0.000759864               0.002101422               0.001341558               0.000000000               0.000000000               0.000000000               0.000000000              -0.000185644               0.005347980               0.000061267              -0.000738112               0.002028680               0.001290567               0.000000000               0.000000000               0.000000000               0.000000000              -0.000203644               0.005169638               0.000010654              -0.000722569               0.001964052               0.001241483               0.000000000               0.000000000               0.000000000               0.000000000              -0.000213539               0.005077816              -0.000005319              -0.000714803               0.001930856               0.001216054               0.000000000               0.000000000               0.000000000               0.000000000              -0.001461319               0.002869092               0.001163749              -0.000906630               0.001258564               0.000351934               0.000000000               0.000000000               0.000000000               0.000000000              -0.001797696               0.004518800               0.001747267              -0.001238984               0.001919246               0.000680262               0.000000000               0.000000000               0.000000000               0.000000000              -0.002319139               0.006262715               0.002085379              -0.001652513               0.002638388               0.000985875               0.000000000               0.000000000               0.000000000               0.000000000              -0.002201274               0.006944710               0.001893027              -0.001693563               0.002879401               0.001185838               0.000000000               0.000000000               0.000000000               0.000000000              -0.001909472               0.007185843               0.001629591              -0.001614279               0.002933350               0.001319071               0.000000000               0.000000000               0.000000000               0.000000000              -0.001579670               0.007245281               0.001395041              -0.001498033               0.002914414               0.001416381               0.000000000               0.000000000               0.000000000               0.000000000              -0.001267068               0.007187892               0.001202296              -0.001373634               0.002853818               0.001480184               0.000000000               0.000000000               0.000000000               0.000000000              -0.000984781               0.007040412               0.001047295              -0.001249342               0.002763228               0.001513886               0.000000000               0.000000000               0.000000000               0.000000000              -0.000735845               0.006834793               0.000916394              -0.001130288               0.002655004               0.001524716               0.000000000               0.000000000               0.000000000               0.000000000              -0.000528067               0.006585271               0.000794688              -0.001021182               0.002535462               0.001514280               0.000000000               0.000000000               0.000000000               0.000000000              -0.000355037               0.006315277               0.000673505              -0.000922546               0.002412587               0.001490041               0.000000000               0.000000000               0.000000000               0.000000000              -0.000225896               0.006036930               0.000548267              -0.000839325               0.002292065               0.001452740               0.000000000               0.000000000               0.000000000               0.000000000              -0.000147353               0.005774842               0.000421036              -0.000777111               0.002183965               0.001406854               0.000000000               0.000000000               0.000000000               0.000000000              -0.000123264               0.005540003               0.000295503              -0.000738723               0.002092890               0.001354167               0.000000000               0.000000000               0.000000000               0.000000000              -0.000148837               0.005339526               0.000177804              -0.000723253               0.002020908               0.001297656               0.000000000               0.000000000               0.000000000               0.000000000              -0.000217714               0.005161013               0.000074988              -0.000726768               0.001962576               0.001235809               0.000000000               0.000000000               0.000000000               0.000000000              -0.000279327               0.005061231               0.000022561              -0.000737400               0.001932860               0.001195460               0.000000000               0.000000000               0.000000000               0.000000000              -0.002857397               0.001555900               0.000477685              -0.001266009               0.000940630              -0.000325379               0.000000000               0.000000000               0.000000000               0.000000000              -0.002434768               0.003222158               0.001458698              -0.001315805               0.001512643               0.000196838               0.000000000               0.000000000               0.000000000               0.000000000              -0.002422786               0.004946459               0.002193887              -0.001526849               0.002157752               0.000630903               0.000000000               0.000000000               0.000000000               0.000000000              -0.002168024               0.005842032               0.002165182              -0.001543260               0.002461744               0.000918484               0.000000000               0.000000000               0.000000000               0.000000000              -0.001845918               0.006318887               0.001952942              -0.001482077               0.002600300               0.001118223               0.000000000               0.000000000               0.000000000               0.000000000              -0.001515710               0.006578624               0.001722173              -0.001390716               0.002656425               0.001265708               0.000000000               0.000000000               0.000000000               0.000000000              -0.001213626               0.006681264               0.001512860              -0.001290265               0.002657154               0.001366889               0.000000000               0.000000000               0.000000000               0.000000000              -0.000942557               0.006667763               0.001336497              -0.001186927               0.002618208               0.001431281               0.000000000               0.000000000               0.000000000               0.000000000              -0.000698637               0.006572881               0.001182327              -0.001083597               0.002552137               0.001468541               0.000000000               0.000000000               0.000000000               0.000000000              -0.000483845               0.006421350               0.001037629              -0.000984109               0.002468465               0.001484356               0.000000000               0.000000000               0.000000000               0.000000000              -0.000298495               0.006229944               0.000897118              -0.000890677               0.002373519               0.001482843               0.000000000               0.000000000               0.000000000               0.000000000              -0.000144948               0.006005198               0.000756714              -0.000805003               0.002270047               0.001465044               0.000000000               0.000000000               0.000000000               0.000000000              -0.000028634               0.005768823               0.000616168              -0.000731839               0.002166868               0.001435029               0.000000000               0.000000000               0.000000000               0.000000000               0.000037425               0.005541427               0.000469659              -0.000678642               0.002073338               0.001394695               0.000000000               0.000000000               0.000000000               0.000000000               0.000037870               0.005339132               0.000314008              -0.000653189               0.001997422               0.001344234               0.000000000               0.000000000               0.000000000               0.000000000              -0.000036834               0.005159753               0.000153855              -0.000658780               0.001939494               0.001280714               0.000000000               0.000000000               0.000000000               0.000000000              -0.000121246               0.005058065               0.000064604              -0.000677724               0.001911913               0.001234189               0.000000000               0.000000000               0.000000000               0.000000000              -0.004354218               0.000584644              -0.000066993              -0.001705910               0.000763513              -0.000942397               0.000000000               0.000000000               0.000000000               0.000000000              -0.003144951               0.002075440               0.001118380              -0.001438784               0.001171400              -0.000267385               0.000000000               0.000000000               0.000000000               0.000000000              -0.002503289               0.003601876               0.002095468              -0.001388965               0.001663601               0.000274635               0.000000000               0.000000000               0.000000000               0.000000000              -0.002046808               0.004602066               0.002217988              -0.001342809               0.001981609               0.000638800               0.000000000               0.000000000               0.000000000               0.000000000              -0.001667997               0.005266316               0.002082681              -0.001283786               0.002183349               0.000899563               0.000000000               0.000000000               0.000000000               0.000000000              -0.001336091               0.005711842               0.001884657              -0.001215012               0.002308932               0.001093920               0.000000000               0.000000000               0.000000000               0.000000000              -0.001046925               0.005973845               0.001688934              -0.001139326               0.002371037               0.001231711               0.000000000               0.000000000               0.000000000               0.000000000              -0.000791102               0.006104327               0.001514681              -0.001059702               0.002387989               0.001328287               0.000000000               0.000000000               0.000000000               0.000000000              -0.000559214               0.006139579               0.001355559              -0.000977151               0.002372223               0.001395072               0.000000000               0.000000000               0.000000000               0.000000000              -0.000346301               0.006101483               0.001204053              -0.000892547               0.002331323               0.001438776               0.000000000               0.000000000               0.000000000               0.000000000              -0.000155263               0.006010638               0.001056868              -0.000809552               0.002273376               0.001463825               0.000000000               0.000000000               0.000000000               0.000000000               0.000019566               0.005874632               0.000915904              -0.000726990               0.002200521               0.001473531               0.000000000               0.000000000               0.000000000               0.000000000               0.000178680               0.005703484               0.000774670              -0.000645929               0.002116452               0.001470523               0.000000000               0.000000000               0.000000000               0.000000000               0.000306223               0.005517857               0.000615909              -0.000574897               0.002030900               0.001456002               0.000000000               0.000000000               0.000000000               0.000000000               0.000378172               0.005333915               0.000432134              -0.000524924               0.001952928               0.001428005               0.000000000               0.000000000               0.000000000               0.000000000               0.000376743               0.005161622               0.000225836              -0.000503923               0.001888498               0.001384575               0.000000000               0.000000000               0.000000000               0.000000000               0.000337730               0.005069925               0.000111957              -0.000507091               0.001858988               0.001351897               0.000000000               0.000000000               0.000000000               0.000000000              -0.005800862              -0.000055166              -0.000387827              -0.002168426               0.000704415              -0.001464010               0.000000000               0.000000000               0.000000000               0.000000000              -0.003861242               0.001143237               0.000775341              -0.001590868               0.000911362              -0.000679506               0.000000000               0.000000000               0.000000000               0.000000000              -0.002578098               0.002358723               0.001788236              -0.001261625               0.001206773              -0.000054852               0.000000000               0.000000000               0.000000000               0.000000000              -0.001875912               0.003365322               0.002005290              -0.001124131               0.001496472               0.000372341               0.000000000               0.000000000               0.000000000               0.000000000              -0.001412475               0.004149157               0.001946546              -0.001048321               0.001732478               0.000684157               0.000000000               0.000000000               0.000000000               0.000000000              -0.001062627               0.004738995               0.001801574              -0.000990858               0.001909935               0.000919076               0.000000000               0.000000000               0.000000000               0.000000000              -0.000778907               0.005143588               0.001641697              -0.000935037               0.002026191               0.001091154               0.000000000               0.000000000               0.000000000               0.000000000              -0.000537758               0.005405827               0.001490652              -0.000877386               0.002094386               0.001217000               0.000000000               0.000000000               0.000000000               0.000000000              -0.000323128               0.005562599               0.001347647              -0.000816496               0.002126346               0.001309850               0.000000000               0.000000000               0.000000000               0.000000000              -0.000120127               0.005644601               0.001206891              -0.000750621               0.002131722               0.001381101               0.000000000               0.000000000               0.000000000               0.000000000               0.000078405               0.005662438               0.001072742              -0.000678402               0.002113594               0.001435192               0.000000000               0.000000000               0.000000000               0.000000000               0.000275153               0.005623831               0.000949561              -0.000599796               0.002074523               0.001474728               0.000000000               0.000000000               0.000000000               0.000000000               0.000470549               0.005544963               0.000822814              -0.000516664               0.002020524               0.001503860               0.000000000               0.000000000               0.000000000               0.000000000               0.000658945               0.005434838               0.000669647              -0.000432250               0.001955678               0.001523428               0.000000000               0.000000000               0.000000000               0.000000000               0.000828496               0.005300888               0.000482909              -0.000351924               0.001884253               0.001532329               0.000000000               0.000000000               0.000000000               0.000000000               0.000960922               0.005153998               0.000259896              -0.000283903               0.001812617               0.001528713               0.000000000               0.000000000               0.000000000               0.000000000               0.001032745               0.005085822               0.000141218              -0.000248448               0.001778073               0.001529625               0.000000000               0.000000000               0.000000000               0.000000000              -0.007015243              -0.000422119              -0.000454573              -0.002577949               0.000718605              -0.001859344               0.000000000               0.000000000               0.000000000               0.000000000              -0.004488213               0.000465989               0.000468330              -0.001741327               0.000735767              -0.001005560               0.000000000               0.000000000               0.000000000               0.000000000              -0.002653760               0.001351750               0.001301069              -0.001164127               0.000838619              -0.000325508               0.000000000               0.000000000               0.000000000               0.000000000              -0.001710616               0.002301218               0.001524628              -0.000929132               0.001076775               0.000147643               0.000000000               0.000000000               0.000000000               0.000000000              -0.001146859               0.003140423               0.001517774              -0.000822624               0.001321004               0.000498381               0.000000000               0.000000000               0.000000000               0.000000000              -0.000763371               0.003823851               0.001430467              -0.000764244               0.001529352               0.000765107               0.000000000               0.000000000               0.000000000               0.000000000              -0.000478945               0.004332315               0.001320944              -0.000721143               0.001684471               0.000963328               0.000000000               0.000000000               0.000000000               0.000000000              -0.000248190               0.004701517               0.001209203              -0.000680760               0.001794076               0.001113317               0.000000000               0.000000000               0.000000000               0.000000000              -0.000046976               0.004964342               0.001098755              -0.000638158               0.001867483               0.001229325               0.000000000               0.000000000               0.000000000               0.000000000               0.000146227               0.005146845               0.000990887              -0.000588520               0.001911771               0.001323251               0.000000000               0.000000000               0.000000000               0.000000000               0.000347896               0.005261666               0.000891389              -0.000527246               0.001929620               0.001402374               0.000000000               0.000000000               0.000000000               0.000000000               0.000561637               0.005319741               0.000799394              -0.000454353               0.001924680               0.001470327               0.000000000               0.000000000               0.000000000               0.000000000               0.000785986               0.005331704               0.000701568              -0.000371718               0.001901123               0.001529405               0.000000000               0.000000000               0.000000000               0.000000000               0.001026318               0.005302210               0.000580958              -0.000277906               0.001860021               0.001582115               0.000000000               0.000000000               0.000000000               0.000000000               0.001288555               0.005234630               0.000426830              -0.000171120               0.001801899               0.001630779               0.000000000               0.000000000               0.000000000               0.000000000               0.001567482               0.005130537               0.000231728              -0.000053512               0.001727999               0.001674487               0.000000000               0.000000000               0.000000000               0.000000000               0.001775129               0.005095025               0.000131789               0.000028795               0.001688727               0.001717521               0.000000000               0.000000000               0.000000000               0.000000000              -0.007829605              -0.000593042              -0.000293647              -0.002861970               0.000756304              -0.002105666               0.000000000               0.000000000               0.000000000               0.000000000              -0.004920715               0.000062610               0.000214367              -0.001853093               0.000638563              -0.001214530               0.000000000               0.000000000               0.000000000               0.000000000              -0.002711650               0.000699141               0.000682298              -0.001104260               0.000601129              -0.000503131               0.000000000               0.000000000               0.000000000               0.000000000              -0.001593800               0.001579049               0.000823432              -0.000795055               0.000791362              -0.000003693               0.000000000               0.000000000               0.000000000               0.000000000              -0.000947654               0.002430524               0.000833925              -0.000659184               0.001029894               0.000370710               0.000000000               0.000000000               0.000000000               0.000000000              -0.000530562               0.003161153               0.000795739              -0.000594104               0.001251742               0.000657638               0.000000000               0.000000000               0.000000000               0.000000000              -0.000242396               0.003733149               0.000741397              -0.000557541               0.001430217               0.000872676               0.000000000               0.000000000               0.000000000               0.000000000              -0.000020471               0.004171029               0.000681557              -0.000529054               0.001566680               0.001037626               0.000000000               0.000000000               0.000000000               0.000000000               0.000172763               0.004503139               0.000620470              -0.000498105               0.001667066               0.001168961               0.000000000               0.000000000               0.000000000               0.000000000               0.000365097               0.004757097               0.000561860              -0.000457725               0.001738258               0.001280533               0.000000000               0.000000000               0.000000000               0.000000000               0.000566924               0.004942760               0.000509680              -0.000405248               0.001782653               0.001377405               0.000000000               0.000000000               0.000000000               0.000000000               0.000785191               0.005071032               0.000460615              -0.000339432               0.001803471               0.001464039               0.000000000               0.000000000               0.000000000               0.000000000               0.001027654               0.005150421               0.000406647              -0.000258432               0.001802934               0.001544502               0.000000000               0.000000000               0.000000000               0.000000000               0.001305812               0.005181303               0.000340215              -0.000157983               0.001779745               0.001621762               0.000000000               0.000000000               0.000000000               0.000000000               0.001634597               0.005163745               0.000252269              -0.000032494               0.001732062               0.001699568               0.000000000               0.000000000               0.000000000               0.000000000               0.002029458               0.005097930               0.000138092               0.000123804               0.001658025               0.001781829               0.000000000               0.000000000               0.000000000               0.000000000               0.002348258               0.005091337               0.000081489               0.000244177               0.001615703               0.001859880               0.000000000               0.000000000               0.000000000               0.000000000              -0.008119462              -0.000643355              -0.000000000              -0.002964377               0.000773669              -0.002190708               0.000000000               0.000000000               0.000000000               0.000000000              -0.005076787              -0.000075163              -0.000000000              -0.001894398               0.000606408              -0.001287991               0.000000000               0.000000000               0.000000000               0.000000000              -0.002732414               0.000471531               0.000000000              -0.001083595               0.000518372              -0.000565224               0.000000000               0.000000000               0.000000000               0.000000000              -0.001549450               0.001326188               0.000000000              -0.000746816               0.000690996              -0.000055819               0.000000000               0.000000000               0.000000000               0.000000000              -0.000871826               0.002177053               0.000000000              -0.000599065               0.000925365               0.000326300               0.000000000               0.000000000               0.000000000               0.000000000              -0.000440712               0.002919532               0.000000000              -0.000530207               0.001149903               0.000619696               0.000000000               0.000000000               0.000000000               0.000000000              -0.000151918               0.003509806               0.000000000              -0.000495694               0.001335155               0.000839461               0.000000000               0.000000000               0.000000000               0.000000000               0.000065846               0.003971005               0.000000000              -0.000471682               0.001480882               0.001009200               0.000000000               0.000000000               0.000000000               0.000000000               0.000256758               0.004328739              -0.000000000              -0.000444807               0.001591167               0.001146360               0.000000000               0.000000000               0.000000000               0.000000000               0.000448606               0.004607890              -0.000000000              -0.000407758               0.001671867               0.001264109               0.000000000               0.000000000               0.000000000               0.000000000               0.000650952               0.004820129               0.000000000              -0.000358408               0.001726163               0.001367755               0.000000000               0.000000000               0.000000000               0.000000000               0.000869454               0.004974217               0.000000000              -0.000295731               0.001756633               0.001460902               0.000000000               0.000000000               0.000000000               0.000000000               0.001117404               0.005079347               0.000000000              -0.000215891               0.001765062               0.001549171               0.000000000               0.000000000               0.000000000               0.000000000               0.001410031               0.005134079               0.000000000              -0.000112998               0.001749009               0.001636011               0.000000000               0.000000000               0.000000000               0.000000000               0.001765101               0.005134471               0.000000000               0.000020104               0.001704772               0.001724876               0.000000000               0.000000000               0.000000000               0.000000000               0.002205823               0.005082130               0.000000000               0.000191915               0.001630055               0.001821970               0.000000000               0.000000000               0.000000000               0.000000000               0.002567126               0.005085847               0.000000000               0.000326938               0.001586286               0.001913224               0.000000000               0.000000000               0.000000000               0.000000000               0.001873890               0.020758333               0.000000000              -0.001892078               0.007550068               0.005657990               0.000000000               0.000000000               0.000000000               0.000000000               0.001880369               0.016395220               0.000000000              -0.001344261               0.005913106               0.004568845               0.000000000               0.000000000               0.000000000               0.000000000               0.002490497               0.012866773               0.000000000              -0.000674409               0.004513684               0.003839276               0.000000000               0.000000000               0.000000000               0.000000000               0.002420033               0.010894639               0.000000000              -0.000454317               0.003782949               0.003328632               0.000000000               0.000000000               0.000000000               0.000000000               0.002139512               0.009672350               0.000000000              -0.000406726               0.003359659               0.002952934               0.000000000               0.000000000               0.000000000               0.000000000               0.001811382               0.008853243               0.000000000              -0.000427386               0.003093514               0.002666127               0.000000000               0.000000000               0.000000000               0.000000000               0.001495922               0.008251111               0.000000000              -0.000470417               0.002907148               0.002436731               0.000000000               0.000000000               0.000000000               0.000000000               0.001214587               0.007778223               0.000000000              -0.000516806               0.002764984               0.002248178               0.000000000               0.000000000               0.000000000               0.000000000               0.000967720               0.007384969               0.000000000              -0.000560225               0.002648373               0.002088149               0.000000000               0.000000000               0.000000000               0.000000000               0.000751803               0.007030311               0.000000000              -0.000596861               0.002542367               0.001945506               0.000000000               0.000000000               0.000000000               0.000000000               0.000569387               0.006693544              -0.000000000              -0.000623171               0.002438883               0.001815711               0.000000000               0.000000000               0.000000000               0.000000000               0.000415162               0.006357840              -0.000000000              -0.000639042               0.002332273               0.001693230               0.000000000               0.000000000               0.000000000               0.000000000               0.000285855               0.006012900               0.000000000              -0.000644415               0.002219085               0.001574670               0.000000000               0.000000000               0.000000000               0.000000000               0.000176546               0.005649607              -0.000000000              -0.000639995               0.002096515               0.001456521               0.000000000               0.000000000               0.000000000               0.000000000               0.000088307               0.005249779               0.000000000              -0.000623106               0.001957611               0.001334505               0.000000000               0.000000000               0.000000000               0.000000000               0.000034350               0.004789412               0.000000000              -0.000585794               0.001791719               0.001205925               0.000000000               0.000000000               0.000000000               0.000000000              -0.000020363               0.004432449               0.000000000              -0.000561691               0.001664699               0.001103008               0.000000000               0.000000000               0.000000000               0.000000000               0.001950396               0.020342786              -0.001431582              -0.001811445               0.007384676               0.005573230               0.000000000               0.000000000               0.000000000               0.000000000               0.001854204               0.016123232              -0.000744002              -0.001320074               0.005814382               0.004494307               0.000000000               0.000000000               0.000000000               0.000000000               0.002355910               0.012751098              -0.000059419              -0.000710419               0.004487130               0.003776711               0.000000000               0.000000000               0.000000000               0.000000000               0.002243149               0.010860276               0.000228837              -0.000516352               0.003792173               0.003275821               0.000000000               0.000000000               0.000000000               0.000000000               0.001953196               0.009681043               0.000349504              -0.000477681               0.003386209               0.002908528               0.000000000               0.000000000               0.000000000               0.000000000               0.001631245               0.008877850               0.000393008              -0.000498013               0.003125258               0.002627245               0.000000000               0.000000000               0.000000000               0.000000000               0.001331662               0.008286044               0.000399401              -0.000536381               0.002940781               0.002404400               0.000000000               0.000000000               0.000000000               0.000000000               0.001067999               0.007819116               0.000393085              -0.000576889               0.002798642               0.002221754               0.000000000               0.000000000               0.000000000               0.000000000               0.000838397               0.007422920               0.000378179              -0.000613465               0.002678770               0.002065305               0.000000000               0.000000000               0.000000000               0.000000000               0.000642845               0.007065672               0.000357951              -0.000642141               0.002569247               0.001927107               0.000000000               0.000000000               0.000000000               0.000000000               0.000481304               0.006729000               0.000336354              -0.000660634               0.002463189               0.001802555               0.000000000               0.000000000               0.000000000               0.000000000               0.000348908               0.006399773               0.000312288              -0.000669129               0.002356279               0.001687150               0.000000000               0.000000000               0.000000000               0.000000000               0.000239155               0.006066403               0.000286139              -0.000668616               0.002244986               0.001576370               0.000000000               0.000000000               0.000000000               0.000000000               0.000145658               0.005717123               0.000251813              -0.000660017               0.002125694               0.001465677               0.000000000               0.000000000               0.000000000               0.000000000               0.000072700               0.005340679               0.000196972              -0.000640321               0.001993649               0.001353328               0.000000000               0.000000000               0.000000000               0.000000000               0.000027828               0.004924053               0.000112955              -0.000605070               0.001843024               0.001237955               0.000000000               0.000000000               0.000000000               0.000000000              -0.000018897               0.004614291               0.000068936              -0.000583871               0.001732705               0.001148834               0.000000000               0.000000000               0.000000000               0.000000000               0.002140569               0.019155765              -0.002672566              -0.001591754               0.006915776               0.005324021               0.000000000               0.000000000               0.000000000               0.000000000               0.001764590               0.015352953              -0.001390599              -0.001257395               0.005536732               0.004279336               0.000000000               0.000000000               0.000000000               0.000000000               0.001969555               0.012420244              -0.000126571              -0.000813945               0.004411355               0.003597410               0.000000000               0.000000000               0.000000000               0.000000000               0.001748217               0.010752765               0.000389355              -0.000688513               0.003813723               0.003125211               0.000000000               0.000000000               0.000000000               0.000000000               0.001441022               0.009686776               0.000596925              -0.000670462               0.003452381               0.002781918               0.000000000               0.000000000               0.000000000               0.000000000               0.001143667               0.008934859               0.000669022              -0.000687981               0.003207583               0.002519603               0.000000000               0.000000000               0.000000000               0.000000000               0.000889110               0.008366807               0.000680615              -0.000712433               0.003026385               0.002313952               0.000000000               0.000000000               0.000000000               0.000000000               0.000677777               0.007909128               0.000666541              -0.000734473               0.002881174               0.002146701               0.000000000               0.000000000               0.000000000               0.000000000               0.000501080               0.007513496               0.000636612              -0.000751280               0.002754900               0.002003620               0.000000000               0.000000000               0.000000000               0.000000000               0.000359601               0.007154346               0.000598864              -0.000759441               0.002637905               0.001878464               0.000000000               0.000000000               0.000000000               0.000000000               0.000248563               0.006817943               0.000558375              -0.000759030               0.002525635               0.001766605               0.000000000               0.000000000               0.000000000               0.000000000               0.000161274               0.006496611               0.000514615              -0.000751597               0.002416048               0.001664451               0.000000000               0.000000000               0.000000000               0.000000000               0.000095622               0.006185571               0.000463771              -0.000737336               0.002307615               0.001570279               0.000000000               0.000000000               0.000000000               0.000000000               0.000048045               0.005877489               0.000397844              -0.000716668               0.002198033               0.001481365               0.000000000               0.000000000               0.000000000               0.000000000               0.000019905               0.005570889               0.000301782              -0.000688895               0.002086576               0.001397681               0.000000000               0.000000000               0.000000000               0.000000000               0.000005980               0.005268957               0.000168126              -0.000656376               0.001975093               0.001318718               0.000000000               0.000000000               0.000000000               0.000000000              -0.000016947               0.005069954               0.000098861              -0.000640098               0.001903334               0.001263236               0.000000000               0.000000000               0.000000000               0.000000000               0.002344242               0.017348006              -0.003567891              -0.001289409               0.006212413               0.004923004               0.000000000               0.000000000               0.000000000               0.000000000               0.001578433               0.014197639              -0.001866352              -0.001182791               0.005126762               0.003943972               0.000000000               0.000000000               0.000000000               0.000000000               0.001372319               0.011918448              -0.000209781              -0.000975184               0.004297838               0.003322654               0.000000000               0.000000000               0.000000000               0.000000000               0.001026704               0.010566036               0.000433623              -0.000935738               0.003833890               0.002898151               0.000000000               0.000000000               0.000000000               0.000000000               0.000717223               0.009653101               0.000679467              -0.000937677               0.003530227               0.002592550               0.000000000               0.000000000               0.000000000               0.000000000               0.000475270               0.008974710               0.000759797              -0.000943611               0.003306077               0.002362466               0.000000000               0.000000000               0.000000000               0.000000000               0.000297153               0.008436610               0.000770058              -0.000943142               0.003126556               0.002183414               0.000000000               0.000000000               0.000000000               0.000000000               0.000164950               0.007985255               0.000750291              -0.000936299               0.002973824               0.002037526               0.000000000               0.000000000               0.000000000               0.000000000               0.000067485               0.007591054               0.000710344              -0.000923573               0.002838184               0.001914611               0.000000000               0.000000000               0.000000000               0.000000000              -0.000000427               0.007232386               0.000660334              -0.000904206               0.002712173               0.001807967               0.000000000               0.000000000               0.000000000               0.000000000              -0.000041173               0.006903579               0.000608130              -0.000878385               0.002593965               0.001715580               0.000000000               0.000000000               0.000000000               0.000000000              -0.000058475               0.006602518               0.000553274              -0.000847241               0.002483231               0.001635990               0.000000000               0.000000000               0.000000000               0.000000000              -0.000058648               0.006327485               0.000490503              -0.000812927               0.002380116               0.001567190               0.000000000               0.000000000               0.000000000               0.000000000              -0.000048668               0.006077837               0.000409812              -0.000777978               0.002285252               0.001507273               0.000000000               0.000000000               0.000000000               0.000000000              -0.000034610               0.005860045               0.000299842              -0.000745483               0.002201823               0.001456340               0.000000000               0.000000000               0.000000000               0.000000000              -0.000018529               0.005689940               0.000160631              -0.000718189               0.002136024               0.001417835               0.000000000               0.000000000               0.000000000               0.000000000              -0.000014967               0.005603976               0.000087963              -0.000706108               0.002103343               0.001397235               0.000000000               0.000000000               0.000000000               0.000000000               0.002442363               0.015125775              -0.004047866              -0.000974837               0.005366819               0.004391983               0.000000000               0.000000000               0.000000000               0.000000000               0.001273468               0.012801554              -0.002153736              -0.001122642               0.004641356               0.003518713               0.000000000               0.000000000               0.000000000               0.000000000               0.000637558               0.011301840              -0.000330835              -0.001173643               0.004158456               0.002984814               0.000000000               0.000000000               0.000000000               0.000000000               0.000206410               0.010294967               0.000337374              -0.001209464               0.003834776               0.002625312               0.000000000               0.000000000               0.000000000               0.000000000              -0.000063899               0.009543205               0.000579423              -0.001216860               0.003586656               0.002369797               0.000000000               0.000000000               0.000000000               0.000000000              -0.000219188               0.008940613               0.000654343              -0.001199769               0.003380097               0.002180328               0.000000000               0.000000000               0.000000000               0.000000000              -0.000300012               0.008435250               0.000661690              -0.001166908               0.003200691               0.002033783               0.000000000               0.000000000               0.000000000               0.000000000              -0.000334630               0.007997946               0.000642093              -0.001125227               0.003041031               0.001915804               0.000000000               0.000000000               0.000000000               0.000000000              -0.000337844               0.007608061               0.000604141              -0.001077697               0.002895227               0.001817531               0.000000000               0.000000000               0.000000000               0.000000000              -0.000316819               0.007259825               0.000553900              -0.001026283               0.002762012               0.001735729               0.000000000               0.000000000               0.000000000               0.000000000              -0.000279623               0.006950653               0.000501944              -0.000973688               0.002641424               0.001667736               0.000000000               0.000000000               0.000000000               0.000000000              -0.000226731               0.006678980               0.000446267              -0.000919894               0.002532936               0.001613041               0.000000000               0.000000000               0.000000000               0.000000000              -0.000166386               0.006439984               0.000383168              -0.000867391               0.002435770               0.001568380               0.000000000               0.000000000               0.000000000               0.000000000              -0.000110325               0.006239857               0.000307272              -0.000821352               0.002353715               0.001532364               0.000000000               0.000000000               0.000000000               0.000000000              -0.000061783               0.006090961               0.000214729              -0.000784537               0.002291812               0.001507276               0.000000000               0.000000000               0.000000000               0.000000000              -0.000025239               0.005999655               0.000108833              -0.000759420               0.002253005               0.001493585               0.000000000               0.000000000               0.000000000               0.000000000              -0.000012200               0.005966099               0.000055015              -0.000750335               0.002238792               0.001488456               0.000000000               0.000000000               0.000000000               0.000000000               0.002331241               0.012716073              -0.004116355              -0.000715296               0.004477080               0.003761784               0.000000000               0.000000000               0.000000000               0.000000000               0.000846086               0.011309914              -0.002272648              -0.001096456               0.004135419               0.003038963               0.000000000               0.000000000               0.000000000               0.000000000              -0.000141863               0.010615801              -0.000511216              -0.001380170               0.003998622               0.002618451               0.000000000               0.000000000               0.000000000               0.000000000              -0.000581410               0.009932885               0.000104325              -0.001459636               0.003797474               0.002337838               0.000000000               0.000000000               0.000000000               0.000000000              -0.000761239               0.009328275               0.000324332              -0.001451495               0.003593226               0.002141730               0.000000000               0.000000000               0.000000000               0.000000000              -0.000804274               0.008803576               0.000393689              -0.001402046               0.003401845               0.001999798               0.000000000               0.000000000               0.000000000               0.000000000              -0.000774218               0.008339010               0.000408791              -0.001332705               0.003223877               0.001891173               0.000000000               0.000000000               0.000000000               0.000000000              -0.000704592               0.007927489               0.000401533              -0.001255155               0.003060855               0.001805700               0.000000000               0.000000000               0.000000000               0.000000000              -0.000618349               0.007556855               0.000375555              -0.001176485               0.002911088               0.001734603               0.000000000               0.000000000               0.000000000               0.000000000              -0.000520960               0.007228962               0.000338388              -0.001098978               0.002775956               0.001676978               0.000000000               0.000000000               0.000000000               0.000000000              -0.000418297               0.006937869               0.000299471              -0.001024093               0.002653964               0.001629872               0.000000000               0.000000000               0.000000000               0.000000000              -0.000317106               0.006678717               0.000256578              -0.000953752               0.002544134               0.001590382               0.000000000               0.000000000               0.000000000               0.000000000              -0.000222793               0.006455048               0.000210680              -0.000890426               0.002448470               0.001558044               0.000000000               0.000000000               0.000000000               0.000000000              -0.000142602               0.006276316               0.000164289              -0.000838013               0.002371422               0.001533409               0.000000000               0.000000000               0.000000000               0.000000000              -0.000080973               0.006144175               0.000112049              -0.000798385               0.002314166               0.001515781               0.000000000               0.000000000               0.000000000               0.000000000              -0.000034087               0.006051304               0.000054598              -0.000769194               0.002273479               0.001504285               0.000000000               0.000000000               0.000000000               0.000000000              -0.000023383               0.005998605               0.000032012              -0.000758592               0.002252379               0.001493787               0.000000000               0.000000000               0.000000000               0.000000000               0.001959019               0.010319970              -0.003838765              -0.000555366               0.003625077               0.003069710               0.000000000               0.000000000               0.000000000               0.000000000               0.000318630               0.009839425              -0.002269544              -0.001110441               0.003649922               0.002539481               0.000000000               0.000000000               0.000000000               0.000000000              -0.000876273               0.009895864              -0.000759011              -0.001565582               0.003820449               0.002254867               0.000000000               0.000000000               0.000000000               0.000000000              -0.001232324               0.009491774              -0.000232394              -0.001648589               0.003713423               0.002064833               0.000000000               0.000000000               0.000000000               0.000000000              -0.001278368               0.009015396              -0.000026202              -0.001606309               0.003540538               0.001934230               0.000000000               0.000000000               0.000000000               0.000000000              -0.001196808               0.008562699               0.000055640              -0.001519137               0.003360583               0.001841447               0.000000000               0.000000000               0.000000000               0.000000000              -0.001059166               0.008147248               0.000090166              -0.001415590               0.003187586               0.001771996               0.000000000               0.000000000               0.000000000               0.000000000              -0.000902024               0.007773652               0.000103875              -0.001309962               0.003027846               0.001717883               0.000000000               0.000000000               0.000000000               0.000000000              -0.000743041               0.007431985               0.000099942              -0.001207635               0.002879849               0.001672213               0.000000000               0.000000000               0.000000000               0.000000000              -0.000590033               0.007112150               0.000087578              -0.001110278               0.002740786               0.001630507               0.000000000               0.000000000               0.000000000               0.000000000              -0.000452042               0.006814081               0.000073742              -0.001021273               0.002611762               0.001590489               0.000000000               0.000000000               0.000000000               0.000000000              -0.000334220               0.006545678               0.000060734              -0.000943540               0.002496384               0.001552844               0.000000000               0.000000000               0.000000000               0.000000000              -0.000238051               0.006319222               0.000052611              -0.000879170               0.002399443               0.001520273               0.000000000               0.000000000               0.000000000               0.000000000              -0.000162038               0.006137511               0.000050221              -0.000827951               0.002321800               0.001493849               0.000000000               0.000000000               0.000000000               0.000000000              -0.000100485               0.005990343               0.000044879              -0.000786473               0.002258919               0.001472446               0.000000000               0.000000000               0.000000000               0.000000000              -0.000047912               0.005864900               0.000028793              -0.000751078               0.002205306               0.001454229               0.000000000               0.000000000               0.000000000               0.000000000              -0.000042436               0.005777862               0.000028849              -0.000738144               0.002171983               0.001433838               0.000000000               0.000000000               0.000000000               0.000000000               0.001353638               0.008094670              -0.003307944              -0.000504222               0.002866269               0.002362047               0.000000000               0.000000000               0.000000000               0.000000000              -0.000266993               0.008482912              -0.002188803              -0.001160485               0.003214437               0.002053952               0.000000000               0.000000000               0.000000000               0.000000000              -0.001487725               0.009166976              -0.001062749              -0.001703765               0.003623550               0.001919785               0.000000000               0.000000000               0.000000000               0.000000000              -0.001688423               0.008990153              -0.000620331              -0.001756924               0.003582329               0.001825405               0.000000000               0.000000000               0.000000000               0.000000000              -0.001583124               0.008630219              -0.000405870              -0.001672445               0.003434192               0.001761748               0.000000000               0.000000000               0.000000000               0.000000000              -0.001383989               0.008246324              -0.000291387              -0.001549783               0.003265342               0.001715559               0.000000000               0.000000000               0.000000000               0.000000000              -0.001156064               0.007888419              -0.000225993              -0.001419573               0.003102637               0.001683065               0.000000000               0.000000000               0.000000000               0.000000000              -0.000931821               0.007549652              -0.000181976              -0.001293136               0.002947571               0.001654435               0.000000000               0.000000000               0.000000000               0.000000000              -0.000728899               0.007210826              -0.000156913              -0.001174688               0.002795147               0.001620460               0.000000000               0.000000000               0.000000000               0.000000000              -0.000556785               0.006875945              -0.000139667              -0.001068285               0.002648054               0.001579769               0.000000000               0.000000000               0.000000000               0.000000000              -0.000414243               0.006562641              -0.000115994              -0.000975669               0.002512748               0.001537079               0.000000000               0.000000000               0.000000000               0.000000000              -0.000304241               0.006288404              -0.000084306              -0.000900139               0.002396160               0.001496021               0.000000000               0.000000000               0.000000000               0.000000000              -0.000222576               0.006059989              -0.000044850              -0.000840962               0.002300297               0.001459334               0.000000000               0.000000000               0.000000000               0.000000000              -0.000159328               0.005868301              -0.000003558              -0.000793284               0.002220509               0.001427225               0.000000000               0.000000000               0.000000000               0.000000000              -0.000104646               0.005702131               0.000023921              -0.000752007               0.002151360               0.001399354               0.000000000               0.000000000               0.000000000               0.000000000              -0.000054054               0.005556436               0.000027018              -0.000714823               0.002090401               0.001375578               0.000000000               0.000000000               0.000000000               0.000000000              -0.000043002               0.005466181               0.000030193              -0.000699397               0.002055174               0.001355778               0.000000000               0.000000000               0.000000000               0.000000000               0.000613771               0.006210021              -0.002629711              -0.000546090               0.002252015               0.001705926               0.000000000               0.000000000               0.000000000               0.000000000              -0.000825824               0.007278344              -0.002077581              -0.001219475               0.002832582               0.001613106               0.000000000               0.000000000               0.000000000               0.000000000              -0.001937688               0.008462767              -0.001415941              -0.001784475               0.003415719               0.001631244               0.000000000               0.000000000               0.000000000               0.000000000              -0.001974818               0.008518395              -0.001027673              -0.001805352               0.003441220               0.001635868               0.000000000               0.000000000               0.000000000               0.000000000              -0.001750068               0.008288657              -0.000785692              -0.001692353               0.003326976               0.001634622               0.000000000               0.000000000               0.000000000               0.000000000              -0.001460227               0.007991929              -0.000627240              -0.001546573               0.003179474               0.001632901               0.000000000               0.000000000               0.000000000               0.000000000              -0.001163009               0.007692763              -0.000522442              -0.001397720               0.003030136               0.001632415               0.000000000               0.000000000               0.000000000               0.000000000              -0.000899044               0.007368955              -0.000446725              -0.001258258               0.002875713               0.001617455               0.000000000               0.000000000               0.000000000               0.000000000              -0.000670612               0.007023978              -0.000390108              -0.001129474               0.002717794               0.001588320               0.000000000               0.000000000               0.000000000               0.000000000              -0.000478558               0.006680178              -0.000336679              -0.001014479               0.002564863               0.001550384               0.000000000               0.000000000               0.000000000               0.000000000              -0.000331635               0.006363512              -0.000272155              -0.000919800               0.002427749               0.001507950               0.000000000               0.000000000               0.000000000               0.000000000              -0.000233743               0.006089451              -0.000196310              -0.000848833               0.002312741               0.001463908               0.000000000               0.000000000               0.000000000               0.000000000              -0.000179318               0.005854138              -0.000118750              -0.000799010               0.002217696               0.001418687               0.000000000               0.000000000               0.000000000               0.000000000              -0.000149186               0.005645095              -0.000050482              -0.000761580               0.002135539               0.001373960               0.000000000               0.000000000               0.000000000               0.000000000              -0.000126131               0.005452903              -0.000001144              -0.000728910               0.002060586               0.001331676               0.000000000               0.000000000               0.000000000               0.000000000              -0.000107583               0.005283384               0.000019717              -0.000700765               0.001994699               0.001293934               0.000000000               0.000000000               0.000000000               0.000000000              -0.000096497               0.005198564               0.000022839              -0.000686005               0.001961506               0.001275501               0.000000000               0.000000000               0.000000000               0.000000000              -0.000277290               0.004456949              -0.001900020              -0.000661102               0.001706001               0.001044899               0.000000000               0.000000000               0.000000000               0.000000000              -0.001278253               0.005896818              -0.001946924              -0.001216445               0.002371067               0.001154622               0.000000000               0.000000000               0.000000000               0.000000000              -0.002170217               0.007440165              -0.001793192              -0.001743848               0.003061312               0.001317464               0.000000000               0.000000000               0.000000000               0.000000000              -0.002125380               0.007819327              -0.001472081              -0.001774429               0.003197892               0.001423463               0.000000000               0.000000000               0.000000000               0.000000000              -0.001853624               0.007808701              -0.001203103              -0.001671193               0.003159938               0.001488746               0.000000000               0.000000000               0.000000000               0.000000000              -0.001532510               0.007675751              -0.000998822              -0.001534157               0.003069943               0.001535787               0.000000000               0.000000000               0.000000000               0.000000000              -0.001216398               0.007482964              -0.000846914              -0.001391517               0.002958135               0.001566619               0.000000000               0.000000000               0.000000000               0.000000000              -0.000935805               0.007230849              -0.000728723              -0.001254780               0.002828519               0.001573739               0.000000000               0.000000000               0.000000000               0.000000000              -0.000698548               0.006936201              -0.000634175              -0.001128978               0.002688370               0.001559392               0.000000000               0.000000000               0.000000000               0.000000000              -0.000503609               0.006615467              -0.000544850              -0.001015784               0.002543728               0.001527944               0.000000000               0.000000000               0.000000000               0.000000000              -0.000350523               0.006304453              -0.000446878              -0.000919500               0.002407963               0.001488463               0.000000000               0.000000000               0.000000000               0.000000000              -0.000247735               0.006017907              -0.000340475              -0.000845137               0.002287661               0.001442524               0.000000000               0.000000000               0.000000000               0.000000000              -0.000193022               0.005766463              -0.000234580              -0.000793189               0.002186531               0.001393342               0.000000000               0.000000000               0.000000000               0.000000000              -0.000178158               0.005544457              -0.000139951              -0.000759864               0.002101422               0.001341558               0.000000000               0.000000000               0.000000000               0.000000000              -0.000185644               0.005347980              -0.000061267              -0.000738112               0.002028680               0.001290567               0.000000000               0.000000000               0.000000000               0.000000000              -0.000203644               0.005169638              -0.000010654              -0.000722569               0.001964052               0.001241483               0.000000000               0.000000000               0.000000000               0.000000000              -0.000213539               0.005077816               0.000005319              -0.000714803               0.001930856               0.001216054               0.000000000               0.000000000               0.000000000               0.000000000              -0.001461319               0.002869092              -0.001163749              -0.000906630               0.001258564               0.000351934               0.000000000               0.000000000               0.000000000               0.000000000              -0.001797696               0.004518800              -0.001747267              -0.001238984               0.001919246               0.000680262               0.000000000               0.000000000               0.000000000               0.000000000              -0.002319139               0.006262715              -0.002085379              -0.001652513               0.002638388               0.000985875               0.000000000               0.000000000               0.000000000               0.000000000              -0.002201274               0.006944710              -0.001893027              -0.001693563               0.002879401               0.001185838               0.000000000               0.000000000               0.000000000               0.000000000              -0.001909472               0.007185843              -0.001629591              -0.001614279               0.002933350               0.001319071               0.000000000               0.000000000               0.000000000               0.000000000              -0.001579670               0.007245281              -0.001395041              -0.001498033               0.002914414               0.001416381               0.000000000               0.000000000               0.000000000               0.000000000              -0.001267068               0.007187892              -0.001202296              -0.001373634               0.002853818               0.001480184               0.000000000               0.000000000               0.000000000               0.000000000              -0.000984781               0.007040412              -0.001047295              -0.001249342               0.002763228               0.001513886               0.000000000               0.000000000               0.000000000               0.000000000              -0.000735845               0.006834793              -0.000916394              -0.001130288               0.002655004               0.001524716               0.000000000               0.000000000               0.000000000               0.000000000              -0.000528067               0.006585271              -0.000794688              -0.001021182               0.002535462               0.001514280               0.000000000               0.000000000               0.000000000               0.000000000              -0.000355037               0.006315277              -0.000673505              -0.000922546               0.002412587               0.001490041               0.000000000               0.000000000               0.000000000               0.000000000              -0.000225896               0.006036930              -0.000548267              -0.000839325               0.002292065               0.001452740               0.000000000               0.000000000               0.000000000               0.000000000              -0.000147353               0.005774842              -0.000421036              -0.000777111               0.002183965               0.001406854               0.000000000               0.000000000               0.000000000               0.000000000              -0.000123264               0.005540003              -0.000295503              -0.000738723               0.002092890               0.001354167               0.000000000               0.000000000               0.000000000               0.000000000              -0.000148837               0.005339526              -0.000177804              -0.000723253               0.002020908               0.001297656               0.000000000               0.000000000               0.000000000               0.000000000              -0.000217714               0.005161013              -0.000074988              -0.000726768               0.001962576               0.001235809               0.000000000               0.000000000               0.000000000               0.000000000              -0.000279327               0.005061231              -0.000022561              -0.000737400               0.001932860               0.001195460               0.000000000               0.000000000               0.000000000               0.000000000              -0.002857397               0.001555900              -0.000477685              -0.001266009               0.000940630              -0.000325379               0.000000000               0.000000000               0.000000000               0.000000000              -0.002434768               0.003222158              -0.001458698              -0.001315805               0.001512643               0.000196838               0.000000000               0.000000000               0.000000000               0.000000000              -0.002422786               0.004946459              -0.002193887              -0.001526849               0.002157752               0.000630903               0.000000000               0.000000000               0.000000000               0.000000000              -0.002168024               0.005842032              -0.002165182              -0.001543260               0.002461744               0.000918484               0.000000000               0.000000000               0.000000000               0.000000000              -0.001845918               0.006318887              -0.001952942              -0.001482077               0.002600300               0.001118223               0.000000000               0.000000000               0.000000000               0.000000000              -0.001515710               0.006578624              -0.001722173              -0.001390716               0.002656425               0.001265708               0.000000000               0.000000000               0.000000000               0.000000000              -0.001213626               0.006681264              -0.001512860              -0.001290265               0.002657154               0.001366889               0.000000000               0.000000000               0.000000000               0.000000000              -0.000942557               0.006667763              -0.001336497              -0.001186927               0.002618208               0.001431281               0.000000000               0.000000000               0.000000000               0.000000000              -0.000698637               0.006572881              -0.001182327              -0.001083597               0.002552137               0.001468541               0.000000000               0.000000000               0.000000000               0.000000000              -0.000483845               0.006421350              -0.001037629              -0.000984109               0.002468465               0.001484356               0.000000000               0.000000000               0.000000000               0.000000000              -0.000298495               0.006229944              -0.000897118              -0.000890677               0.002373519               0.001482843               0.000000000               0.000000000               0.000000000               0.000000000              -0.000144948               0.006005198              -0.000756714              -0.000805003               0.002270047               0.001465044               0.000000000               0.000000000               0.000000000               0.000000000              -0.000028634               0.005768823              -0.000616168              -0.000731839               0.002166868               0.001435029               0.000000000               0.000000000               0.000000000               0.000000000               0.000037425               0.005541427              -0.000469659              -0.000678642               0.002073338               0.001394695               0.000000000               0.000000000               0.000000000               0.000000000               0.000037870               0.005339132              -0.000314008              -0.000653189               0.001997422               0.001344234               0.000000000               0.000000000               0.000000000               0.000000000              -0.000036834               0.005159753              -0.000153855              -0.000658780               0.001939494               0.001280714               0.000000000               0.000000000               0.000000000               0.000000000              -0.000121246               0.005058065              -0.000064604              -0.000677724               0.001911913               0.001234189               0.000000000               0.000000000               0.000000000               0.000000000              -0.004354218               0.000584644               0.000066993              -0.001705910               0.000763513              -0.000942397               0.000000000               0.000000000               0.000000000               0.000000000              -0.003144951               0.002075440              -0.001118380              -0.001438784               0.001171400              -0.000267385               0.000000000               0.000000000               0.000000000               0.000000000              -0.002503289               0.003601876              -0.002095468              -0.001388965               0.001663601               0.000274635               0.000000000               0.000000000               0.000000000               0.000000000              -0.002046808               0.004602066              -0.002217988              -0.001342809               0.001981609               0.000638800               0.000000000               0.000000000               0.000000000               0.000000000              -0.001667997               0.005266316              -0.002082681              -0.001283786               0.002183349               0.000899563               0.000000000               0.000000000               0.000000000               0.000000000              -0.001336091               0.005711842              -0.001884657              -0.001215012               0.002308932               0.001093920               0.000000000               0.000000000               0.000000000               0.000000000              -0.001046925               0.005973845              -0.001688934              -0.001139326               0.002371037               0.001231711               0.000000000               0.000000000               0.000000000               0.000000000              -0.000791102               0.006104327              -0.001514681              -0.001059702               0.002387989               0.001328287               0.000000000               0.000000000               0.000000000               0.000000000              -0.000559214               0.006139579              -0.001355559              -0.000977151               0.002372223               0.001395072               0.000000000               0.000000000               0.000000000               0.000000000              -0.000346301               0.006101483              -0.001204053              -0.000892547               0.002331323               0.001438776               0.000000000               0.000000000               0.000000000               0.000000000              -0.000155263               0.006010638              -0.001056868              -0.000809552               0.002273376               0.001463825               0.000000000               0.000000000               0.000000000               0.000000000               0.000019566               0.005874632              -0.000915904              -0.000726990               0.002200521               0.001473531               0.000000000               0.000000000               0.000000000               0.000000000               0.000178680               0.005703484              -0.000774670              -0.000645929               0.002116452               0.001470523               0.000000000               0.000000000               0.000000000               0.000000000               0.000306223               0.005517857              -0.000615909              -0.000574897               0.002030900               0.001456002               0.000000000               0.000000000               0.000000000               0.000000000               0.000378172               0.005333915              -0.000432134              -0.000524924               0.001952928               0.001428005               0.000000000               0.000000000               0.000000000               0.000000000               0.000376743               0.005161622              -0.000225836              -0.000503923               0.001888498               0.001384575               0.000000000               0.000000000               0.000000000               0.000000000               0.000337730               0.005069925              -0.000111957              -0.000507091               0.001858988               0.001351897               0.000000000               0.000000000               0.000000000               0.000000000              -0.005800862              -0.000055166               0.000387827              -0.002168426               0.000704415              -0.001464010               0.000000000               0.000000000               0.000000000               0.000000000              -0.003861242               0.001143237              -0.000775341              -0.001590868               0.000911362              -0.000679506               0.000000000               0.000000000               0.000000000               0.000000000              -0.002578098               0.002358723              -0.001788236              -0.001261625               0.001206773              -0.000054852               0.000000000               0.000000000               0.000000000               0.000000000              -0.001875912               0.003365322              -0.002005290              -0.001124131               0.001496472               0.000372341               0.000000000               0.000000000               0.000000000               0.000000000              -0.001412475               0.004149157              -0.001946546              -0.001048321               0.001732478               0.000684157               0.000000000               0.000000000               0.000000000               0.000000000              -0.001062627               0.004738995              -0.001801574              -0.000990858               0.001909935               0.000919076               0.000000000               0.000000000               0.000000000               0.000000000              -0.000778907               0.005143588              -0.001641697              -0.000935037               0.002026191               0.001091154               0.000000000               0.000000000               0.000000000               0.000000000              -0.000537758               0.005405827              -0.001490652              -0.000877386               0.002094386               0.001217000               0.000000000               0.000000000               0.000000000               0.000000000              -0.000323128               0.005562599              -0.001347647              -0.000816496               0.002126346               0.001309850               0.000000000               0.000000000               0.000000000               0.000000000              -0.000120127               0.005644601              -0.001206891              -0.000750621               0.002131722               0.001381101               0.000000000               0.000000000               0.000000000               0.000000000               0.000078405               0.005662438              -0.001072742              -0.000678402               0.002113594               0.001435192               0.000000000               0.000000000               0.000000000               0.000000000               0.000275153               0.005623831              -0.000949561              -0.000599796               0.002074523               0.001474728               0.000000000               0.000000000               0.000000000               0.000000000               0.000470549               0.005544963              -0.000822814              -0.000516664               0.002020524               0.001503860               0.000000000               0.000000000               0.000000000               0.000000000               0.000658945               0.005434838              -0.000669647              -0.000432250               0.001955678               0.001523428               0.000000000               0.000000000               0.000000000               0.000000000               0.000828496               0.005300888              -0.000482909              -0.000351924               0.001884253               0.001532329               0.000000000               0.000000000               0.000000000               0.000000000               0.000960922               0.005153998              -0.000259896              -0.000283903               0.001812617               0.001528713               0.000000000               0.000000000               0.000000000               0.000000000               0.001032745               0.005085822              -0.000141218              -0.000248448               0.001778073               0.001529625               0.000000000               0.000000000               0.000000000               0.000000000              -0.007015243              -0.000422119               0.000454573              -0.002577949               0.000718605              -0.001859344               0.000000000               0.000000000               0.000000000               0.000000000              -0.004488213               0.000465989              -0.000468330              -0.001741327               0.000735767              -0.001005560               0.000000000               0.000000000               0.000000000               0.000000000              -0.002653760               0.001351750              -0.001301069              -0.001164127               0.000838619              -0.000325508               0.000000000               0.000000000               0.000000000               0.000000000              -0.001710616               0.002301218              -0.001524628              -0.000929132               0.001076775               0.000147643               0.000000000               0.000000000               0.000000000               0.000000000              -0.001146859               0.003140423              -0.001517774              -0.000822624               0.001321004               0.000498381               0.000000000               0.000000000               0.000000000               0.000000000              -0.000763371               0.003823851              -0.001430467              -0.000764244               0.001529352               0.000765107               0.000000000               0.000000000               0.000000000               0.000000000              -0.000478945               0.004332315              -0.001320944              -0.000721143               0.001684471               0.000963328               0.000000000               0.000000000               0.000000000               0.000000000              -0.000248190               0.004701517              -0.001209203              -0.000680760               0.001794076               0.001113317               0.000000000               0.000000000               0.000000000               0.000000000              -0.000046976               0.004964342              -0.001098755              -0.000638158               0.001867483               0.001229325               0.000000000               0.000000000               0.000000000               0.000000000               0.000146227               0.005146845              -0.000990887              -0.000588520               0.001911771               0.001323251               0.000000000               0.000000000               0.000000000               0.000000000               0.000347896               0.005261666              -0.000891389              -0.000527246               0.001929620               0.001402374               0.000000000               0.000000000               0.000000000               0.000000000               0.000561637               0.005319741              -0.000799394              -0.000454353               0.001924680               0.001470327               0.000000000               0.000000000               0.000000000               0.000000000               0.000785986               0.005331704              -0.000701568              -0.000371718               0.001901123               0.001529405               0.000000000               0.000000000               0.000000000               0.000000000               0.001026318               0.005302210              -0.000580958              -0.000277906               0.001860021               0.001582115               0.000000000               0.000000000               0.000000000               0.000000000               0.001288555               0.005234630              -0.000426830              -0.000171120               0.001801899               0.001630779               0.000000000               0.000000000               0.000000000               0.000000000               0.001567482               0.005130537              -0.000231728              -0.000053512               0.001727999               0.001674487               0.000000000               0.000000000               0.000000000               0.000000000               0.001775129               0.005095025              -0.000131789               0.000028795               0.001688727               0.001717521               0.000000000               0.000000000               0.000000000               0.000000000              -0.007829605              -0.000593042               0.000293647              -0.002861970               0.000756304              -0.002105666               0.000000000               0.000000000               0.000000000               0.000000000              -0.004920715               0.000062610              -0.000214367              -0.001853093               0.000638563              -0.001214530               0.000000000               0.000000000               0.000000000               0.000000000              -0.002711650               0.000699141              -0.000682298              -0.001104260               0.000601129              -0.000503131               0.000000000               0.000000000               0.000000000               0.000000000              -0.001593800               0.001579049              -0.000823432              -0.000795055               0.000791362              -0.000003693               0.000000000               0.000000000               0.000000000               0.000000000              -0.000947654               0.002430524              -0.000833925              -0.000659184               0.001029894               0.000370710               0.000000000               0.000000000               0.000000000               0.000000000              -0.000530562               0.003161153              -0.000795739              -0.000594104               0.001251742               0.000657638               0.000000000               0.000000000               0.000000000               0.000000000              -0.000242396               0.003733149              -0.000741397              -0.000557541               0.001430217               0.000872676               0.000000000               0.000000000               0.000000000               0.000000000              -0.000020471               0.004171029              -0.000681557              -0.000529054               0.001566680               0.001037626               0.000000000               0.000000000               0.000000000               0.000000000               0.000172763               0.004503139              -0.000620470              -0.000498105               0.001667066               0.001168961               0.000000000               0.000000000               0.000000000               0.000000000               0.000365097               0.004757097              -0.000561860              -0.000457725               0.001738258               0.001280533               0.000000000               0.000000000               0.000000000               0.000000000               0.000566924               0.004942760              -0.000509680              -0.000405248               0.001782653               0.001377405               0.000000000               0.000000000               0.000000000               0.000000000               0.000785191               0.005071032              -0.000460615              -0.000339432               0.001803471               0.001464039               0.000000000               0.000000000               0.000000000               0.000000000               0.001027654               0.005150421              -0.000406647              -0.000258432               0.001802934               0.001544502               0.000000000               0.000000000               0.000000000               0.000000000               0.001305812               0.005181303              -0.000340215              -0.000157983               0.001779745               0.001621762               0.000000000               0.000000000               0.000000000               0.000000000               0.001634597               0.005163745              -0.000252269              -0.000032494               0.001732062               0.001699568               0.000000000               0.000000000               0.000000000               0.000000000               0.002029458               0.005097930              -0.000138092               0.000123804               0.001658025               0.001781829               0.000000000               0.000000000               0.000000000               0.000000000               0.002348258               0.005091337              -0.000081489               0.000244177               0.001615703               0.001859880               0.000000000               0.000000000               0.000000000               0.000000000               0.000000000               0.000000000               0.000000000               0.000000000               0.000000000               0.000000000               0.000000000               0.000000000               0.000000000               0.000000000               0.000000000               0.000000000               0.000000000               0.000000000               0.000000000               0.000000000               0.000000000               0.000000000               0.000000000               0.000000000               0.000000000               0.000000000               0.000000000               0.000000000               0.000000000               0.000000000               0.000000000               0.000000000               0.000000000               0.000000000               0.000000000               0.000000000               0.000000000               0.000000000               0.000000000               0.000000000               0.000000000               0.000000000               0.000000000               0.000000000               0.000000000               0.000000000               0.000000000               0.000000000               0.000000000               0.000000000               0.000000000               0.000000000               0.000000000               0.000000000               0.000000000               0.000000000               0.000000000               0.000000000               0.000000000               0.000000000               0.000000000               0.000000000               0.000000000               0.000000000               0.000000000               0.000000000               0.000000000               0.000000000               0.000000000               0.000000000               0.000000000               0.000000000               0.000000000               0.000000000               0.000000000               0.000000000               0.000000000               0.000000000               0.000000000               0.000000000               0.000000000               0.000000000               0.000000000               0.000000000               0.000000000               0.000000000               0.000000000               0.000000000               0.000000000               0.000000000               0.000000000               0.000000000               0.000000000               0.000000000               0.000000000               0.000000000               0.000000000               0.000000000               0.000000000               0.000000000               0.000000000               0.000000000               0.000000000               0.000000000               0.000000000               0.000000000               0.000000000               0.000000000               0.000000000               0.000000000               0.000000000               0.000000000               0.000000000               0.000000000               0.000000000               0.000000000               0.000000000               0.000000000               0.000000000               0.000000000               0.000000000               0.000000000               0.000000000               0.000000000               0.000000000               0.000000000               0.000000000               0.000000000               0.000000000               0.000000000               0.000000000               0.000000000               0.000000000               0.000000000               0.000000000               0.000000000               0.000000000               0.000000000               0.000000000               0.000000000               0.000000000               0.000000000               0.000000000               0.000000000               0.000000000               0.000000000               0.000000000               0.000000000               0.000000000               0.000000000               0.000000000               0.000000000               0.000000000               0.000000000               0.000000000               0.000000000               0.000000000               0.000000000               0.000000000               0.000000000               0.000000000               0.000000000               0.000000000               0.000000000               0.000000000               0.000000000               0.000000000               0.000000000               0.000000000               0.000000000               0.000000000               0.000000000               0.000000000               0.000000000               0.000000000               0.000000000               0.000000000               0.000000000               0.000000000               0.000000000               0.000000000               0.000000000               0.000000000               0.000000000               0.000000000               0.000000000               0.000000000               0.000000000               0.000000000               0.000000000               0.000000000               0.000000000               0.000000000               0.000000000               0.000000000               0.000000000               0.000000000               0.000000000               0.000000000               0.000000000               0.000000000               0.000000000               0.000000000               0.000000000               0.000000000               0.000000000               0.000000000               0.000000000               0.000000000               0.000000000               0.000000000               0.000000000               0.000000000               0.000000000               0.000000000               0.000000000               0.000000000               0.000000000               0.000000000               0.000000000               0.000000000               0.000000000               0.000000000               0.000000000               0.000000000               0.000000000               0.000000000               0.000000000               0.000000000               0.000000000               0.000000000               0.000000000               0.000000000               0.000000000               0.000000000               0.000000000               0.000000000               0.000000000               0.000000000               0.000000000               0.000000000               0.000000000               0.000000000               0.000000000               0.000000000               0.000000000               0.000000000               0.000000000               0.000000000               0.000000000               0.000000000               0.000000000               0.000000000               0.000000000               0.000000000               0.000000000               0.000000000               0.000000000               0.000000000               0.000000000               0.000000000               0.000000000               0.000000000               0.000000000               0.000000000               0.000000000               0.000000000               0.000000000               0.000000000               0.000000000               0.000000000               0.000000000               0.000000000               0.000000000               0.000000000               0.000000000               0.000000000               0.000000000               0.000000000               0.000000000               0.000000000               0.000000000               0.000000000               0.000000000               0.000000000               0.000000000               0.000000000               0.000000000               0.000000000               0.000000000               0.000000000               0.000000000               0.000000000               0.000000000               0.000000000               0.000000000               0.000000000               0.000000000               0.000000000               0.000000000               0.000000000               0.000000000               0.000000000               0.000000000               0.000000000               0.000000000               0.000000000               0.000000000               0.000000000               0.000000000               0.000000000               0.000000000               0.000000000               0.000000000               0.000000000               0.000000000               0.000000000               0.000000000               0.000000000               0.000000000               0.000000000               0.000000000               0.000000000               0.000000000               0.000000000               0.000000000               0.000000000               0.000000000               0.000000000               0.000000000               0.000000000               0.000000000               0.000000000               0.000000000               0.000000000               0.000000000               0.000000000               0.000000000               0.000000000               0.000000000               0.000000000               0.000000000               0.000000000               0.000000000               0.001950396               0.020342786               0.001431582              -0.001811445               0.007384676               0.005573230               0.000000000               0.000000000               0.000000000               0.000000000               0.001854204               0.016123232               0.000744002              -0.001320074               0.005814382               0.004494307               0.000000000               0.000000000               0.000000000               0.000000000               0.002355910               0.012751098               0.000059419              -0.000710419               0.004487130               0.003776711               0.000000000               0.000000000               0.000000000               0.000000000               0.002243149               0.010860276              -0.000228837              -0.000516352               0.003792173               0.003275821               0.000000000               0.000000000               0.000000000               0.000000000               0.001953196               0.009681043              -0.000349504              -0.000477681               0.003386209               0.002908528               0.000000000               0.000000000               0.000000000               0.000000000               0.001631245               0.008877850              -0.000393008              -0.000498013               0.003125258               0.002627245               0.000000000               0.000000000               0.000000000               0.000000000               0.001331662               0.008286044              -0.000399401              -0.000536381               0.002940781               0.002404400               0.000000000               0.000000000               0.000000000               0.000000000               0.001067999               0.007819116              -0.000393085              -0.000576889               0.002798642               0.002221754               0.000000000               0.000000000               0.000000000               0.000000000               0.000838397               0.007422920              -0.000378179              -0.000613465               0.002678770               0.002065305               0.000000000               0.000000000               0.000000000               0.000000000               0.000642845               0.007065672              -0.000357951              -0.000642141               0.002569247               0.001927107               0.000000000               0.000000000               0.000000000               0.000000000               0.000481304               0.006729000              -0.000336354              -0.000660634               0.002463189               0.001802555               0.000000000               0.000000000               0.000000000               0.000000000               0.000348908               0.006399773              -0.000312288              -0.000669129               0.002356279               0.001687150               0.000000000               0.000000000               0.000000000               0.000000000               0.000239155               0.006066403              -0.000286139              -0.000668616               0.002244986               0.001576370               0.000000000               0.000000000               0.000000000               0.000000000               0.000145658               0.005717123              -0.000251813              -0.000660017               0.002125694               0.001465677               0.000000000               0.000000000               0.000000000               0.000000000               0.000072700               0.005340679              -0.000196972              -0.000640321               0.001993649               0.001353328               0.000000000               0.000000000               0.000000000               0.000000000               0.000027828               0.004924053              -0.000112955              -0.000605070               0.001843024               0.001237955               0.000000000               0.000000000               0.000000000               0.000000000              -0.000018897               0.004614291              -0.000068936              -0.000583871               0.001732705               0.001148834               0.000000000               0.000000000               0.000000000               0.000000000               0.002140569               0.019155765               0.002672566              -0.001591754               0.006915776               0.005324021               0.000000000               0.000000000               0.000000000               0.000000000               0.001764590               0.015352953               0.001390599              -0.001257395               0.005536732               0.004279336               0.000000000               0.000000000               0.000000000               0.000000000               0.001969555               0.012420244               0.000126571              -0.000813945               0.004411355               0.003597410               0.000000000               0.000000000               0.000000000               0.000000000               0.001748217               0.010752765              -0.000389355              -0.000688513               0.003813723               0.003125211               0.000000000               0.000000000               0.000000000               0.000000000               0.001441022               0.009686776              -0.000596925              -0.000670462               0.003452381               0.002781918               0.000000000               0.000000000               0.000000000               0.000000000               0.001143667               0.008934859              -0.000669022              -0.000687981               0.003207583               0.002519603               0.000000000               0.000000000               0.000000000               0.000000000               0.000889110               0.008366807              -0.000680615              -0.000712433               0.003026385               0.002313952               0.000000000               0.000000000               0.000000000               0.000000000               0.000677777               0.007909128              -0.000666541              -0.000734473               0.002881174               0.002146701               0.000000000               0.000000000               0.000000000               0.000000000               0.000501080               0.007513496              -0.000636612              -0.000751280               0.002754900               0.002003620               0.000000000               0.000000000               0.000000000               0.000000000               0.000359601               0.007154346              -0.000598864              -0.000759441               0.002637905               0.001878464               0.000000000               0.000000000               0.000000000               0.000000000               0.000248563               0.006817943              -0.000558375              -0.000759030               0.002525635               0.001766605               0.000000000               0.000000000               0.000000000               0.000000000               0.000161274               0.006496611              -0.000514615              -0.000751597               0.002416048               0.001664451               0.000000000               0.000000000               0.000000000               0.000000000               0.000095622               0.006185571              -0.000463771              -0.000737336               0.002307615               0.001570279               0.000000000               0.000000000               0.000000000               0.000000000               0.000048045               0.005877489              -0.000397844              -0.000716668               0.002198033               0.001481365               0.000000000               0.000000000               0.000000000               0.000000000               0.000019905               0.005570889              -0.000301782              -0.000688895               0.002086576               0.001397681               0.000000000               0.000000000               0.000000000               0.000000000               0.000005980               0.005268957              -0.000168126              -0.000656376               0.001975093               0.001318718               0.000000000               0.000000000               0.000000000               0.000000000              -0.000016947               0.005069954              -0.000098861              -0.000640098               0.001903334               0.001263236               0.000000000               0.000000000               0.000000000               0.000000000               0.002344242               0.017348006               0.003567891              -0.001289409               0.006212413               0.004923004               0.000000000               0.000000000               0.000000000               0.000000000               0.001578433               0.014197639               0.001866352              -0.001182791               0.005126762               0.003943972               0.000000000               0.000000000               0.000000000               0.000000000               0.001372319               0.011918448               0.000209781              -0.000975184               0.004297838               0.003322654               0.000000000               0.000000000               0.000000000               0.000000000               0.001026704               0.010566036              -0.000433623              -0.000935738               0.003833890               0.002898151               0.000000000               0.000000000               0.000000000               0.000000000               0.000717223               0.009653101              -0.000679467              -0.000937677               0.003530227               0.002592550               0.000000000               0.000000000               0.000000000               0.000000000               0.000475270               0.008974710              -0.000759797              -0.000943611               0.003306077               0.002362466               0.000000000               0.000000000               0.000000000               0.000000000               0.000297153               0.008436610              -0.000770058              -0.000943142               0.003126556               0.002183414               0.000000000               0.000000000               0.000000000               0.000000000               0.000164950               0.007985255              -0.000750291              -0.000936299               0.002973824               0.002037526               0.000000000               0.000000000               0.000000000               0.000000000               0.000067485               0.007591054              -0.000710344              -0.000923573               0.002838184               0.001914611               0.000000000               0.000000000               0.000000000               0.000000000              -0.000000427               0.007232386              -0.000660334              -0.000904206               0.002712173               0.001807967               0.000000000               0.000000000               0.000000000               0.000000000              -0.000041173               0.006903579              -0.000608130              -0.000878385               0.002593965               0.001715580               0.000000000               0.000000000               0.000000000               0.000000000              -0.000058475               0.006602518              -0.000553274              -0.000847241               0.002483231               0.001635990               0.000000000               0.000000000               0.000000000               0.000000000              -0.000058648               0.006327485              -0.000490503              -0.000812927               0.002380116               0.001567190               0.000000000               0.000000000               0.000000000               0.000000000              -0.000048668               0.006077837              -0.000409812              -0.000777978               0.002285252               0.001507273               0.000000000               0.000000000               0.000000000               0.000000000              -0.000034610               0.005860045              -0.000299842              -0.000745483               0.002201823               0.001456340               0.000000000               0.000000000               0.000000000               0.000000000              -0.000018529               0.005689940              -0.000160631              -0.000718189               0.002136024               0.001417835               0.000000000               0.000000000               0.000000000               0.000000000              -0.000014967               0.005603976              -0.000087963              -0.000706108               0.002103343               0.001397235               0.000000000               0.000000000               0.000000000               0.000000000               0.002442363               0.015125775               0.004047866              -0.000974837               0.005366819               0.004391983               0.000000000               0.000000000               0.000000000               0.000000000               0.001273468               0.012801554               0.002153736              -0.001122642               0.004641356               0.003518713               0.000000000               0.000000000               0.000000000               0.000000000               0.000637558               0.011301840               0.000330835              -0.001173643               0.004158456               0.002984814               0.000000000               0.000000000               0.000000000               0.000000000               0.000206410               0.010294967              -0.000337374              -0.001209464               0.003834776               0.002625312               0.000000000               0.000000000               0.000000000               0.000000000              -0.000063899               0.009543205              -0.000579423              -0.001216860               0.003586656               0.002369797               0.000000000               0.000000000               0.000000000               0.000000000              -0.000219188               0.008940613              -0.000654343              -0.001199769               0.003380097               0.002180328               0.000000000               0.000000000               0.000000000               0.000000000              -0.000300012               0.008435250              -0.000661690              -0.001166908               0.003200691               0.002033783               0.000000000               0.000000000               0.000000000               0.000000000              -0.000334630               0.007997946              -0.000642093              -0.001125227               0.003041031               0.001915804               0.000000000               0.000000000               0.000000000               0.000000000              -0.000337844               0.007608061              -0.000604141              -0.001077697               0.002895227               0.001817531               0.000000000               0.000000000               0.000000000               0.000000000              -0.000316819               0.007259825              -0.000553900              -0.001026283               0.002762012               0.001735729               0.000000000               0.000000000               0.000000000               0.000000000              -0.000279623               0.006950653              -0.000501944              -0.000973688               0.002641424               0.001667736               0.000000000               0.000000000               0.000000000               0.000000000              -0.000226731               0.006678980              -0.000446267              -0.000919894               0.002532936               0.001613041               0.000000000               0.000000000               0.000000000               0.000000000              -0.000166386               0.006439984              -0.000383168              -0.000867391               0.002435770               0.001568380               0.000000000               0.000000000               0.000000000               0.000000000              -0.000110325               0.006239857              -0.000307272              -0.000821352               0.002353715               0.001532364               0.000000000               0.000000000               0.000000000               0.000000000              -0.000061783               0.006090961              -0.000214729              -0.000784537               0.002291812               0.001507276               0.000000000               0.000000000               0.000000000               0.000000000              -0.000025239               0.005999655              -0.000108833              -0.000759420               0.002253005               0.001493585               0.000000000               0.000000000               0.000000000               0.000000000              -0.000012200               0.005966099              -0.000055015              -0.000750335               0.002238792               0.001488456               0.000000000               0.000000000               0.000000000               0.000000000               0.002331241               0.012716073               0.004116355              -0.000715296               0.004477080               0.003761784               0.000000000               0.000000000               0.000000000               0.000000000               0.000846086               0.011309914               0.002272648              -0.001096456               0.004135419               0.003038963               0.000000000               0.000000000               0.000000000               0.000000000              -0.000141863               0.010615801               0.000511216              -0.001380170               0.003998622               0.002618451               0.000000000               0.000000000               0.000000000               0.000000000              -0.000581410               0.009932885              -0.000104325              -0.001459636               0.003797474               0.002337838               0.000000000               0.000000000               0.000000000               0.000000000              -0.000761239               0.009328275              -0.000324332              -0.001451495               0.003593226               0.002141730               0.000000000               0.000000000               0.000000000               0.000000000              -0.000804274               0.008803576              -0.000393689              -0.001402046               0.003401845               0.001999798               0.000000000               0.000000000               0.000000000               0.000000000              -0.000774218               0.008339010              -0.000408791              -0.001332705               0.003223877               0.001891173               0.000000000               0.000000000               0.000000000               0.000000000              -0.000704592               0.007927489              -0.000401533              -0.001255155               0.003060855               0.001805700               0.000000000               0.000000000               0.000000000               0.000000000              -0.000618349               0.007556855              -0.000375555              -0.001176485               0.002911088               0.001734603               0.000000000               0.000000000               0.000000000               0.000000000              -0.000520960               0.007228962              -0.000338388              -0.001098978               0.002775956               0.001676978               0.000000000               0.000000000               0.000000000               0.000000000              -0.000418297               0.006937869              -0.000299471              -0.001024093               0.002653964               0.001629872               0.000000000               0.000000000               0.000000000               0.000000000              -0.000317106               0.006678717              -0.000256578              -0.000953752               0.002544134               0.001590382               0.000000000               0.000000000               0.000000000               0.000000000              -0.000222793               0.006455048              -0.000210680              -0.000890426               0.002448470               0.001558044               0.000000000               0.000000000               0.000000000               0.000000000              -0.000142602               0.006276316              -0.000164289              -0.000838013               0.002371422               0.001533409               0.000000000               0.000000000               0.000000000               0.000000000              -0.000080973               0.006144175              -0.000112049              -0.000798385               0.002314166               0.001515781               0.000000000               0.000000000               0.000000000               0.000000000              -0.000034087               0.006051304              -0.000054598              -0.000769194               0.002273479               0.001504285               0.000000000               0.000000000               0.000000000               0.000000000              -0.000023383               0.005998605              -0.000032012              -0.000758592               0.002252379               0.001493787               0.000000000               0.000000000               0.000000000               0.000000000               0.001959019               0.010319970               0.003838765              -0.000555366               0.003625077               0.003069710               0.000000000               0.000000000               0.000000000               0.000000000               0.000318630               0.009839425               0.002269544              -0.001110441               0.003649922               0.002539481               0.000000000               0.000000000               0.000000000               0.000000000              -0.000876273               0.009895864               0.000759011              -0.001565582               0.003820449               0.002254867               0.000000000               0.000000000               0.000000000               0.000000000              -0.001232324               0.009491774               0.000232394              -0.001648589               0.003713423               0.002064833               0.000000000               0.000000000               0.000000000               0.000000000              -0.001278368               0.009015396               0.000026202              -0.001606309               0.003540538               0.001934230               0.000000000               0.000000000               0.000000000               0.000000000              -0.001196808               0.008562699              -0.000055640              -0.001519137               0.003360583               0.001841447               0.000000000               0.000000000               0.000000000               0.000000000              -0.001059166               0.008147248              -0.000090166              -0.001415590               0.003187586               0.001771996               0.000000000               0.000000000               0.000000000               0.000000000              -0.000902024               0.007773652              -0.000103875              -0.001309962               0.003027846               0.001717883               0.000000000               0.000000000               0.000000000               0.000000000              -0.000743041               0.007431985              -0.000099942              -0.001207635               0.002879849               0.001672213               0.000000000               0.000000000               0.000000000               0.000000000              -0.000590033               0.007112150              -0.000087578              -0.001110278               0.002740786               0.001630507               0.000000000               0.000000000               0.000000000               0.000000000              -0.000452042               0.006814081              -0.000073742              -0.001021273               0.002611762               0.001590489               0.000000000               0.000000000               0.000000000               0.000000000              -0.000334220               0.006545678              -0.000060734              -0.000943540               0.002496384               0.001552844               0.000000000               0.000000000               0.000000000               0.000000000              -0.000238051               0.006319222              -0.000052611              -0.000879170               0.002399443               0.001520273               0.000000000               0.000000000               0.000000000               0.000000000              -0.000162038               0.006137511              -0.000050221              -0.000827951               0.002321800               0.001493849               0.000000000               0.000000000               0.000000000               0.000000000              -0.000100485               0.005990343              -0.000044879              -0.000786473               0.002258919               0.001472446               0.000000000               0.000000000               0.000000000               0.000000000              -0.000047912               0.005864900              -0.000028793              -0.000751078               0.002205306               0.001454229               0.000000000               0.000000000               0.000000000               0.000000000              -0.000042436               0.005777862              -0.000028849              -0.000738144               0.002171983               0.001433838               0.000000000               0.000000000               0.000000000               0.000000000               0.001353638               0.008094670               0.003307944              -0.000504222               0.002866269               0.002362047               0.000000000               0.000000000               0.000000000               0.000000000              -0.000266993               0.008482912               0.002188803              -0.001160485               0.003214437               0.002053952               0.000000000               0.000000000               0.000000000               0.000000000              -0.001487725               0.009166976               0.001062749              -0.001703765               0.003623550               0.001919785               0.000000000               0.000000000               0.000000000               0.000000000              -0.001688423               0.008990153               0.000620331              -0.001756924               0.003582329               0.001825405               0.000000000               0.000000000               0.000000000               0.000000000              -0.001583124               0.008630219               0.000405870              -0.001672445               0.003434192               0.001761748               0.000000000               0.000000000               0.000000000               0.000000000              -0.001383989               0.008246324               0.000291387              -0.001549783               0.003265342               0.001715559               0.000000000               0.000000000               0.000000000               0.000000000              -0.001156064               0.007888419               0.000225993              -0.001419573               0.003102637               0.001683065               0.000000000               0.000000000               0.000000000               0.000000000              -0.000931821               0.007549652               0.000181976              -0.001293136               0.002947571               0.001654435               0.000000000               0.000000000               0.000000000               0.000000000              -0.000728899               0.007210826               0.000156913              -0.001174688               0.002795147               0.001620460               0.000000000               0.000000000               0.000000000               0.000000000              -0.000556785               0.006875945               0.000139667              -0.001068285               0.002648054               0.001579769               0.000000000               0.000000000               0.000000000               0.000000000              -0.000414243               0.006562641               0.000115994              -0.000975669               0.002512748               0.001537079               0.000000000               0.000000000               0.000000000               0.000000000              -0.000304241               0.006288404               0.000084306              -0.000900139               0.002396160               0.001496021               0.000000000               0.000000000               0.000000000               0.000000000              -0.000222576               0.006059989               0.000044850              -0.000840962               0.002300297               0.001459334               0.000000000               0.000000000               0.000000000               0.000000000              -0.000159328               0.005868301               0.000003558              -0.000793284               0.002220509               0.001427225               0.000000000               0.000000000               0.000000000               0.000000000              -0.000104646               0.005702131              -0.000023921              -0.000752007               0.002151360               0.001399354               0.000000000               0.000000000               0.000000000               0.000000000              -0.000054054               0.005556436              -0.000027018              -0.000714823               0.002090401               0.001375578               0.000000000               0.000000000               0.000000000               0.000000000              -0.000043002               0.005466181              -0.000030193              -0.000699397               0.002055174               0.001355778               0.000000000               0.000000000               0.000000000               0.000000000               0.000613771               0.006210021               0.002629711              -0.000546090               0.002252015               0.001705926               0.000000000               0.000000000               0.000000000               0.000000000              -0.000825824               0.007278344               0.002077581              -0.001219475               0.002832582               0.001613106               0.000000000               0.000000000               0.000000000               0.000000000              -0.001937688               0.008462767               0.001415941              -0.001784475               0.003415719               0.001631244               0.000000000               0.000000000               0.000000000               0.000000000              -0.001974818               0.008518395               0.001027673              -0.001805352               0.003441220               0.001635868               0.000000000               0.000000000               0.000000000               0.000000000              -0.001750068               0.008288657               0.000785692              -0.001692353               0.003326976               0.001634622               0.000000000               0.000000000               0.000000000               0.000000000              -0.001460227               0.007991929               0.000627240              -0.001546573               0.003179474               0.001632901               0.000000000               0.000000000               0.000000000               0.000000000              -0.001163009               0.007692763               0.000522442              -0.001397720               0.003030136               0.001632415               0.000000000               0.000000000               0.000000000               0.000000000              -0.000899044               0.007368955               0.000446725              -0.001258258               0.002875713               0.001617455               0.000000000               0.000000000               0.000000000               0.000000000              -0.000670612               0.007023978               0.000390108              -0.001129474               0.002717794               0.001588320               0.000000000               0.000000000               0.000000000               0.000000000              -0.000478558               0.006680178               0.000336679              -0.001014479               0.002564863               0.001550384               0.000000000               0.000000000               0.000000000               0.000000000              -0.000331635               0.006363512               0.000272155              -0.000919800               0.002427749               0.001507950               0.000000000               0.000000000               0.000000000               0.000000000              -0.000233743               0.006089451               0.000196310              -0.000848833               0.002312741               0.001463908               0.000000000               0.000000000               0.000000000               0.000000000              -0.000179318               0.005854138               0.000118750              -0.000799010               0.002217696               0.001418687               0.000000000               0.000000000               0.000000000               0.000000000              -0.000149186               0.005645095               0.000050482              -0.000761580               0.002135539               0.001373960               0.000000000               0.000000000               0.000000000               0.000000000              -0.000126131               0.005452903               0.000001144              -0.000728910               0.002060586               0.001331676               0.000000000               0.000000000               0.000000000               0.000000000              -0.000107583               0.005283384              -0.000019717              -0.000700765               0.001994699               0.001293934               0.000000000               0.000000000               0.000000000               0.000000000              -0.000096497               0.005198564              -0.000022839              -0.000686005               0.001961506               0.001275501               0.000000000               0.000000000               0.000000000               0.000000000              -0.000277290               0.004456949               0.001900020              -0.000661102               0.001706001               0.001044899               0.000000000               0.000000000               0.000000000               0.000000000              -0.001278253               0.005896818               0.001946924              -0.001216445               0.002371067               0.001154622               0.000000000               0.000000000               0.000000000               0.000000000              -0.002170217               0.007440165               0.001793192              -0.001743848               0.003061312               0.001317464               0.000000000               0.000000000               0.000000000               0.000000000              -0.002125380               0.007819327               0.001472081              -0.001774429               0.003197892               0.001423463               0.000000000               0.000000000               0.000000000               0.000000000              -0.001853624               0.007808701               0.001203103              -0.001671193               0.003159938               0.001488746               0.000000000               0.000000000               0.000000000               0.000000000              -0.001532510               0.007675751               0.000998822              -0.001534157               0.003069943               0.001535787               0.000000000               0.000000000               0.000000000               0.000000000              -0.001216398               0.007482964               0.000846914              -0.001391517               0.002958135               0.001566619               0.000000000               0.000000000               0.000000000               0.000000000              -0.000935805               0.007230849               0.000728723              -0.001254780               0.002828519               0.001573739               0.000000000               0.000000000               0.000000000               0.000000000              -0.000698548               0.006936201               0.000634175              -0.001128978               0.002688370               0.001559392               0.000000000               0.000000000               0.000000000               0.000000000              -0.000503609               0.006615467               0.000544850              -0.001015784               0.002543728               0.001527944               0.000000000               0.000000000               0.000000000               0.000000000              -0.000350523               0.006304453               0.000446878              -0.000919500               0.002407963               0.001488463               0.000000000               0.000000000               0.000000000               0.000000000              -0.000247735               0.006017907               0.000340475              -0.000845137               0.002287661               0.001442524               0.000000000               0.000000000               0.000000000               0.000000000              -0.000193022               0.005766463               0.000234580              -0.000793189               0.002186531               0.001393342               0.000000000               0.000000000               0.000000000               0.000000000              -0.000178158               0.005544457               0.000139951              -0.000759864               0.002101422               0.001341558               0.000000000               0.000000000               0.000000000               0.000000000              -0.000185644               0.005347980               0.000061267              -0.000738112               0.002028680               0.001290567               0.000000000               0.000000000               0.000000000               0.000000000              -0.000203644               0.005169638               0.000010654              -0.000722569               0.001964052               0.001241483               0.000000000               0.000000000               0.000000000               0.000000000              -0.000213539               0.005077816              -0.000005319              -0.000714803               0.001930856               0.001216054               0.000000000               0.000000000               0.000000000               0.000000000              -0.001461319               0.002869092               0.001163749              -0.000906630               0.001258564               0.000351934               0.000000000               0.000000000               0.000000000               0.000000000              -0.001797696               0.004518800               0.001747267              -0.001238984               0.001919246               0.000680262               0.000000000               0.000000000               0.000000000               0.000000000              -0.002319139               0.006262715               0.002085379              -0.001652513               0.002638388               0.000985875               0.000000000               0.000000000               0.000000000               0.000000000              -0.002201274               0.006944710               0.001893027              -0.001693563               0.002879401               0.001185838               0.000000000               0.000000000               0.000000000               0.000000000              -0.001909472               0.007185843               0.001629591              -0.001614279               0.002933350               0.001319071               0.000000000               0.000000000               0.000000000               0.000000000              -0.001579670               0.007245281               0.001395041              -0.001498033               0.002914414               0.001416381               0.000000000               0.000000000               0.000000000               0.000000000              -0.001267068               0.007187892               0.001202296              -0.001373634               0.002853818               0.001480184               0.000000000               0.000000000               0.000000000               0.000000000              -0.000984781               0.007040412               0.001047295              -0.001249342               0.002763228               0.001513886               0.000000000               0.000000000               0.000000000               0.000000000              -0.000735845               0.006834793               0.000916394              -0.001130288               0.002655004               0.001524716               0.000000000               0.000000000               0.000000000               0.000000000              -0.000528067               0.006585271               0.000794688              -0.001021182               0.002535462               0.001514280               0.000000000               0.000000000               0.000000000               0.000000000              -0.000355037               0.006315277               0.000673505              -0.000922546               0.002412587               0.001490041               0.000000000               0.000000000               0.000000000               0.000000000              -0.000225896               0.006036930               0.000548267              -0.000839325               0.002292065               0.001452740               0.000000000               0.000000000               0.000000000               0.000000000              -0.000147353               0.005774842               0.000421036              -0.000777111               0.002183965               0.001406854               0.000000000               0.000000000               0.000000000               0.000000000              -0.000123264               0.005540003               0.000295503              -0.000738723               0.002092890               0.001354167               0.000000000               0.000000000               0.000000000               0.000000000              -0.000148837               0.005339526               0.000177804              -0.000723253               0.002020908               0.001297656               0.000000000               0.000000000               0.000000000               0.000000000              -0.000217714               0.005161013               0.000074988              -0.000726768               0.001962576               0.001235809               0.000000000               0.000000000               0.000000000               0.000000000              -0.000279327               0.005061231               0.000022561              -0.000737400               0.001932860               0.001195460               0.000000000               0.000000000               0.000000000               0.000000000              -0.002857397               0.001555900               0.000477685              -0.001266009               0.000940630              -0.000325379               0.000000000               0.000000000               0.000000000               0.000000000              -0.002434768               0.003222158               0.001458698              -0.001315805               0.001512643               0.000196838               0.000000000               0.000000000               0.000000000               0.000000000              -0.002422786               0.004946459               0.002193887              -0.001526849               0.002157752               0.000630903               0.000000000               0.000000000               0.000000000               0.000000000              -0.002168024               0.005842032               0.002165182              -0.001543260               0.002461744               0.000918484               0.000000000               0.000000000               0.000000000               0.000000000              -0.001845918               0.006318887               0.001952942              -0.001482077               0.002600300               0.001118223               0.000000000               0.000000000               0.000000000               0.000000000              -0.001515710               0.006578624               0.001722173              -0.001390716               0.002656425               0.001265708               0.000000000               0.000000000               0.000000000               0.000000000              -0.001213626               0.006681264               0.001512860              -0.001290265               0.002657154               0.001366889               0.000000000               0.000000000               0.000000000               0.000000000              -0.000942557               0.006667763               0.001336497              -0.001186927               0.002618208               0.001431281               0.000000000               0.000000000               0.000000000               0.000000000              -0.000698637               0.006572881               0.001182327              -0.001083597               0.002552137               0.001468541               0.000000000               0.000000000               0.000000000               0.000000000              -0.000483845               0.006421350               0.001037629              -0.000984109               0.002468465               0.001484356               0.000000000               0.000000000               0.000000000               0.000000000              -0.000298495               0.006229944               0.000897118              -0.000890677               0.002373519               0.001482843               0.000000000               0.000000000               0.000000000               0.000000000              -0.000144948               0.006005198               0.000756714              -0.000805003               0.002270047               0.001465044               0.000000000               0.000000000               0.000000000               0.000000000              -0.000028634               0.005768823               0.000616168              -0.000731839               0.002166868               0.001435029               0.000000000               0.000000000               0.000000000               0.000000000               0.000037425               0.005541427               0.000469659              -0.000678642               0.002073338               0.001394695               0.000000000               0.000000000               0.000000000               0.000000000               0.000037870               0.005339132               0.000314008              -0.000653189               0.001997422               0.001344234               0.000000000               0.000000000               0.000000000               0.000000000              -0.000036834               0.005159753               0.000153855              -0.000658780               0.001939494               0.001280714               0.000000000               0.000000000               0.000000000               0.000000000              -0.000121246               0.005058065               0.000064604              -0.000677724               0.001911913               0.001234189               0.000000000               0.000000000               0.000000000               0.000000000              -0.004354218               0.000584644              -0.000066993              -0.001705910               0.000763513              -0.000942397               0.000000000               0.000000000               0.000000000               0.000000000              -0.003144951               0.002075440               0.001118380              -0.001438784               0.001171400              -0.000267385               0.000000000               0.000000000               0.000000000               0.000000000              -0.002503289               0.003601876               0.002095468              -0.001388965               0.001663601               0.000274635               0.000000000               0.000000000               0.000000000               0.000000000              -0.002046808               0.004602066               0.002217988              -0.001342809               0.001981609               0.000638800               0.000000000               0.000000000               0.000000000               0.000000000              -0.001667997               0.005266316               0.002082681              -0.001283786               0.002183349               0.000899563               0.000000000               0.000000000               0.000000000               0.000000000              -0.001336091               0.005711842               0.001884657              -0.001215012               0.002308932               0.001093920               0.000000000               0.000000000               0.000000000               0.000000000              -0.001046925               0.005973845               0.001688934              -0.001139326               0.002371037               0.001231711               0.000000000               0.000000000               0.000000000               0.000000000              -0.000791102               0.006104327               0.001514681              -0.001059702               0.002387989               0.001328287               0.000000000               0.000000000               0.000000000               0.000000000              -0.000559214               0.006139579               0.001355559              -0.000977151               0.002372223               0.001395072               0.000000000               0.000000000               0.000000000               0.000000000              -0.000346301               0.006101483               0.001204053              -0.000892547               0.002331323               0.001438776               0.000000000               0.000000000               0.000000000               0.000000000              -0.000155263               0.006010638               0.001056868              -0.000809552               0.002273376               0.001463825               0.000000000               0.000000000               0.000000000               0.000000000               0.000019566               0.005874632               0.000915904              -0.000726990               0.002200521               0.001473531               0.000000000               0.000000000               0.000000000               0.000000000               0.000178680               0.005703484               0.000774670              -0.000645929               0.002116452               0.001470523               0.000000000               0.000000000               0.000000000               0.000000000               0.000306223               0.005517857               0.000615909              -0.000574897               0.002030900               0.001456002               0.000000000               0.000000000               0.000000000               0.000000000               0.000378172               0.005333915               0.000432134              -0.000524924               0.001952928               0.001428005               0.000000000               0.000000000               0.000000000               0.000000000               0.000376743               0.005161622               0.000225836              -0.000503923               0.001888498               0.001384575               0.000000000               0.000000000               0.000000000               0.000000000               0.000337730               0.005069925               0.000111957              -0.000507091               0.001858988               0.001351897               0.000000000               0.000000000               0.000000000               0.000000000              -0.005800862              -0.000055166              -0.000387827              -0.002168426               0.000704415              -0.001464010               0.000000000               0.000000000               0.000000000               0.000000000              -0.003861242               0.001143237               0.000775341              -0.001590868               0.000911362              -0.000679506               0.000000000               0.000000000               0.000000000               0.000000000              -0.002578098               0.002358723               0.001788236              -0.001261625               0.001206773              -0.000054852               0.000000000               0.000000000               0.000000000               0.000000000              -0.001875912               0.003365322               0.002005290              -0.001124131               0.001496472               0.000372341               0.000000000               0.000000000               0.000000000               0.000000000              -0.001412475               0.004149157               0.001946546              -0.001048321               0.001732478               0.000684157               0.000000000               0.000000000               0.000000000               0.000000000              -0.001062627               0.004738995               0.001801574              -0.000990858               0.001909935               0.000919076               0.000000000               0.000000000               0.000000000               0.000000000              -0.000778907               0.005143588               0.001641697              -0.000935037               0.002026191               0.001091154               0.000000000               0.000000000               0.000000000               0.000000000              -0.000537758               0.005405827               0.001490652              -0.000877386               0.002094386               0.001217000               0.000000000               0.000000000               0.000000000               0.000000000              -0.000323128               0.005562599               0.001347647              -0.000816496               0.002126346               0.001309850               0.000000000               0.000000000               0.000000000               0.000000000              -0.000120127               0.005644601               0.001206891              -0.000750621               0.002131722               0.001381101               0.000000000               0.000000000               0.000000000               0.000000000               0.000078405               0.005662438               0.001072742              -0.000678402               0.002113594               0.001435192               0.000000000               0.000000000               0.000000000               0.000000000               0.000275153               0.005623831               0.000949561              -0.000599796               0.002074523               0.001474728               0.000000000               0.000000000               0.000000000               0.000000000               0.000470549               0.005544963               0.000822814              -0.000516664               0.002020524               0.001503860               0.000000000               0.000000000               0.000000000               0.000000000               0.000658945               0.005434838               0.000669647              -0.000432250               0.001955678               0.001523428               0.000000000               0.000000000               0.000000000               0.000000000               0.000828496               0.005300888               0.000482909              -0.000351924               0.001884253               0.001532329               0.000000000               0.000000000               0.000000000               0.000000000               0.000960922               0.005153998               0.000259896              -0.000283903               0.001812617               0.001528713               0.000000000               0.000000000               0.000000000               0.000000000               0.001032745               0.005085822               0.000141218              -0.000248448               0.001778073               0.001529625               0.000000000               0.000000000               0.000000000               0.000000000              -0.007015243              -0.000422119              -0.000454573              -0.002577949               0.000718605              -0.001859344               0.000000000               0.000000000               0.000000000               0.000000000              -0.004488213               0.000465989               0.000468330              -0.001741327               0.000735767              -0.001005560               0.000000000               0.000000000               0.000000000               0.000000000              -0.002653760               0.001351750               0.001301069              -0.001164127               0.000838619              -0.000325508               0.000000000               0.000000000               0.000000000               0.000000000              -0.001710616               0.002301218               0.001524628              -0.000929132               0.001076775               0.000147643               0.000000000               0.000000000               0.000000000               0.000000000              -0.001146859               0.003140423               0.001517774              -0.000822624               0.001321004               0.000498381               0.000000000               0.000000000               0.000000000               0.000000000              -0.000763371               0.003823851               0.001430467              -0.000764244               0.001529352               0.000765107               0.000000000               0.000000000               0.000000000               0.000000000              -0.000478945               0.004332315               0.001320944              -0.000721143               0.001684471               0.000963328               0.000000000               0.000000000               0.000000000               0.000000000              -0.000248190               0.004701517               0.001209203              -0.000680760               0.001794076               0.001113317               0.000000000               0.000000000               0.000000000               0.000000000              -0.000046976               0.004964342               0.001098755              -0.000638158               0.001867483               0.001229325               0.000000000               0.000000000               0.000000000               0.000000000               0.000146227               0.005146845               0.000990887              -0.000588520               0.001911771               0.001323251               0.000000000               0.000000000               0.000000000               0.000000000               0.000347896               0.005261666               0.000891389              -0.000527246               0.001929620               0.001402374               0.000000000               0.000000000               0.000000000               0.000000000               0.000561637               0.005319741               0.000799394              -0.000454353               0.001924680               0.001470327               0.000000000               0.000000000               0.000000000               0.000000000               0.000785986               0.005331704               0.000701568              -0.000371718               0.001901123               0.001529405               0.000000000               0.000000000               0.000000000               0.000000000               0.001026318               0.005302210               0.000580958              -0.000277906               0.001860021               0.001582115               0.000000000               0.000000000               0.000000000               0.000000000               0.001288555               0.005234630               0.000426830              -0.000171120               0.001801899               0.001630779               0.000000000               0.000000000               0.000000000               0.000000000               0.001567482               0.005130537               0.000231728              -0.000053512               0.001727999               0.001674487               0.000000000               0.000000000               0.000000000               0.000000000               0.001775129               0.005095025               0.000131789               0.000028795               0.001688727               0.001717521               0.000000000               0.000000000               0.000000000               0.000000000              -0.007829605              -0.000593042              -0.000293647              -0.002861970               0.000756304              -0.002105666               0.000000000               0.000000000               0.000000000               0.000000000              -0.004920715               0.000062610               0.000214367              -0.001853093               0.000638563              -0.001214530               0.000000000               0.000000000               0.000000000               0.000000000              -0.002711650               0.000699141               0.000682298              -0.001104260               0.000601129              -0.000503131               0.000000000               0.000000000               0.000000000               0.000000000              -0.001593800               0.001579049               0.000823432              -0.000795055               0.000791362              -0.000003693               0.000000000               0.000000000               0.000000000               0.000000000              -0.000947654               0.002430524               0.000833925              -0.000659184               0.001029894               0.000370710               0.000000000               0.000000000               0.000000000               0.000000000              -0.000530562               0.003161153               0.000795739              -0.000594104               0.001251742               0.000657638               0.000000000               0.000000000               0.000000000               0.000000000              -0.000242396               0.003733149               0.000741397              -0.000557541               0.001430217               0.000872676               0.000000000               0.000000000               0.000000000               0.000000000              -0.000020471               0.004171029               0.000681557              -0.000529054               0.001566680               0.001037626               0.000000000               0.000000000               0.000000000               0.000000000               0.000172763               0.004503139               0.000620470              -0.000498105               0.001667066               0.001168961               0.000000000               0.000000000               0.000000000               0.000000000               0.000365097               0.004757097               0.000561860              -0.000457725               0.001738258               0.001280533               0.000000000               0.000000000               0.000000000               0.000000000               0.000566924               0.004942760               0.000509680              -0.000405248               0.001782653               0.001377405               0.000000000               0.000000000               0.000000000               0.000000000               0.000785191               0.005071032               0.000460615              -0.000339432               0.001803471               0.001464039               0.000000000               0.000000000               0.000000000               0.000000000               0.001027654               0.005150421               0.000406647              -0.000258432               0.001802934               0.001544502               0.000000000               0.000000000               0.000000000               0.000000000               0.001305812               0.005181303               0.000340215              -0.000157983               0.001779745               0.001621762               0.000000000               0.000000000               0.000000000               0.000000000               0.001634597               0.005163745               0.000252269              -0.000032494               0.001732062               0.001699568               0.000000000               0.000000000               0.000000000               0.000000000               0.002029458               0.005097930               0.000138092               0.000123804               0.001658025               0.001781829               0.000000000               0.000000000               0.000000000               0.000000000               0.002348258               0.005091337               0.000081489               0.000244177               0.001615703               0.001859880               0.000000000               0.000000000               0.000000000               0.000000000               0.000000000               0.000000000               0.000000000               0.000000000               0.000000000               0.000000000               0.000000000               0.000000000               0.000000000               0.000000000               0.000000000               0.000000000               0.000000000               0.000000000               0.000000000               0.000000000               0.000000000               0.000000000               0.000000000               0.000000000               0.000000000               0.000000000               0.000000000               0.000000000               0.000000000               0.000000000               0.000000000               0.000000000               0.000000000               0.000000000               0.000000000               0.000000000               0.000000000               0.000000000               0.000000000               0.000000000               0.000000000               0.000000000               0.000000000               0.000000000               0.000000000               0.000000000               0.000000000               0.000000000               0.000000000               0.000000000               0.000000000               0.000000000               0.000000000               0.000000000               0.000000000               0.000000000               0.000000000               0.000000000               0.000000000               0.000000000               0.000000000               0.000000000               0.000000000               0.000000000               0.000000000               0.000000000               0.000000000               0.000000000               0.000000000               0.000000000               0.000000000               0.000000000               0.000000000               0.000000000               0.000000000               0.000000000               0.000000000               0.000000000               0.000000000               0.000000000               0.000000000               0.000000000               0.000000000               0.000000000               0.000000000               0.000000000               0.000000000               0.000000000               0.000000000               0.000000000               0.000000000               0.000000000               0.000000000               0.000000000               0.000000000               0.000000000               0.000000000               0.000000000               0.000000000               0.000000000               0.000000000               0.000000000               0.000000000               0.000000000               0.000000000               0.000000000               0.000000000               0.000000000               0.000000000               0.000000000               0.000000000               0.000000000               0.000000000               0.000000000               0.000000000               0.000000000               0.000000000               0.000000000               0.000000000               0.000000000               0.000000000               0.000000000               0.000000000               0.000000000               0.000000000               0.000000000               0.000000000               0.000000000               0.000000000               0.000000000               0.000000000               0.000000000               0.000000000               0.000000000               0.000000000               0.000000000               0.000000000               0.000000000               0.000000000               0.000000000               0.000000000               0.000000000               0.000000000               0.000000000               0.000000000               0.000000000               0.000000000               0.000000000               0.000000000               0.000000000               0.000000000               0.000000000               0.000000000               0.000000000               0.000000000               0.000000000               0.000000000               0.000000000               0.000000000               0.000000000               0.000000000               0.000000000               0.000000000               0.000000000               0.000000000               0.000000000               0.000000000               0.000000000               0.000000000               0.000000000               0.000000000               0.000000000               0.000000000               0.000000000 </DataArray>
</PointData>
</Piece>
</UnstructuredGrid> </VTKFile>
