<?xml version="1.0"?>
<VTKFile type="UnstructuredGrid" version="0.1">
<UnstructuredGrid>
<Piece NumberOfPoints="      1156" NumberOfCells="      1024">
<Points>
<DataArray type="Float64"                                    Name="coordinates"                                                      NumberOfComponents=" 3" format="ascii">
              0.133000000               0.000000000               0.000000000               0.155937500               0.000000000               0.000000000               0.178875000               0.000000000               0.000000000               0.201812500               0.000000000               0.000000000               0.224750000               0.000000000               0.000000000               0.247687500               0.000000000               0.000000000               0.270625000               0.000000000               0.000000000               0.293562500               0.000000000               0.000000000               0.316500000               0.000000000               0.000000000               0.339437500               0.000000000               0.000000000               0.362375000               0.000000000               0.000000000               0.385312500               0.000000000               0.000000000               0.408250000               0.000000000               0.000000000               0.431187500               0.000000000               0.000000000               0.454125000               0.000000000               0.000000000               0.477062500               0.000000000               0.000000000               0.500000000               0.000000000               0.000000000               0.132359569               0.013036280               0.000000000               0.155337096               0.016127762               0.000000000               0.178314623               0.019219245               0.000000000               0.201292150               0.022310727               0.000000000               0.224269676               0.025402210               0.000000000               0.247247203               0.028493692               0.000000000               0.270224730               0.031585175               0.000000000               0.293202257               0.034676657               0.000000000               0.316179784               0.037768140               0.000000000               0.339157311               0.040859622               0.000000000               0.362134838               0.043951105               0.000000000               0.385112365               0.047042587               0.000000000               0.408089892               0.050134070               0.000000000               0.431067419               0.053225552               0.000000000               0.454044946               0.056317035               0.000000000               0.477022473               0.059408517               0.000000000               0.500000000               0.062500000               0.000000000               0.130444442               0.025947013               0.000000000               0.153541665               0.032137825               0.000000000               0.176638887               0.038328636               0.000000000               0.199736109               0.044519448               0.000000000               0.222833332               0.050710260               0.000000000               0.245930554               0.056901071               0.000000000               0.269027776               0.063091883               0.000000000               0.292124999               0.069282695               0.000000000               0.315222221               0.075473506               0.000000000               0.338319444               0.081664318               0.000000000               0.361416666               0.087855130               0.000000000               0.384513888               0.094045942               0.000000000               0.407611111               0.100236753               0.000000000               0.430708333               0.106427565               0.000000000               0.453805555               0.112618377               0.000000000               0.476902778               0.118809188               0.000000000               0.500000000               0.125000000               0.000000000               0.127273065               0.038607862               0.000000000               0.150568498               0.047913621               0.000000000               0.173863932               0.057219379               0.000000000               0.197159365               0.066525138               0.000000000               0.220454798               0.075830897               0.000000000               0.243750232               0.085136655               0.000000000               0.267045665               0.094442414               0.000000000               0.290341099               0.103748172               0.000000000               0.313636532               0.113053931               0.000000000               0.336931966               0.122359690               0.000000000               0.360227399               0.131665448               0.000000000               0.383522833               0.140971207               0.000000000               0.406818266               0.150276966               0.000000000               0.430113700               0.159582724               0.000000000               0.453409133               0.168888483               0.000000000               0.476704567               0.178194241               0.000000000               0.500000000               0.187500000               0.000000000               0.122875978               0.050896897               0.000000000               0.146446229               0.063340840               0.000000000               0.170016481               0.075784784               0.000000000               0.193586732               0.088228728               0.000000000               0.217156983               0.100672672               0.000000000               0.240727235               0.113116616               0.000000000               0.264297486               0.125560560               0.000000000               0.287867738               0.138004504               0.000000000               0.311437989               0.150448448               0.000000000               0.335008240               0.162892392               0.000000000               0.358578492               0.175336336               0.000000000               0.382148743               0.187780280               0.000000000               0.405718994               0.200224224               0.000000000               0.429289246               0.212668168               0.000000000               0.452859497               0.225112112               0.000000000               0.476429749               0.237556056               0.000000000               0.500000000               0.250000000               0.000000000               0.117295528               0.062695766               0.000000000               0.141214558               0.078308531               0.000000000               0.165133587               0.093921295               0.000000000               0.189052617               0.109534060               0.000000000               0.212971646               0.125146824               0.000000000               0.236890676               0.140759589               0.000000000               0.260809705               0.156372354               0.000000000               0.284728735               0.171985118               0.000000000               0.308647764               0.187597883               0.000000000               0.332566794               0.203210648               0.000000000               0.356485823               0.218823412               0.000000000               0.380404853               0.234436177               0.000000000               0.404323882               0.250048941               0.000000000               0.428242912               0.265661706               0.000000000               0.452161941               0.281274471               0.000000000               0.476080971               0.296887235               0.000000000               0.500000000               0.312500000               0.000000000               0.110585458               0.073890841               0.000000000               0.134923867               0.092710163               0.000000000               0.159262276               0.111529486               0.000000000               0.183600685               0.130348808               0.000000000               0.207939094               0.149168131               0.000000000               0.232277503               0.167987453               0.000000000               0.256615912               0.186806776               0.000000000               0.280954320               0.205626098               0.000000000               0.305292729               0.224445420               0.000000000               0.329631138               0.243264743               0.000000000               0.353969547               0.262084065               0.000000000               0.378307956               0.280903388               0.000000000               0.402646365               0.299722710               0.000000000               0.426984773               0.318542033               0.000000000               0.451323182               0.337361355               0.000000000               0.475661591               0.356180678               0.000000000               0.500000000               0.375000000               0.000000000               0.102810390               0.084374307               0.000000000               0.127634741               0.106444663               0.000000000               0.152459092               0.128515018               0.000000000               0.177283442               0.150585374               0.000000000               0.202107793               0.172655730               0.000000000               0.226932143               0.194726086               0.000000000               0.251756494               0.216796442               0.000000000               0.276580845               0.238866798               0.000000000               0.301405195               0.260937153               0.000000000               0.326229546               0.283007509               0.000000000               0.351053896               0.305077865               0.000000000               0.375878247               0.327148221               0.000000000               0.400702598               0.349218577               0.000000000               0.425526948               0.371288933               0.000000000               0.450351299               0.393359288               0.000000000               0.475175649               0.415429644               0.000000000               0.500000000               0.437500000               0.000000000               0.094045202               0.094045202               0.000000000               0.119417377               0.119417377               0.000000000               0.144789552               0.144789552               0.000000000               0.170161727               0.170161727               0.000000000               0.195533901               0.195533901               0.000000000               0.220906076               0.220906076               0.000000000               0.246278251               0.246278251               0.000000000               0.271650426               0.271650426               0.000000000               0.297022601               0.297022601               0.000000000               0.322394776               0.322394776               0.000000000               0.347766951               0.347766951               0.000000000               0.373139126               0.373139126               0.000000000               0.398511300               0.398511300               0.000000000               0.423883475               0.423883475               0.000000000               0.449255650               0.449255650               0.000000000               0.474627825               0.474627825               0.000000000               0.500000000               0.500000000               0.000000000               0.084374307               0.102810390               0.000000000               0.106444663               0.127634741               0.000000000               0.128515018               0.152459092               0.000000000               0.150585374               0.177283442               0.000000000               0.172655730               0.202107793               0.000000000               0.194726086               0.226932143               0.000000000               0.216796442               0.251756494               0.000000000               0.238866798               0.276580845               0.000000000               0.260937153               0.301405195               0.000000000               0.283007509               0.326229546               0.000000000               0.305077865               0.351053896               0.000000000               0.327148221               0.375878247               0.000000000               0.349218577               0.400702598               0.000000000               0.371288933               0.425526948               0.000000000               0.393359288               0.450351299               0.000000000               0.415429644               0.475175649               0.000000000               0.437500000               0.500000000               0.000000000               0.073890841               0.110585458               0.000000000               0.092710163               0.134923867               0.000000000               0.111529486               0.159262276               0.000000000               0.130348808               0.183600685               0.000000000               0.149168131               0.207939094               0.000000000               0.167987453               0.232277503               0.000000000               0.186806776               0.256615912               0.000000000               0.205626098               0.280954320               0.000000000               0.224445420               0.305292729               0.000000000               0.243264743               0.329631138               0.000000000               0.262084065               0.353969547               0.000000000               0.280903388               0.378307956               0.000000000               0.299722710               0.402646365               0.000000000               0.318542033               0.426984773               0.000000000               0.337361355               0.451323182               0.000000000               0.356180678               0.475661591               0.000000000               0.375000000               0.500000000               0.000000000               0.062695766               0.117295528               0.000000000               0.078308531               0.141214558               0.000000000               0.093921295               0.165133587               0.000000000               0.109534060               0.189052617               0.000000000               0.125146824               0.212971646               0.000000000               0.140759589               0.236890676               0.000000000               0.156372354               0.260809705               0.000000000               0.171985118               0.284728735               0.000000000               0.187597883               0.308647764               0.000000000               0.203210648               0.332566794               0.000000000               0.218823412               0.356485823               0.000000000               0.234436177               0.380404853               0.000000000               0.250048941               0.404323882               0.000000000               0.265661706               0.428242912               0.000000000               0.281274471               0.452161941               0.000000000               0.296887235               0.476080971               0.000000000               0.312500000               0.500000000               0.000000000               0.050896897               0.122875978               0.000000000               0.063340840               0.146446229               0.000000000               0.075784784               0.170016481               0.000000000               0.088228728               0.193586732               0.000000000               0.100672672               0.217156983               0.000000000               0.113116616               0.240727235               0.000000000               0.125560560               0.264297486               0.000000000               0.138004504               0.287867738               0.000000000               0.150448448               0.311437989               0.000000000               0.162892392               0.335008240               0.000000000               0.175336336               0.358578492               0.000000000               0.187780280               0.382148743               0.000000000               0.200224224               0.405718994               0.000000000               0.212668168               0.429289246               0.000000000               0.225112112               0.452859497               0.000000000               0.237556056               0.476429749               0.000000000               0.250000000               0.500000000               0.000000000               0.038607862               0.127273065               0.000000000               0.047913621               0.150568498               0.000000000               0.057219379               0.173863932               0.000000000               0.066525138               0.197159365               0.000000000               0.075830897               0.220454798               0.000000000               0.085136655               0.243750232               0.000000000               0.094442414               0.267045665               0.000000000               0.103748172               0.290341099               0.000000000               0.113053931               0.313636532               0.000000000               0.122359690               0.336931966               0.000000000               0.131665448               0.360227399               0.000000000               0.140971207               0.383522833               0.000000000               0.150276966               0.406818266               0.000000000               0.159582724               0.430113700               0.000000000               0.168888483               0.453409133               0.000000000               0.178194241               0.476704567               0.000000000               0.187500000               0.500000000               0.000000000               0.025947013               0.130444442               0.000000000               0.032137825               0.153541665               0.000000000               0.038328636               0.176638887               0.000000000               0.044519448               0.199736109               0.000000000               0.050710260               0.222833332               0.000000000               0.056901071               0.245930554               0.000000000               0.063091883               0.269027776               0.000000000               0.069282695               0.292124999               0.000000000               0.075473506               0.315222221               0.000000000               0.081664318               0.338319444               0.000000000               0.087855130               0.361416666               0.000000000               0.094045942               0.384513888               0.000000000               0.100236753               0.407611111               0.000000000               0.106427565               0.430708333               0.000000000               0.112618377               0.453805555               0.000000000               0.118809188               0.476902778               0.000000000               0.125000000               0.500000000               0.000000000               0.013036280               0.132359569               0.000000000               0.016127762               0.155337096               0.000000000               0.019219245               0.178314623               0.000000000               0.022310727               0.201292150               0.000000000               0.025402210               0.224269676               0.000000000               0.028493692               0.247247203               0.000000000               0.031585175               0.270224730               0.000000000               0.034676657               0.293202257               0.000000000               0.037768140               0.316179784               0.000000000               0.040859622               0.339157311               0.000000000               0.043951105               0.362134838               0.000000000               0.047042587               0.385112365               0.000000000               0.050134070               0.408089892               0.000000000               0.053225552               0.431067419               0.000000000               0.056317035               0.454044946               0.000000000               0.059408517               0.477022473               0.000000000               0.062500000               0.500000000               0.000000000               0.000000000               0.133000000               0.000000000               0.000000000               0.155937500               0.000000000               0.000000000               0.178875000               0.000000000               0.000000000               0.201812500               0.000000000               0.000000000               0.224750000               0.000000000               0.000000000               0.247687500               0.000000000               0.000000000               0.270625000               0.000000000               0.000000000               0.293562500               0.000000000               0.000000000               0.316500000               0.000000000               0.000000000               0.339437500               0.000000000               0.000000000               0.362375000               0.000000000               0.000000000               0.385312500               0.000000000               0.000000000               0.408250000               0.000000000               0.000000000               0.431187500               0.000000000               0.000000000               0.454125000               0.000000000               0.000000000               0.477062500               0.000000000               0.000000000               0.500000000               0.000000000               0.133000000               0.000000000               0.000000000               0.155937500               0.000000000               0.000000000               0.178875000               0.000000000               0.000000000               0.201812500               0.000000000               0.000000000               0.224750000               0.000000000               0.000000000               0.247687500               0.000000000               0.000000000               0.270625000               0.000000000               0.000000000               0.293562500               0.000000000               0.000000000               0.316500000               0.000000000               0.000000000               0.339437500               0.000000000               0.000000000               0.362375000               0.000000000               0.000000000               0.385312500               0.000000000               0.000000000               0.408250000               0.000000000               0.000000000               0.431187500               0.000000000               0.000000000               0.454125000               0.000000000               0.000000000               0.477062500               0.000000000               0.000000000               0.500000000               0.000000000               0.000000000               0.132359569              -0.013036280               0.000000000               0.155337096              -0.016127762               0.000000000               0.178314623              -0.019219245               0.000000000               0.201292150              -0.022310727               0.000000000               0.224269676              -0.025402210               0.000000000               0.247247203              -0.028493692               0.000000000               0.270224730              -0.031585175               0.000000000               0.293202257              -0.034676657               0.000000000               0.316179784              -0.037768140               0.000000000               0.339157311              -0.040859622               0.000000000               0.362134838              -0.043951105               0.000000000               0.385112365              -0.047042587               0.000000000               0.408089892              -0.050134070               0.000000000               0.431067419              -0.053225552               0.000000000               0.454044946              -0.056317035               0.000000000               0.477022473              -0.059408517               0.000000000               0.500000000              -0.062500000               0.000000000               0.130444442              -0.025947013               0.000000000               0.153541665              -0.032137825               0.000000000               0.176638887              -0.038328636               0.000000000               0.199736109              -0.044519448               0.000000000               0.222833332              -0.050710260               0.000000000               0.245930554              -0.056901071               0.000000000               0.269027776              -0.063091883               0.000000000               0.292124999              -0.069282695               0.000000000               0.315222221              -0.075473506               0.000000000               0.338319444              -0.081664318               0.000000000               0.361416666              -0.087855130               0.000000000               0.384513888              -0.094045942               0.000000000               0.407611111              -0.100236753               0.000000000               0.430708333              -0.106427565               0.000000000               0.453805555              -0.112618377               0.000000000               0.476902778              -0.118809188               0.000000000               0.500000000              -0.125000000               0.000000000               0.127273065              -0.038607862               0.000000000               0.150568498              -0.047913621               0.000000000               0.173863932              -0.057219379               0.000000000               0.197159365              -0.066525138               0.000000000               0.220454798              -0.075830897               0.000000000               0.243750232              -0.085136655               0.000000000               0.267045665              -0.094442414               0.000000000               0.290341099              -0.103748172               0.000000000               0.313636532              -0.113053931               0.000000000               0.336931966              -0.122359690               0.000000000               0.360227399              -0.131665448               0.000000000               0.383522833              -0.140971207               0.000000000               0.406818266              -0.150276966               0.000000000               0.430113700              -0.159582724               0.000000000               0.453409133              -0.168888483               0.000000000               0.476704567              -0.178194241               0.000000000               0.500000000              -0.187500000               0.000000000               0.122875978              -0.050896897               0.000000000               0.146446229              -0.063340840               0.000000000               0.170016481              -0.075784784               0.000000000               0.193586732              -0.088228728               0.000000000               0.217156983              -0.100672672               0.000000000               0.240727235              -0.113116616               0.000000000               0.264297486              -0.125560560               0.000000000               0.287867738              -0.138004504               0.000000000               0.311437989              -0.150448448               0.000000000               0.335008240              -0.162892392               0.000000000               0.358578492              -0.175336336               0.000000000               0.382148743              -0.187780280               0.000000000               0.405718994              -0.200224224               0.000000000               0.429289246              -0.212668168               0.000000000               0.452859497              -0.225112112               0.000000000               0.476429749              -0.237556056               0.000000000               0.500000000              -0.250000000               0.000000000               0.117295528              -0.062695766               0.000000000               0.141214558              -0.078308531               0.000000000               0.165133587              -0.093921295               0.000000000               0.189052617              -0.109534060               0.000000000               0.212971646              -0.125146824               0.000000000               0.236890676              -0.140759589               0.000000000               0.260809705              -0.156372354               0.000000000               0.284728735              -0.171985118               0.000000000               0.308647764              -0.187597883               0.000000000               0.332566794              -0.203210648               0.000000000               0.356485823              -0.218823412               0.000000000               0.380404853              -0.234436177               0.000000000               0.404323882              -0.250048941               0.000000000               0.428242912              -0.265661706               0.000000000               0.452161941              -0.281274471               0.000000000               0.476080971              -0.296887235               0.000000000               0.500000000              -0.312500000               0.000000000               0.110585458              -0.073890841               0.000000000               0.134923867              -0.092710163               0.000000000               0.159262276              -0.111529486               0.000000000               0.183600685              -0.130348808               0.000000000               0.207939094              -0.149168131               0.000000000               0.232277503              -0.167987453               0.000000000               0.256615912              -0.186806776               0.000000000               0.280954320              -0.205626098               0.000000000               0.305292729              -0.224445420               0.000000000               0.329631138              -0.243264743               0.000000000               0.353969547              -0.262084065               0.000000000               0.378307956              -0.280903388               0.000000000               0.402646365              -0.299722710               0.000000000               0.426984773              -0.318542033               0.000000000               0.451323182              -0.337361355               0.000000000               0.475661591              -0.356180678               0.000000000               0.500000000              -0.375000000               0.000000000               0.102810390              -0.084374307               0.000000000               0.127634741              -0.106444663               0.000000000               0.152459092              -0.128515018               0.000000000               0.177283442              -0.150585374               0.000000000               0.202107793              -0.172655730               0.000000000               0.226932143              -0.194726086               0.000000000               0.251756494              -0.216796442               0.000000000               0.276580845              -0.238866798               0.000000000               0.301405195              -0.260937153               0.000000000               0.326229546              -0.283007509               0.000000000               0.351053896              -0.305077865               0.000000000               0.375878247              -0.327148221               0.000000000               0.400702598              -0.349218577               0.000000000               0.425526948              -0.371288933               0.000000000               0.450351299              -0.393359288               0.000000000               0.475175649              -0.415429644               0.000000000               0.500000000              -0.437500000               0.000000000               0.094045202              -0.094045202               0.000000000               0.119417377              -0.119417377               0.000000000               0.144789552              -0.144789552               0.000000000               0.170161727              -0.170161727               0.000000000               0.195533901              -0.195533901               0.000000000               0.220906076              -0.220906076               0.000000000               0.246278251              -0.246278251               0.000000000               0.271650426              -0.271650426               0.000000000               0.297022601              -0.297022601               0.000000000               0.322394776              -0.322394776               0.000000000               0.347766951              -0.347766951               0.000000000               0.373139126              -0.373139126               0.000000000               0.398511300              -0.398511300               0.000000000               0.423883475              -0.423883475               0.000000000               0.449255650              -0.449255650               0.000000000               0.474627825              -0.474627825               0.000000000               0.500000000              -0.500000000               0.000000000               0.084374307              -0.102810390               0.000000000               0.106444663              -0.127634741               0.000000000               0.128515018              -0.152459092               0.000000000               0.150585374              -0.177283442               0.000000000               0.172655730              -0.202107793               0.000000000               0.194726086              -0.226932143               0.000000000               0.216796442              -0.251756494               0.000000000               0.238866798              -0.276580845               0.000000000               0.260937153              -0.301405195               0.000000000               0.283007509              -0.326229546               0.000000000               0.305077865              -0.351053896               0.000000000               0.327148221              -0.375878247               0.000000000               0.349218577              -0.400702598               0.000000000               0.371288933              -0.425526948               0.000000000               0.393359288              -0.450351299               0.000000000               0.415429644              -0.475175649               0.000000000               0.437500000              -0.500000000               0.000000000               0.073890841              -0.110585458               0.000000000               0.092710163              -0.134923867               0.000000000               0.111529486              -0.159262276               0.000000000               0.130348808              -0.183600685               0.000000000               0.149168131              -0.207939094               0.000000000               0.167987453              -0.232277503               0.000000000               0.186806776              -0.256615912               0.000000000               0.205626098              -0.280954320               0.000000000               0.224445420              -0.305292729               0.000000000               0.243264743              -0.329631138               0.000000000               0.262084065              -0.353969547               0.000000000               0.280903388              -0.378307956               0.000000000               0.299722710              -0.402646365               0.000000000               0.318542033              -0.426984773               0.000000000               0.337361355              -0.451323182               0.000000000               0.356180678              -0.475661591               0.000000000               0.375000000              -0.500000000               0.000000000               0.062695766              -0.117295528               0.000000000               0.078308531              -0.141214558               0.000000000               0.093921295              -0.165133587               0.000000000               0.109534060              -0.189052617               0.000000000               0.125146824              -0.212971646               0.000000000               0.140759589              -0.236890676               0.000000000               0.156372354              -0.260809705               0.000000000               0.171985118              -0.284728735               0.000000000               0.187597883              -0.308647764               0.000000000               0.203210648              -0.332566794               0.000000000               0.218823412              -0.356485823               0.000000000               0.234436177              -0.380404853               0.000000000               0.250048941              -0.404323882               0.000000000               0.265661706              -0.428242912               0.000000000               0.281274471              -0.452161941               0.000000000               0.296887235              -0.476080971               0.000000000               0.312500000              -0.500000000               0.000000000               0.050896897              -0.122875978               0.000000000               0.063340840              -0.146446229               0.000000000               0.075784784              -0.170016481               0.000000000               0.088228728              -0.193586732               0.000000000               0.100672672              -0.217156983               0.000000000               0.113116616              -0.240727235               0.000000000               0.125560560              -0.264297486               0.000000000               0.138004504              -0.287867738               0.000000000               0.150448448              -0.311437989               0.000000000               0.162892392              -0.335008240               0.000000000               0.175336336              -0.358578492               0.000000000               0.187780280              -0.382148743               0.000000000               0.200224224              -0.405718994               0.000000000               0.212668168              -0.429289246               0.000000000               0.225112112              -0.452859497               0.000000000               0.237556056              -0.476429749               0.000000000               0.250000000              -0.500000000               0.000000000               0.038607862              -0.127273065               0.000000000               0.047913621              -0.150568498               0.000000000               0.057219379              -0.173863932               0.000000000               0.066525138              -0.197159365               0.000000000               0.075830897              -0.220454798               0.000000000               0.085136655              -0.243750232               0.000000000               0.094442414              -0.267045665               0.000000000               0.103748172              -0.290341099               0.000000000               0.113053931              -0.313636532               0.000000000               0.122359690              -0.336931966               0.000000000               0.131665448              -0.360227399               0.000000000               0.140971207              -0.383522833               0.000000000               0.150276966              -0.406818266               0.000000000               0.159582724              -0.430113700               0.000000000               0.168888483              -0.453409133               0.000000000               0.178194241              -0.476704567               0.000000000               0.187500000              -0.500000000               0.000000000               0.025947013              -0.130444442               0.000000000               0.032137825              -0.153541665               0.000000000               0.038328636              -0.176638887               0.000000000               0.044519448              -0.199736109               0.000000000               0.050710260              -0.222833332               0.000000000               0.056901071              -0.245930554               0.000000000               0.063091883              -0.269027776               0.000000000               0.069282695              -0.292124999               0.000000000               0.075473506              -0.315222221               0.000000000               0.081664318              -0.338319444               0.000000000               0.087855130              -0.361416666               0.000000000               0.094045942              -0.384513888               0.000000000               0.100236753              -0.407611111               0.000000000               0.106427565              -0.430708333               0.000000000               0.112618377              -0.453805555               0.000000000               0.118809188              -0.476902778               0.000000000               0.125000000              -0.500000000               0.000000000               0.013036280              -0.132359569               0.000000000               0.016127762              -0.155337096               0.000000000               0.019219245              -0.178314623               0.000000000               0.022310727              -0.201292150               0.000000000               0.025402210              -0.224269676               0.000000000               0.028493692              -0.247247203               0.000000000               0.031585175              -0.270224730               0.000000000               0.034676657              -0.293202257               0.000000000               0.037768140              -0.316179784               0.000000000               0.040859622              -0.339157311               0.000000000               0.043951105              -0.362134838               0.000000000               0.047042587              -0.385112365               0.000000000               0.050134070              -0.408089892               0.000000000               0.053225552              -0.431067419               0.000000000               0.056317035              -0.454044946               0.000000000               0.059408517              -0.477022473               0.000000000               0.062500000              -0.500000000               0.000000000               0.000000000              -0.133000000               0.000000000               0.000000000              -0.155937500               0.000000000               0.000000000              -0.178875000               0.000000000               0.000000000              -0.201812500               0.000000000               0.000000000              -0.224750000               0.000000000               0.000000000              -0.247687500               0.000000000               0.000000000              -0.270625000               0.000000000               0.000000000              -0.293562500               0.000000000               0.000000000              -0.316500000               0.000000000               0.000000000              -0.339437500               0.000000000               0.000000000              -0.362375000               0.000000000               0.000000000              -0.385312500               0.000000000               0.000000000              -0.408250000               0.000000000               0.000000000              -0.431187500               0.000000000               0.000000000              -0.454125000               0.000000000               0.000000000              -0.477062500               0.000000000               0.000000000              -0.500000000               0.000000000              -0.133000000               0.000000000               0.000000000              -0.155937500               0.000000000               0.000000000              -0.178875000               0.000000000               0.000000000              -0.201812500               0.000000000               0.000000000              -0.224750000               0.000000000               0.000000000              -0.247687500               0.000000000               0.000000000              -0.270625000               0.000000000               0.000000000              -0.293562500               0.000000000               0.000000000              -0.316500000               0.000000000               0.000000000              -0.339437500               0.000000000               0.000000000              -0.362375000               0.000000000               0.000000000              -0.385312500               0.000000000               0.000000000              -0.408250000               0.000000000               0.000000000              -0.431187500               0.000000000               0.000000000              -0.454125000               0.000000000               0.000000000              -0.477062500               0.000000000               0.000000000              -0.500000000               0.000000000               0.000000000              -0.132359569              -0.013036280               0.000000000              -0.155337096              -0.016127762               0.000000000              -0.178314623              -0.019219245               0.000000000              -0.201292150              -0.022310727               0.000000000              -0.224269676              -0.025402210               0.000000000              -0.247247203              -0.028493692               0.000000000              -0.270224730              -0.031585175               0.000000000              -0.293202257              -0.034676657               0.000000000              -0.316179784              -0.037768140               0.000000000              -0.339157311              -0.040859622               0.000000000              -0.362134838              -0.043951105               0.000000000              -0.385112365              -0.047042587               0.000000000              -0.408089892              -0.050134070               0.000000000              -0.431067419              -0.053225552               0.000000000              -0.454044946              -0.056317035               0.000000000              -0.477022473              -0.059408517               0.000000000              -0.500000000              -0.062500000               0.000000000              -0.130444442              -0.025947013               0.000000000              -0.153541665              -0.032137825               0.000000000              -0.176638887              -0.038328636               0.000000000              -0.199736109              -0.044519448               0.000000000              -0.222833332              -0.050710260               0.000000000              -0.245930554              -0.056901071               0.000000000              -0.269027776              -0.063091883               0.000000000              -0.292124999              -0.069282695               0.000000000              -0.315222221              -0.075473506               0.000000000              -0.338319444              -0.081664318               0.000000000              -0.361416666              -0.087855130               0.000000000              -0.384513888              -0.094045942               0.000000000              -0.407611111              -0.100236753               0.000000000              -0.430708333              -0.106427565               0.000000000              -0.453805555              -0.112618377               0.000000000              -0.476902778              -0.118809188               0.000000000              -0.500000000              -0.125000000               0.000000000              -0.127273065              -0.038607862               0.000000000              -0.150568498              -0.047913621               0.000000000              -0.173863932              -0.057219379               0.000000000              -0.197159365              -0.066525138               0.000000000              -0.220454798              -0.075830897               0.000000000              -0.243750232              -0.085136655               0.000000000              -0.267045665              -0.094442414               0.000000000              -0.290341099              -0.103748172               0.000000000              -0.313636532              -0.113053931               0.000000000              -0.336931966              -0.122359690               0.000000000              -0.360227399              -0.131665448               0.000000000              -0.383522833              -0.140971207               0.000000000              -0.406818266              -0.150276966               0.000000000              -0.430113700              -0.159582724               0.000000000              -0.453409133              -0.168888483               0.000000000              -0.476704567              -0.178194241               0.000000000              -0.500000000              -0.187500000               0.000000000              -0.122875978              -0.050896897               0.000000000              -0.146446229              -0.063340840               0.000000000              -0.170016481              -0.075784784               0.000000000              -0.193586732              -0.088228728               0.000000000              -0.217156983              -0.100672672               0.000000000              -0.240727235              -0.113116616               0.000000000              -0.264297486              -0.125560560               0.000000000              -0.287867738              -0.138004504               0.000000000              -0.311437989              -0.150448448               0.000000000              -0.335008240              -0.162892392               0.000000000              -0.358578492              -0.175336336               0.000000000              -0.382148743              -0.187780280               0.000000000              -0.405718994              -0.200224224               0.000000000              -0.429289246              -0.212668168               0.000000000              -0.452859497              -0.225112112               0.000000000              -0.476429749              -0.237556056               0.000000000              -0.500000000              -0.250000000               0.000000000              -0.117295528              -0.062695766               0.000000000              -0.141214558              -0.078308531               0.000000000              -0.165133587              -0.093921295               0.000000000              -0.189052617              -0.109534060               0.000000000              -0.212971646              -0.125146824               0.000000000              -0.236890676              -0.140759589               0.000000000              -0.260809705              -0.156372354               0.000000000              -0.284728735              -0.171985118               0.000000000              -0.308647764              -0.187597883               0.000000000              -0.332566794              -0.203210648               0.000000000              -0.356485823              -0.218823412               0.000000000              -0.380404853              -0.234436177               0.000000000              -0.404323882              -0.250048941               0.000000000              -0.428242912              -0.265661706               0.000000000              -0.452161941              -0.281274471               0.000000000              -0.476080971              -0.296887235               0.000000000              -0.500000000              -0.312500000               0.000000000              -0.110585458              -0.073890841               0.000000000              -0.134923867              -0.092710163               0.000000000              -0.159262276              -0.111529486               0.000000000              -0.183600685              -0.130348808               0.000000000              -0.207939094              -0.149168131               0.000000000              -0.232277503              -0.167987453               0.000000000              -0.256615912              -0.186806776               0.000000000              -0.280954320              -0.205626098               0.000000000              -0.305292729              -0.224445420               0.000000000              -0.329631138              -0.243264743               0.000000000              -0.353969547              -0.262084065               0.000000000              -0.378307956              -0.280903388               0.000000000              -0.402646365              -0.299722710               0.000000000              -0.426984773              -0.318542033               0.000000000              -0.451323182              -0.337361355               0.000000000              -0.475661591              -0.356180678               0.000000000              -0.500000000              -0.375000000               0.000000000              -0.102810390              -0.084374307               0.000000000              -0.127634741              -0.106444663               0.000000000              -0.152459092              -0.128515018               0.000000000              -0.177283442              -0.150585374               0.000000000              -0.202107793              -0.172655730               0.000000000              -0.226932143              -0.194726086               0.000000000              -0.251756494              -0.216796442               0.000000000              -0.276580845              -0.238866798               0.000000000              -0.301405195              -0.260937153               0.000000000              -0.326229546              -0.283007509               0.000000000              -0.351053896              -0.305077865               0.000000000              -0.375878247              -0.327148221               0.000000000              -0.400702598              -0.349218577               0.000000000              -0.425526948              -0.371288933               0.000000000              -0.450351299              -0.393359288               0.000000000              -0.475175649              -0.415429644               0.000000000              -0.500000000              -0.437500000               0.000000000              -0.094045202              -0.094045202               0.000000000              -0.119417377              -0.119417377               0.000000000              -0.144789552              -0.144789552               0.000000000              -0.170161727              -0.170161727               0.000000000              -0.195533901              -0.195533901               0.000000000              -0.220906076              -0.220906076               0.000000000              -0.246278251              -0.246278251               0.000000000              -0.271650426              -0.271650426               0.000000000              -0.297022601              -0.297022601               0.000000000              -0.322394776              -0.322394776               0.000000000              -0.347766951              -0.347766951               0.000000000              -0.373139126              -0.373139126               0.000000000              -0.398511300              -0.398511300               0.000000000              -0.423883475              -0.423883475               0.000000000              -0.449255650              -0.449255650               0.000000000              -0.474627825              -0.474627825               0.000000000              -0.500000000              -0.500000000               0.000000000              -0.084374307              -0.102810390               0.000000000              -0.106444663              -0.127634741               0.000000000              -0.128515018              -0.152459092               0.000000000              -0.150585374              -0.177283442               0.000000000              -0.172655730              -0.202107793               0.000000000              -0.194726086              -0.226932143               0.000000000              -0.216796442              -0.251756494               0.000000000              -0.238866798              -0.276580845               0.000000000              -0.260937153              -0.301405195               0.000000000              -0.283007509              -0.326229546               0.000000000              -0.305077865              -0.351053896               0.000000000              -0.327148221              -0.375878247               0.000000000              -0.349218577              -0.400702598               0.000000000              -0.371288933              -0.425526948               0.000000000              -0.393359288              -0.450351299               0.000000000              -0.415429644              -0.475175649               0.000000000              -0.437500000              -0.500000000               0.000000000              -0.073890841              -0.110585458               0.000000000              -0.092710163              -0.134923867               0.000000000              -0.111529486              -0.159262276               0.000000000              -0.130348808              -0.183600685               0.000000000              -0.149168131              -0.207939094               0.000000000              -0.167987453              -0.232277503               0.000000000              -0.186806776              -0.256615912               0.000000000              -0.205626098              -0.280954320               0.000000000              -0.224445420              -0.305292729               0.000000000              -0.243264743              -0.329631138               0.000000000              -0.262084065              -0.353969547               0.000000000              -0.280903388              -0.378307956               0.000000000              -0.299722710              -0.402646365               0.000000000              -0.318542033              -0.426984773               0.000000000              -0.337361355              -0.451323182               0.000000000              -0.356180678              -0.475661591               0.000000000              -0.375000000              -0.500000000               0.000000000              -0.062695766              -0.117295528               0.000000000              -0.078308531              -0.141214558               0.000000000              -0.093921295              -0.165133587               0.000000000              -0.109534060              -0.189052617               0.000000000              -0.125146824              -0.212971646               0.000000000              -0.140759589              -0.236890676               0.000000000              -0.156372354              -0.260809705               0.000000000              -0.171985118              -0.284728735               0.000000000              -0.187597883              -0.308647764               0.000000000              -0.203210648              -0.332566794               0.000000000              -0.218823412              -0.356485823               0.000000000              -0.234436177              -0.380404853               0.000000000              -0.250048941              -0.404323882               0.000000000              -0.265661706              -0.428242912               0.000000000              -0.281274471              -0.452161941               0.000000000              -0.296887235              -0.476080971               0.000000000              -0.312500000              -0.500000000               0.000000000              -0.050896897              -0.122875978               0.000000000              -0.063340840              -0.146446229               0.000000000              -0.075784784              -0.170016481               0.000000000              -0.088228728              -0.193586732               0.000000000              -0.100672672              -0.217156983               0.000000000              -0.113116616              -0.240727235               0.000000000              -0.125560560              -0.264297486               0.000000000              -0.138004504              -0.287867738               0.000000000              -0.150448448              -0.311437989               0.000000000              -0.162892392              -0.335008240               0.000000000              -0.175336336              -0.358578492               0.000000000              -0.187780280              -0.382148743               0.000000000              -0.200224224              -0.405718994               0.000000000              -0.212668168              -0.429289246               0.000000000              -0.225112112              -0.452859497               0.000000000              -0.237556056              -0.476429749               0.000000000              -0.250000000              -0.500000000               0.000000000              -0.038607862              -0.127273065               0.000000000              -0.047913621              -0.150568498               0.000000000              -0.057219379              -0.173863932               0.000000000              -0.066525138              -0.197159365               0.000000000              -0.075830897              -0.220454798               0.000000000              -0.085136655              -0.243750232               0.000000000              -0.094442414              -0.267045665               0.000000000              -0.103748172              -0.290341099               0.000000000              -0.113053931              -0.313636532               0.000000000              -0.122359690              -0.336931966               0.000000000              -0.131665448              -0.360227399               0.000000000              -0.140971207              -0.383522833               0.000000000              -0.150276966              -0.406818266               0.000000000              -0.159582724              -0.430113700               0.000000000              -0.168888483              -0.453409133               0.000000000              -0.178194241              -0.476704567               0.000000000              -0.187500000              -0.500000000               0.000000000              -0.025947013              -0.130444442               0.000000000              -0.032137825              -0.153541665               0.000000000              -0.038328636              -0.176638887               0.000000000              -0.044519448              -0.199736109               0.000000000              -0.050710260              -0.222833332               0.000000000              -0.056901071              -0.245930554               0.000000000              -0.063091883              -0.269027776               0.000000000              -0.069282695              -0.292124999               0.000000000              -0.075473506              -0.315222221               0.000000000              -0.081664318              -0.338319444               0.000000000              -0.087855130              -0.361416666               0.000000000              -0.094045942              -0.384513888               0.000000000              -0.100236753              -0.407611111               0.000000000              -0.106427565              -0.430708333               0.000000000              -0.112618377              -0.453805555               0.000000000              -0.118809188              -0.476902778               0.000000000              -0.125000000              -0.500000000               0.000000000              -0.013036280              -0.132359569               0.000000000              -0.016127762              -0.155337096               0.000000000              -0.019219245              -0.178314623               0.000000000              -0.022310727              -0.201292150               0.000000000              -0.025402210              -0.224269676               0.000000000              -0.028493692              -0.247247203               0.000000000              -0.031585175              -0.270224730               0.000000000              -0.034676657              -0.293202257               0.000000000              -0.037768140              -0.316179784               0.000000000              -0.040859622              -0.339157311               0.000000000              -0.043951105              -0.362134838               0.000000000              -0.047042587              -0.385112365               0.000000000              -0.050134070              -0.408089892               0.000000000              -0.053225552              -0.431067419               0.000000000              -0.056317035              -0.454044946               0.000000000              -0.059408517              -0.477022473               0.000000000              -0.062500000              -0.500000000               0.000000000               0.000000000              -0.133000000               0.000000000               0.000000000              -0.155937500               0.000000000               0.000000000              -0.178875000               0.000000000               0.000000000              -0.201812500               0.000000000               0.000000000              -0.224750000               0.000000000               0.000000000              -0.247687500               0.000000000               0.000000000              -0.270625000               0.000000000               0.000000000              -0.293562500               0.000000000               0.000000000              -0.316500000               0.000000000               0.000000000              -0.339437500               0.000000000               0.000000000              -0.362375000               0.000000000               0.000000000              -0.385312500               0.000000000               0.000000000              -0.408250000               0.000000000               0.000000000              -0.431187500               0.000000000               0.000000000              -0.454125000               0.000000000               0.000000000              -0.477062500               0.000000000               0.000000000              -0.500000000               0.000000000              -0.133000000               0.000000000               0.000000000              -0.155937500               0.000000000               0.000000000              -0.178875000               0.000000000               0.000000000              -0.201812500               0.000000000               0.000000000              -0.224750000               0.000000000               0.000000000              -0.247687500               0.000000000               0.000000000              -0.270625000               0.000000000               0.000000000              -0.293562500               0.000000000               0.000000000              -0.316500000               0.000000000               0.000000000              -0.339437500               0.000000000               0.000000000              -0.362375000               0.000000000               0.000000000              -0.385312500               0.000000000               0.000000000              -0.408250000               0.000000000               0.000000000              -0.431187500               0.000000000               0.000000000              -0.454125000               0.000000000               0.000000000              -0.477062500               0.000000000               0.000000000              -0.500000000               0.000000000               0.000000000              -0.132359569               0.013036280               0.000000000              -0.155337096               0.016127762               0.000000000              -0.178314623               0.019219245               0.000000000              -0.201292150               0.022310727               0.000000000              -0.224269676               0.025402210               0.000000000              -0.247247203               0.028493692               0.000000000              -0.270224730               0.031585175               0.000000000              -0.293202257               0.034676657               0.000000000              -0.316179784               0.037768140               0.000000000              -0.339157311               0.040859622               0.000000000              -0.362134838               0.043951105               0.000000000              -0.385112365               0.047042587               0.000000000              -0.408089892               0.050134070               0.000000000              -0.431067419               0.053225552               0.000000000              -0.454044946               0.056317035               0.000000000              -0.477022473               0.059408517               0.000000000              -0.500000000               0.062500000               0.000000000              -0.130444442               0.025947013               0.000000000              -0.153541665               0.032137825               0.000000000              -0.176638887               0.038328636               0.000000000              -0.199736109               0.044519448               0.000000000              -0.222833332               0.050710260               0.000000000              -0.245930554               0.056901071               0.000000000              -0.269027776               0.063091883               0.000000000              -0.292124999               0.069282695               0.000000000              -0.315222221               0.075473506               0.000000000              -0.338319444               0.081664318               0.000000000              -0.361416666               0.087855130               0.000000000              -0.384513888               0.094045942               0.000000000              -0.407611111               0.100236753               0.000000000              -0.430708333               0.106427565               0.000000000              -0.453805555               0.112618377               0.000000000              -0.476902778               0.118809188               0.000000000              -0.500000000               0.125000000               0.000000000              -0.127273065               0.038607862               0.000000000              -0.150568498               0.047913621               0.000000000              -0.173863932               0.057219379               0.000000000              -0.197159365               0.066525138               0.000000000              -0.220454798               0.075830897               0.000000000              -0.243750232               0.085136655               0.000000000              -0.267045665               0.094442414               0.000000000              -0.290341099               0.103748172               0.000000000              -0.313636532               0.113053931               0.000000000              -0.336931966               0.122359690               0.000000000              -0.360227399               0.131665448               0.000000000              -0.383522833               0.140971207               0.000000000              -0.406818266               0.150276966               0.000000000              -0.430113700               0.159582724               0.000000000              -0.453409133               0.168888483               0.000000000              -0.476704567               0.178194241               0.000000000              -0.500000000               0.187500000               0.000000000              -0.122875978               0.050896897               0.000000000              -0.146446229               0.063340840               0.000000000              -0.170016481               0.075784784               0.000000000              -0.193586732               0.088228728               0.000000000              -0.217156983               0.100672672               0.000000000              -0.240727235               0.113116616               0.000000000              -0.264297486               0.125560560               0.000000000              -0.287867738               0.138004504               0.000000000              -0.311437989               0.150448448               0.000000000              -0.335008240               0.162892392               0.000000000              -0.358578492               0.175336336               0.000000000              -0.382148743               0.187780280               0.000000000              -0.405718994               0.200224224               0.000000000              -0.429289246               0.212668168               0.000000000              -0.452859497               0.225112112               0.000000000              -0.476429749               0.237556056               0.000000000              -0.500000000               0.250000000               0.000000000              -0.117295528               0.062695766               0.000000000              -0.141214558               0.078308531               0.000000000              -0.165133587               0.093921295               0.000000000              -0.189052617               0.109534060               0.000000000              -0.212971646               0.125146824               0.000000000              -0.236890676               0.140759589               0.000000000              -0.260809705               0.156372354               0.000000000              -0.284728735               0.171985118               0.000000000              -0.308647764               0.187597883               0.000000000              -0.332566794               0.203210648               0.000000000              -0.356485823               0.218823412               0.000000000              -0.380404853               0.234436177               0.000000000              -0.404323882               0.250048941               0.000000000              -0.428242912               0.265661706               0.000000000              -0.452161941               0.281274471               0.000000000              -0.476080971               0.296887235               0.000000000              -0.500000000               0.312500000               0.000000000              -0.110585458               0.073890841               0.000000000              -0.134923867               0.092710163               0.000000000              -0.159262276               0.111529486               0.000000000              -0.183600685               0.130348808               0.000000000              -0.207939094               0.149168131               0.000000000              -0.232277503               0.167987453               0.000000000              -0.256615912               0.186806776               0.000000000              -0.280954320               0.205626098               0.000000000              -0.305292729               0.224445420               0.000000000              -0.329631138               0.243264743               0.000000000              -0.353969547               0.262084065               0.000000000              -0.378307956               0.280903388               0.000000000              -0.402646365               0.299722710               0.000000000              -0.426984773               0.318542033               0.000000000              -0.451323182               0.337361355               0.000000000              -0.475661591               0.356180678               0.000000000              -0.500000000               0.375000000               0.000000000              -0.102810390               0.084374307               0.000000000              -0.127634741               0.106444663               0.000000000              -0.152459092               0.128515018               0.000000000              -0.177283442               0.150585374               0.000000000              -0.202107793               0.172655730               0.000000000              -0.226932143               0.194726086               0.000000000              -0.251756494               0.216796442               0.000000000              -0.276580845               0.238866798               0.000000000              -0.301405195               0.260937153               0.000000000              -0.326229546               0.283007509               0.000000000              -0.351053896               0.305077865               0.000000000              -0.375878247               0.327148221               0.000000000              -0.400702598               0.349218577               0.000000000              -0.425526948               0.371288933               0.000000000              -0.450351299               0.393359288               0.000000000              -0.475175649               0.415429644               0.000000000              -0.500000000               0.437500000               0.000000000              -0.094045202               0.094045202               0.000000000              -0.119417377               0.119417377               0.000000000              -0.144789552               0.144789552               0.000000000              -0.170161727               0.170161727               0.000000000              -0.195533901               0.195533901               0.000000000              -0.220906076               0.220906076               0.000000000              -0.246278251               0.246278251               0.000000000              -0.271650426               0.271650426               0.000000000              -0.297022601               0.297022601               0.000000000              -0.322394776               0.322394776               0.000000000              -0.347766951               0.347766951               0.000000000              -0.373139126               0.373139126               0.000000000              -0.398511300               0.398511300               0.000000000              -0.423883475               0.423883475               0.000000000              -0.449255650               0.449255650               0.000000000              -0.474627825               0.474627825               0.000000000              -0.500000000               0.500000000               0.000000000              -0.084374307               0.102810390               0.000000000              -0.106444663               0.127634741               0.000000000              -0.128515018               0.152459092               0.000000000              -0.150585374               0.177283442               0.000000000              -0.172655730               0.202107793               0.000000000              -0.194726086               0.226932143               0.000000000              -0.216796442               0.251756494               0.000000000              -0.238866798               0.276580845               0.000000000              -0.260937153               0.301405195               0.000000000              -0.283007509               0.326229546               0.000000000              -0.305077865               0.351053896               0.000000000              -0.327148221               0.375878247               0.000000000              -0.349218577               0.400702598               0.000000000              -0.371288933               0.425526948               0.000000000              -0.393359288               0.450351299               0.000000000              -0.415429644               0.475175649               0.000000000              -0.437500000               0.500000000               0.000000000              -0.073890841               0.110585458               0.000000000              -0.092710163               0.134923867               0.000000000              -0.111529486               0.159262276               0.000000000              -0.130348808               0.183600685               0.000000000              -0.149168131               0.207939094               0.000000000              -0.167987453               0.232277503               0.000000000              -0.186806776               0.256615912               0.000000000              -0.205626098               0.280954320               0.000000000              -0.224445420               0.305292729               0.000000000              -0.243264743               0.329631138               0.000000000              -0.262084065               0.353969547               0.000000000              -0.280903388               0.378307956               0.000000000              -0.299722710               0.402646365               0.000000000              -0.318542033               0.426984773               0.000000000              -0.337361355               0.451323182               0.000000000              -0.356180678               0.475661591               0.000000000              -0.375000000               0.500000000               0.000000000              -0.062695766               0.117295528               0.000000000              -0.078308531               0.141214558               0.000000000              -0.093921295               0.165133587               0.000000000              -0.109534060               0.189052617               0.000000000              -0.125146824               0.212971646               0.000000000              -0.140759589               0.236890676               0.000000000              -0.156372354               0.260809705               0.000000000              -0.171985118               0.284728735               0.000000000              -0.187597883               0.308647764               0.000000000              -0.203210648               0.332566794               0.000000000              -0.218823412               0.356485823               0.000000000              -0.234436177               0.380404853               0.000000000              -0.250048941               0.404323882               0.000000000              -0.265661706               0.428242912               0.000000000              -0.281274471               0.452161941               0.000000000              -0.296887235               0.476080971               0.000000000              -0.312500000               0.500000000               0.000000000              -0.050896897               0.122875978               0.000000000              -0.063340840               0.146446229               0.000000000              -0.075784784               0.170016481               0.000000000              -0.088228728               0.193586732               0.000000000              -0.100672672               0.217156983               0.000000000              -0.113116616               0.240727235               0.000000000              -0.125560560               0.264297486               0.000000000              -0.138004504               0.287867738               0.000000000              -0.150448448               0.311437989               0.000000000              -0.162892392               0.335008240               0.000000000              -0.175336336               0.358578492               0.000000000              -0.187780280               0.382148743               0.000000000              -0.200224224               0.405718994               0.000000000              -0.212668168               0.429289246               0.000000000              -0.225112112               0.452859497               0.000000000              -0.237556056               0.476429749               0.000000000              -0.250000000               0.500000000               0.000000000              -0.038607862               0.127273065               0.000000000              -0.047913621               0.150568498               0.000000000              -0.057219379               0.173863932               0.000000000              -0.066525138               0.197159365               0.000000000              -0.075830897               0.220454798               0.000000000              -0.085136655               0.243750232               0.000000000              -0.094442414               0.267045665               0.000000000              -0.103748172               0.290341099               0.000000000              -0.113053931               0.313636532               0.000000000              -0.122359690               0.336931966               0.000000000              -0.131665448               0.360227399               0.000000000              -0.140971207               0.383522833               0.000000000              -0.150276966               0.406818266               0.000000000              -0.159582724               0.430113700               0.000000000              -0.168888483               0.453409133               0.000000000              -0.178194241               0.476704567               0.000000000              -0.187500000               0.500000000               0.000000000              -0.025947013               0.130444442               0.000000000              -0.032137825               0.153541665               0.000000000              -0.038328636               0.176638887               0.000000000              -0.044519448               0.199736109               0.000000000              -0.050710260               0.222833332               0.000000000              -0.056901071               0.245930554               0.000000000              -0.063091883               0.269027776               0.000000000              -0.069282695               0.292124999               0.000000000              -0.075473506               0.315222221               0.000000000              -0.081664318               0.338319444               0.000000000              -0.087855130               0.361416666               0.000000000              -0.094045942               0.384513888               0.000000000              -0.100236753               0.407611111               0.000000000              -0.106427565               0.430708333               0.000000000              -0.112618377               0.453805555               0.000000000              -0.118809188               0.476902778               0.000000000              -0.125000000               0.500000000               0.000000000              -0.013036280               0.132359569               0.000000000              -0.016127762               0.155337096               0.000000000              -0.019219245               0.178314623               0.000000000              -0.022310727               0.201292150               0.000000000              -0.025402210               0.224269676               0.000000000              -0.028493692               0.247247203               0.000000000              -0.031585175               0.270224730               0.000000000              -0.034676657               0.293202257               0.000000000              -0.037768140               0.316179784               0.000000000              -0.040859622               0.339157311               0.000000000              -0.043951105               0.362134838               0.000000000              -0.047042587               0.385112365               0.000000000              -0.050134070               0.408089892               0.000000000              -0.053225552               0.431067419               0.000000000              -0.056317035               0.454044946               0.000000000              -0.059408517               0.477022473               0.000000000              -0.062500000               0.500000000               0.000000000               0.000000000               0.133000000               0.000000000               0.000000000               0.155937500               0.000000000               0.000000000               0.178875000               0.000000000               0.000000000               0.201812500               0.000000000               0.000000000               0.224750000               0.000000000               0.000000000               0.247687500               0.000000000               0.000000000               0.270625000               0.000000000               0.000000000               0.293562500               0.000000000               0.000000000               0.316500000               0.000000000               0.000000000               0.339437500               0.000000000               0.000000000               0.362375000               0.000000000               0.000000000               0.385312500               0.000000000               0.000000000               0.408250000               0.000000000               0.000000000               0.431187500               0.000000000               0.000000000               0.454125000               0.000000000               0.000000000               0.477062500               0.000000000               0.000000000               0.500000000               0.000000000 </DataArray>
</Points>
<Cells>
<DataArray type="Int32"                                    Name="connectivity"                                                      NumberOfComponents=" 1" format="ascii">
         0          1         18         17          1          2         19         18          2          3         20         19          3          4         21         20          4          5         22         21          5          6         23         22          6          7         24         23          7          8         25         24          8          9         26         25          9         10         27         26         10         11         28         27         11         12         29         28         12         13         30         29         13         14         31         30         14         15         32         31         15         16         33         32         17         18         35         34         18         19         36         35         19         20         37         36         20         21         38         37         21         22         39         38         22         23         40         39         23         24         41         40         24         25         42         41         25         26         43         42         26         27         44         43         27         28         45         44         28         29         46         45         29         30         47         46         30         31         48         47         31         32         49         48         32         33         50         49         34         35         52         51         35         36         53         52         36         37         54         53         37         38         55         54         38         39         56         55         39         40         57         56         40         41         58         57         41         42         59         58         42         43         60         59         43         44         61         60         44         45         62         61         45         46         63         62         46         47         64         63         47         48         65         64         48         49         66         65         49         50         67         66         51         52         69         68         52         53         70         69         53         54         71         70         54         55         72         71         55         56         73         72         56         57         74         73         57         58         75         74         58         59         76         75         59         60         77         76         60         61         78         77         61         62         79         78         62         63         80         79         63         64         81         80         64         65         82         81         65         66         83         82         66         67         84         83         68         69         86         85         69         70         87         86         70         71         88         87         71         72         89         88         72         73         90         89         73         74         91         90         74         75         92         91         75         76         93         92         76         77         94         93         77         78         95         94         78         79         96         95         79         80         97         96         80         81         98         97         81         82         99         98         82         83        100         99         83         84        101        100         85         86        103        102         86         87        104        103         87         88        105        104         88         89        106        105         89         90        107        106         90         91        108        107         91         92        109        108         92         93        110        109         93         94        111        110         94         95        112        111         95         96        113        112         96         97        114        113         97         98        115        114         98         99        116        115         99        100        117        116        100        101        118        117        102        103        120        119        103        104        121        120        104        105        122        121        105        106        123        122        106        107        124        123        107        108        125        124        108        109        126        125        109        110        127        126        110        111        128        127        111        112        129        128        112        113        130        129        113        114        131        130        114        115        132        131        115        116        133        132        116        117        134        133        117        118        135        134        119        120        137        136        120        121        138        137        121        122        139        138        122        123        140        139        123        124        141        140        124        125        142        141        125        126        143        142        126        127        144        143        127        128        145        144        128        129        146        145        129        130        147        146        130        131        148        147        131        132        149        148        132        133        150        149        133        134        151        150        134        135        152        151        136        137        154        153        137        138        155        154        138        139        156        155        139        140        157        156        140        141        158        157        141        142        159        158        142        143        160        159        143        144        161        160        144        145        162        161        145        146        163        162        146        147        164        163        147        148        165        164        148        149        166        165        149        150        167        166        150        151        168        167        151        152        169        168        153        154        171        170        154        155        172        171        155        156        173        172        156        157        174        173        157        158        175        174        158        159        176        175        159        160        177        176        160        161        178        177        161        162        179        178        162        163        180        179        163        164        181        180        164        165        182        181        165        166        183        182        166        167        184        183        167        168        185        184        168        169        186        185        170        171        188        187        171        172        189        188        172        173        190        189        173        174        191        190        174        175        192        191        175        176        193        192        176        177        194        193        177        178        195        194        178        179        196        195        179        180        197        196        180        181        198        197        181        182        199        198        182        183        200        199        183        184        201        200        184        185        202        201        185        186        203        202        187        188        205        204        188        189        206        205        189        190        207        206        190        191        208        207        191        192        209        208        192        193        210        209        193        194        211        210        194        195        212        211        195        196        213        212        196        197        214        213        197        198        215        214        198        199        216        215        199        200        217        216        200        201        218        217        201        202        219        218        202        203        220        219        204        205        222        221        205        206        223        222        206        207        224        223        207        208        225        224        208        209        226        225        209        210        227        226        210        211        228        227        211        212        229        228        212        213        230        229        213        214        231        230        214        215        232        231        215        216        233        232        216        217        234        233        217        218        235        234        218        219        236        235        219        220        237        236        221        222        239        238        222        223        240        239        223        224        241        240        224        225        242        241        225        226        243        242        226        227        244        243        227        228        245        244        228        229        246        245        229        230        247        246        230        231        248        247        231        232        249        248        232        233        250        249        233        234        251        250        234        235        252        251        235        236        253        252        236        237        254        253        238        239        256        255        239        240        257        256        240        241        258        257        241        242        259        258        242        243        260        259        243        244        261        260        244        245        262        261        245        246        263        262        246        247        264        263        247        248        265        264        248        249        266        265        249        250        267        266        250        251        268        267        251        252        269        268        252        253        270        269        253        254        271        270        255        256        273        272        256        257        274        273        257        258        275        274        258        259        276        275        259        260        277        276        260        261        278        277        261        262        279        278        262        263        280        279        263        264        281        280        264        265        282        281        265        266        283        282        266        267        284        283        267        268        285        284        268        269        286        285        269        270        287        286        270        271        288        287        306        307          1          0        307        308          2          1        308        309          3          2        309        310          4          3        310        311          5          4        311        312          6          5        312        313          7          6        313        314          8          7        314        315          9          8        315        316         10          9        316        317         11         10        317        318         12         11        318        319         13         12        319        320         14         13        320        321         15         14        321        322         16         15        323        324        307        306        324        325        308        307        325        326        309        308        326        327        310        309        327        328        311        310        328        329        312        311        329        330        313        312        330        331        314        313        331        332        315        314        332        333        316        315        333        334        317        316        334        335        318        317        335        336        319        318        336        337        320        319        337        338        321        320        338        339        322        321        340        341        324        323        341        342        325        324        342        343        326        325        343        344        327        326        344        345        328        327        345        346        329        328        346        347        330        329        347        348        331        330        348        349        332        331        349        350        333        332        350        351        334        333        351        352        335        334        352        353        336        335        353        354        337        336        354        355        338        337        355        356        339        338        357        358        341        340        358        359        342        341        359        360        343        342        360        361        344        343        361        362        345        344        362        363        346        345        363        364        347        346        364        365        348        347        365        366        349        348        366        367        350        349        367        368        351        350        368        369        352        351        369        370        353        352        370        371        354        353        371        372        355        354        372        373        356        355        374        375        358        357        375        376        359        358        376        377        360        359        377        378        361        360        378        379        362        361        379        380        363        362        380        381        364        363        381        382        365        364        382        383        366        365        383        384        367        366        384        385        368        367        385        386        369        368        386        387        370        369        387        388        371        370        388        389        372        371        389        390        373        372        391        392        375        374        392        393        376        375        393        394        377        376        394        395        378        377        395        396        379        378        396        397        380        379        397        398        381        380        398        399        382        381        399        400        383        382        400        401        384        383        401        402        385        384        402        403        386        385        403        404        387        386        404        405        388        387        405        406        389        388        406        407        390        389        408        409        392        391        409        410        393        392        410        411        394        393        411        412        395        394        412        413        396        395        413        414        397        396        414        415        398        397        415        416        399        398        416        417        400        399        417        418        401        400        418        419        402        401        419        420        403        402        420        421        404        403        421        422        405        404        422        423        406        405        423        424        407        406        425        426        409        408        426        427        410        409        427        428        411        410        428        429        412        411        429        430        413        412        430        431        414        413        431        432        415        414        432        433        416        415        433        434        417        416        434        435        418        417        435        436        419        418        436        437        420        419        437        438        421        420        438        439        422        421        439        440        423        422        440        441        424        423        442        443        426        425        443        444        427        426        444        445        428        427        445        446        429        428        446        447        430        429        447        448        431        430        448        449        432        431        449        450        433        432        450        451        434        433        451        452        435        434        452        453        436        435        453        454        437        436        454        455        438        437        455        456        439        438        456        457        440        439        457        458        441        440        459        460        443        442        460        461        444        443        461        462        445        444        462        463        446        445        463        464        447        446        464        465        448        447        465        466        449        448        466        467        450        449        467        468        451        450        468        469        452        451        469        470        453        452        470        471        454        453        471        472        455        454        472        473        456        455        473        474        457        456        474        475        458        457        476        477        460        459        477        478        461        460        478        479        462        461        479        480        463        462        480        481        464        463        481        482        465        464        482        483        466        465        483        484        467        466        484        485        468        467        485        486        469        468        486        487        470        469        487        488        471        470        488        489        472        471        489        490        473        472        490        491        474        473        491        492        475        474        493        494        477        476        494        495        478        477        495        496        479        478        496        497        480        479        497        498        481        480        498        499        482        481        499        500        483        482        500        501        484        483        501        502        485        484        502        503        486        485        503        504        487        486        504        505        488        487        505        506        489        488        506        507        490        489        507        508        491        490        508        509        492        491        510        511        494        493        511        512        495        494        512        513        496        495        513        514        497        496        514        515        498        497        515        516        499        498        516        517        500        499        517        518        501        500        518        519        502        501        519        520        503        502        520        521        504        503        521        522        505        504        522        523        506        505        523        524        507        506        524        525        508        507        525        526        509        508        527        528        511        510        528        529        512        511        529        530        513        512        530        531        514        513        531        532        515        514        532        533        516        515        533        534        517        516        534        535        518        517        535        536        519        518        536        537        520        519        537        538        521        520        538        539        522        521        539        540        523        522        540        541        524        523        541        542        525        524        542        543        526        525        544        545        528        527        545        546        529        528        546        547        530        529        547        548        531        530        548        549        532        531        549        550        533        532        550        551        534        533        551        552        535        534        552        553        536        535        553        554        537        536        554        555        538        537        555        556        539        538        556        557        540        539        557        558        541        540        558        559        542        541        559        560        543        542        561        562        545        544        562        563        546        545        563        564        547        546        564        565        548        547        565        566        549        548        566        567        550        549        567        568        551        550        568        569        552        551        569        570        553        552        570        571        554        553        571        572        555        554        572        573        556        555        573        574        557        556        574        575        558        557        575        576        559        558        576        577        560        559        578        579        596        595        579        580        597        596        580        581        598        597        581        582        599        598        582        583        600        599        583        584        601        600        584        585        602        601        585        586        603        602        586        587        604        603        587        588        605        604        588        589        606        605        589        590        607        606        590        591        608        607        591        592        609        608        592        593        610        609        593        594        611        610        595        596        613        612        596        597        614        613        597        598        615        614        598        599        616        615        599        600        617        616        600        601        618        617        601        602        619        618        602        603        620        619        603        604        621        620        604        605        622        621        605        606        623        622        606        607        624        623        607        608        625        624        608        609        626        625        609        610        627        626        610        611        628        627        612        613        630        629        613        614        631        630        614        615        632        631        615        616        633        632        616        617        634        633        617        618        635        634        618        619        636        635        619        620        637        636        620        621        638        637        621        622        639        638        622        623        640        639        623        624        641        640        624        625        642        641        625        626        643        642        626        627        644        643        627        628        645        644        629        630        647        646        630        631        648        647        631        632        649        648        632        633        650        649        633        634        651        650        634        635        652        651        635        636        653        652        636        637        654        653        637        638        655        654        638        639        656        655        639        640        657        656        640        641        658        657        641        642        659        658        642        643        660        659        643        644        661        660        644        645        662        661        646        647        664        663        647        648        665        664        648        649        666        665        649        650        667        666        650        651        668        667        651        652        669        668        652        653        670        669        653        654        671        670        654        655        672        671        655        656        673        672        656        657        674        673        657        658        675        674        658        659        676        675        659        660        677        676        660        661        678        677        661        662        679        678        663        664        681        680        664        665        682        681        665        666        683        682        666        667        684        683        667        668        685        684        668        669        686        685        669        670        687        686        670        671        688        687        671        672        689        688        672        673        690        689        673        674        691        690        674        675        692        691        675        676        693        692        676        677        694        693        677        678        695        694        678        679        696        695        680        681        698        697        681        682        699        698        682        683        700        699        683        684        701        700        684        685        702        701        685        686        703        702        686        687        704        703        687        688        705        704        688        689        706        705        689        690        707        706        690        691        708        707        691        692        709        708        692        693        710        709        693        694        711        710        694        695        712        711        695        696        713        712        697        698        715        714        698        699        716        715        699        700        717        716        700        701        718        717        701        702        719        718        702        703        720        719        703        704        721        720        704        705        722        721        705        706        723        722        706        707        724        723        707        708        725        724        708        709        726        725        709        710        727        726        710        711        728        727        711        712        729        728        712        713        730        729        714        715        732        731        715        716        733        732        716        717        734        733        717        718        735        734        718        719        736        735        719        720        737        736        720        721        738        737        721        722        739        738        722        723        740        739        723        724        741        740        724        725        742        741        725        726        743        742        726        727        744        743        727        728        745        744        728        729        746        745        729        730        747        746        731        732        749        748        732        733        750        749        733        734        751        750        734        735        752        751        735        736        753        752        736        737        754        753        737        738        755        754        738        739        756        755        739        740        757        756        740        741        758        757        741        742        759        758        742        743        760        759        743        744        761        760        744        745        762        761        745        746        763        762        746        747        764        763        748        749        766        765        749        750        767        766        750        751        768        767        751        752        769        768        752        753        770        769        753        754        771        770        754        755        772        771        755        756        773        772        756        757        774        773        757        758        775        774        758        759        776        775        759        760        777        776        760        761        778        777        761        762        779        778        762        763        780        779        763        764        781        780        765        766        783        782        766        767        784        783        767        768        785        784        768        769        786        785        769        770        787        786        770        771        788        787        771        772        789        788        772        773        790        789        773        774        791        790        774        775        792        791        775        776        793        792        776        777        794        793        777        778        795        794        778        779        796        795        779        780        797        796        780        781        798        797        782        783        800        799        783        784        801        800        784        785        802        801        785        786        803        802        786        787        804        803        787        788        805        804        788        789        806        805        789        790        807        806        790        791        808        807        791        792        809        808        792        793        810        809        793        794        811        810        794        795        812        811        795        796        813        812        796        797        814        813        797        798        815        814        799        800        817        816        800        801        818        817        801        802        819        818        802        803        820        819        803        804        821        820        804        805        822        821        805        806        823        822        806        807        824        823        807        808        825        824        808        809        826        825        809        810        827        826        810        811        828        827        811        812        829        828        812        813        830        829        813        814        831        830        814        815        832        831        816        817        834        833        817        818        835        834        818        819        836        835        819        820        837        836        820        821        838        837        821        822        839        838        822        823        840        839        823        824        841        840        824        825        842        841        825        826        843        842        826        827        844        843        827        828        845        844        828        829        846        845        829        830        847        846        830        831        848        847        831        832        849        848        833        834        562        561        834        835        563        562        835        836        564        563        836        837        565        564        837        838        566        565        838        839        567        566        839        840        568        567        840        841        569        568        841        842        570        569        842        843        571        570        843        844        572        571        844        845        573        572        845        846        574        573        846        847        575        574        847        848        576        575        848        849        577        576        884        885        579        578        885        886        580        579        886        887        581        580        887        888        582        581        888        889        583        582        889        890        584        583        890        891        585        584        891        892        586        585        892        893        587        586        893        894        588        587        894        895        589        588        895        896        590        589        896        897        591        590        897        898        592        591        898        899        593        592        899        900        594        593        901        902        885        884        902        903        886        885        903        904        887        886        904        905        888        887        905        906        889        888        906        907        890        889        907        908        891        890        908        909        892        891        909        910        893        892        910        911        894        893        911        912        895        894        912        913        896        895        913        914        897        896        914        915        898        897        915        916        899        898        916        917        900        899        918        919        902        901        919        920        903        902        920        921        904        903        921        922        905        904        922        923        906        905        923        924        907        906        924        925        908        907        925        926        909        908        926        927        910        909        927        928        911        910        928        929        912        911        929        930        913        912        930        931        914        913        931        932        915        914        932        933        916        915        933        934        917        916        935        936        919        918        936        937        920        919        937        938        921        920        938        939        922        921        939        940        923        922        940        941        924        923        941        942        925        924        942        943        926        925        943        944        927        926        944        945        928        927        945        946        929        928        946        947        930        929        947        948        931        930        948        949        932        931        949        950        933        932        950        951        934        933        952        953        936        935        953        954        937        936        954        955        938        937        955        956        939        938        956        957        940        939        957        958        941        940        958        959        942        941        959        960        943        942        960        961        944        943        961        962        945        944        962        963        946        945        963        964        947        946        964        965        948        947        965        966        949        948        966        967        950        949        967        968        951        950        969        970        953        952        970        971        954        953        971        972        955        954        972        973        956        955        973        974        957        956        974        975        958        957        975        976        959        958        976        977        960        959        977        978        961        960        978        979        962        961        979        980        963        962        980        981        964        963        981        982        965        964        982        983        966        965        983        984        967        966        984        985        968        967        986        987        970        969        987        988        971        970        988        989        972        971        989        990        973        972        990        991        974        973        991        992        975        974        992        993        976        975        993        994        977        976        994        995        978        977        995        996        979        978        996        997        980        979        997        998        981        980        998        999        982        981        999       1000        983        982       1000       1001        984        983       1001       1002        985        984       1003       1004        987        986       1004       1005        988        987       1005       1006        989        988       1006       1007        990        989       1007       1008        991        990       1008       1009        992        991       1009       1010        993        992       1010       1011        994        993       1011       1012        995        994       1012       1013        996        995       1013       1014        997        996       1014       1015        998        997       1015       1016        999        998       1016       1017       1000        999       1017       1018       1001       1000       1018       1019       1002       1001       1020       1021       1004       1003       1021       1022       1005       1004       1022       1023       1006       1005       1023       1024       1007       1006       1024       1025       1008       1007       1025       1026       1009       1008       1026       1027       1010       1009       1027       1028       1011       1010       1028       1029       1012       1011       1029       1030       1013       1012       1030       1031       1014       1013       1031       1032       1015       1014       1032       1033       1016       1015       1033       1034       1017       1016       1034       1035       1018       1017       1035       1036       1019       1018       1037       1038       1021       1020       1038       1039       1022       1021       1039       1040       1023       1022       1040       1041       1024       1023       1041       1042       1025       1024       1042       1043       1026       1025       1043       1044       1027       1026       1044       1045       1028       1027       1045       1046       1029       1028       1046       1047       1030       1029       1047       1048       1031       1030       1048       1049       1032       1031       1049       1050       1033       1032       1050       1051       1034       1033       1051       1052       1035       1034       1052       1053       1036       1035       1054       1055       1038       1037       1055       1056       1039       1038       1056       1057       1040       1039       1057       1058       1041       1040       1058       1059       1042       1041       1059       1060       1043       1042       1060       1061       1044       1043       1061       1062       1045       1044       1062       1063       1046       1045       1063       1064       1047       1046       1064       1065       1048       1047       1065       1066       1049       1048       1066       1067       1050       1049       1067       1068       1051       1050       1068       1069       1052       1051       1069       1070       1053       1052       1071       1072       1055       1054       1072       1073       1056       1055       1073       1074       1057       1056       1074       1075       1058       1057       1075       1076       1059       1058       1076       1077       1060       1059       1077       1078       1061       1060       1078       1079       1062       1061       1079       1080       1063       1062       1080       1081       1064       1063       1081       1082       1065       1064       1082       1083       1066       1065       1083       1084       1067       1066       1084       1085       1068       1067       1085       1086       1069       1068       1086       1087       1070       1069       1088       1089       1072       1071       1089       1090       1073       1072       1090       1091       1074       1073       1091       1092       1075       1074       1092       1093       1076       1075       1093       1094       1077       1076       1094       1095       1078       1077       1095       1096       1079       1078       1096       1097       1080       1079       1097       1098       1081       1080       1098       1099       1082       1081       1099       1100       1083       1082       1100       1101       1084       1083       1101       1102       1085       1084       1102       1103       1086       1085       1103       1104       1087       1086       1105       1106       1089       1088       1106       1107       1090       1089       1107       1108       1091       1090       1108       1109       1092       1091       1109       1110       1093       1092       1110       1111       1094       1093       1111       1112       1095       1094       1112       1113       1096       1095       1113       1114       1097       1096       1114       1115       1098       1097       1115       1116       1099       1098       1116       1117       1100       1099       1117       1118       1101       1100       1118       1119       1102       1101       1119       1120       1103       1102       1120       1121       1104       1103       1122       1123       1106       1105       1123       1124       1107       1106       1124       1125       1108       1107       1125       1126       1109       1108       1126       1127       1110       1109       1127       1128       1111       1110       1128       1129       1112       1111       1129       1130       1113       1112       1130       1131       1114       1113       1131       1132       1115       1114       1132       1133       1116       1115       1133       1134       1117       1116       1134       1135       1118       1117       1135       1136       1119       1118       1136       1137       1120       1119       1137       1138       1121       1120        272        273       1123       1122        273        274       1124       1123        274        275       1125       1124        275        276       1126       1125        276        277       1127       1126        277        278       1128       1127        278        279       1129       1128        279        280       1130       1129        280        281       1131       1130        281        282       1132       1131        282        283       1133       1132        283        284       1134       1133        284        285       1135       1134        285        286       1136       1135        286        287       1137       1136        287        288       1138       1137 </DataArray>
<DataArray type="Int32"                                    Name="offsets"                                                      NumberOfComponents=" 1" format="ascii">
         4          8         12         16         20         24         28         32         36         40         44         48         52         56         60         64         68         72         76         80         84         88         92         96        100        104        108        112        116        120        124        128        132        136        140        144        148        152        156        160        164        168        172        176        180        184        188        192        196        200        204        208        212        216        220        224        228        232        236        240        244        248        252        256        260        264        268        272        276        280        284        288        292        296        300        304        308        312        316        320        324        328        332        336        340        344        348        352        356        360        364        368        372        376        380        384        388        392        396        400        404        408        412        416        420        424        428        432        436        440        444        448        452        456        460        464        468        472        476        480        484        488        492        496        500        504        508        512        516        520        524        528        532        536        540        544        548        552        556        560        564        568        572        576        580        584        588        592        596        600        604        608        612        616        620        624        628        632        636        640        644        648        652        656        660        664        668        672        676        680        684        688        692        696        700        704        708        712        716        720        724        728        732        736        740        744        748        752        756        760        764        768        772        776        780        784        788        792        796        800        804        808        812        816        820        824        828        832        836        840        844        848        852        856        860        864        868        872        876        880        884        888        892        896        900        904        908        912        916        920        924        928        932        936        940        944        948        952        956        960        964        968        972        976        980        984        988        992        996       1000       1004       1008       1012       1016       1020       1024       1028       1032       1036       1040       1044       1048       1052       1056       1060       1064       1068       1072       1076       1080       1084       1088       1092       1096       1100       1104       1108       1112       1116       1120       1124       1128       1132       1136       1140       1144       1148       1152       1156       1160       1164       1168       1172       1176       1180       1184       1188       1192       1196       1200       1204       1208       1212       1216       1220       1224       1228       1232       1236       1240       1244       1248       1252       1256       1260       1264       1268       1272       1276       1280       1284       1288       1292       1296       1300       1304       1308       1312       1316       1320       1324       1328       1332       1336       1340       1344       1348       1352       1356       1360       1364       1368       1372       1376       1380       1384       1388       1392       1396       1400       1404       1408       1412       1416       1420       1424       1428       1432       1436       1440       1444       1448       1452       1456       1460       1464       1468       1472       1476       1480       1484       1488       1492       1496       1500       1504       1508       1512       1516       1520       1524       1528       1532       1536       1540       1544       1548       1552       1556       1560       1564       1568       1572       1576       1580       1584       1588       1592       1596       1600       1604       1608       1612       1616       1620       1624       1628       1632       1636       1640       1644       1648       1652       1656       1660       1664       1668       1672       1676       1680       1684       1688       1692       1696       1700       1704       1708       1712       1716       1720       1724       1728       1732       1736       1740       1744       1748       1752       1756       1760       1764       1768       1772       1776       1780       1784       1788       1792       1796       1800       1804       1808       1812       1816       1820       1824       1828       1832       1836       1840       1844       1848       1852       1856       1860       1864       1868       1872       1876       1880       1884       1888       1892       1896       1900       1904       1908       1912       1916       1920       1924       1928       1932       1936       1940       1944       1948       1952       1956       1960       1964       1968       1972       1976       1980       1984       1988       1992       1996       2000       2004       2008       2012       2016       2020       2024       2028       2032       2036       2040       2044       2048       2052       2056       2060       2064       2068       2072       2076       2080       2084       2088       2092       2096       2100       2104       2108       2112       2116       2120       2124       2128       2132       2136       2140       2144       2148       2152       2156       2160       2164       2168       2172       2176       2180       2184       2188       2192       2196       2200       2204       2208       2212       2216       2220       2224       2228       2232       2236       2240       2244       2248       2252       2256       2260       2264       2268       2272       2276       2280       2284       2288       2292       2296       2300       2304       2308       2312       2316       2320       2324       2328       2332       2336       2340       2344       2348       2352       2356       2360       2364       2368       2372       2376       2380       2384       2388       2392       2396       2400       2404       2408       2412       2416       2420       2424       2428       2432       2436       2440       2444       2448       2452       2456       2460       2464       2468       2472       2476       2480       2484       2488       2492       2496       2500       2504       2508       2512       2516       2520       2524       2528       2532       2536       2540       2544       2548       2552       2556       2560       2564       2568       2572       2576       2580       2584       2588       2592       2596       2600       2604       2608       2612       2616       2620       2624       2628       2632       2636       2640       2644       2648       2652       2656       2660       2664       2668       2672       2676       2680       2684       2688       2692       2696       2700       2704       2708       2712       2716       2720       2724       2728       2732       2736       2740       2744       2748       2752       2756       2760       2764       2768       2772       2776       2780       2784       2788       2792       2796       2800       2804       2808       2812       2816       2820       2824       2828       2832       2836       2840       2844       2848       2852       2856       2860       2864       2868       2872       2876       2880       2884       2888       2892       2896       2900       2904       2908       2912       2916       2920       2924       2928       2932       2936       2940       2944       2948       2952       2956       2960       2964       2968       2972       2976       2980       2984       2988       2992       2996       3000       3004       3008       3012       3016       3020       3024       3028       3032       3036       3040       3044       3048       3052       3056       3060       3064       3068       3072       3076       3080       3084       3088       3092       3096       3100       3104       3108       3112       3116       3120       3124       3128       3132       3136       3140       3144       3148       3152       3156       3160       3164       3168       3172       3176       3180       3184       3188       3192       3196       3200       3204       3208       3212       3216       3220       3224       3228       3232       3236       3240       3244       3248       3252       3256       3260       3264       3268       3272       3276       3280       3284       3288       3292       3296       3300       3304       3308       3312       3316       3320       3324       3328       3332       3336       3340       3344       3348       3352       3356       3360       3364       3368       3372       3376       3380       3384       3388       3392       3396       3400       3404       3408       3412       3416       3420       3424       3428       3432       3436       3440       3444       3448       3452       3456       3460       3464       3468       3472       3476       3480       3484       3488       3492       3496       3500       3504       3508       3512       3516       3520       3524       3528       3532       3536       3540       3544       3548       3552       3556       3560       3564       3568       3572       3576       3580       3584       3588       3592       3596       3600       3604       3608       3612       3616       3620       3624       3628       3632       3636       3640       3644       3648       3652       3656       3660       3664       3668       3672       3676       3680       3684       3688       3692       3696       3700       3704       3708       3712       3716       3720       3724       3728       3732       3736       3740       3744       3748       3752       3756       3760       3764       3768       3772       3776       3780       3784       3788       3792       3796       3800       3804       3808       3812       3816       3820       3824       3828       3832       3836       3840       3844       3848       3852       3856       3860       3864       3868       3872       3876       3880       3884       3888       3892       3896       3900       3904       3908       3912       3916       3920       3924       3928       3932       3936       3940       3944       3948       3952       3956       3960       3964       3968       3972       3976       3980       3984       3988       3992       3996       4000       4004       4008       4012       4016       4020       4024       4028       4032       4036       4040       4044       4048       4052       4056       4060       4064       4068       4072       4076       4080       4084       4088       4092       4096 </DataArray>
<DataArray type="UInt8"                                    Name="types"                                                      NumberOfComponents=" 1" format="ascii">
         9          9          9          9          9          9          9          9          9          9          9          9          9          9          9          9          9          9          9          9          9          9          9          9          9          9          9          9          9          9          9          9          9          9          9          9          9          9          9          9          9          9          9          9          9          9          9          9          9          9          9          9          9          9          9          9          9          9          9          9          9          9          9          9          9          9          9          9          9          9          9          9          9          9          9          9          9          9          9          9          9          9          9          9          9          9          9          9          9          9          9          9          9          9          9          9          9          9          9          9          9          9          9          9          9          9          9          9          9          9          9          9          9          9          9          9          9          9          9          9          9          9          9          9          9          9          9          9          9          9          9          9          9          9          9          9          9          9          9          9          9          9          9          9          9          9          9          9          9          9          9          9          9          9          9          9          9          9          9          9          9          9          9          9          9          9          9          9          9          9          9          9          9          9          9          9          9          9          9          9          9          9          9          9          9          9          9          9          9          9          9          9          9          9          9          9          9          9          9          9          9          9          9          9          9          9          9          9          9          9          9          9          9          9          9          9          9          9          9          9          9          9          9          9          9          9          9          9          9          9          9          9          9          9          9          9          9          9          9          9          9          9          9          9          9          9          9          9          9          9          9          9          9          9          9          9          9          9          9          9          9          9          9          9          9          9          9          9          9          9          9          9          9          9          9          9          9          9          9          9          9          9          9          9          9          9          9          9          9          9          9          9          9          9          9          9          9          9          9          9          9          9          9          9          9          9          9          9          9          9          9          9          9          9          9          9          9          9          9          9          9          9          9          9          9          9          9          9          9          9          9          9          9          9          9          9          9          9          9          9          9          9          9          9          9          9          9          9          9          9          9          9          9          9          9          9          9          9          9          9          9          9          9          9          9          9          9          9          9          9          9          9          9          9          9          9          9          9          9          9          9          9          9          9          9          9          9          9          9          9          9          9          9          9          9          9          9          9          9          9          9          9          9          9          9          9          9          9          9          9          9          9          9          9          9          9          9          9          9          9          9          9          9          9          9          9          9          9          9          9          9          9          9          9          9          9          9          9          9          9          9          9          9          9          9          9          9          9          9          9          9          9          9          9          9          9          9          9          9          9          9          9          9          9          9          9          9          9          9          9          9          9          9          9          9          9          9          9          9          9          9          9          9          9          9          9          9          9          9          9          9          9          9          9          9          9          9          9          9          9          9          9          9          9          9          9          9          9          9          9          9          9          9          9          9          9          9          9          9          9          9          9          9          9          9          9          9          9          9          9          9          9          9          9          9          9          9          9          9          9          9          9          9          9          9          9          9          9          9          9          9          9          9          9          9          9          9          9          9          9          9          9          9          9          9          9          9          9          9          9          9          9          9          9          9          9          9          9          9          9          9          9          9          9          9          9          9          9          9          9          9          9          9          9          9          9          9          9          9          9          9          9          9          9          9          9          9          9          9          9          9          9          9          9          9          9          9          9          9          9          9          9          9          9          9          9          9          9          9          9          9          9          9          9          9          9          9          9          9          9          9          9          9          9          9          9          9          9          9          9          9          9          9          9          9          9          9          9          9          9          9          9          9          9          9          9          9          9          9          9          9          9          9          9          9          9          9          9          9          9          9          9          9          9          9          9          9          9          9          9          9          9          9          9          9          9          9          9          9          9          9          9          9          9          9          9          9          9          9          9          9          9          9          9          9          9          9          9          9          9          9          9          9          9          9          9          9          9          9          9          9          9          9          9          9          9          9          9          9          9          9          9          9          9          9          9          9          9          9          9          9          9          9          9          9          9          9          9          9          9          9          9          9          9          9          9          9          9          9          9          9          9          9          9          9          9          9          9          9          9          9          9          9          9          9          9          9          9          9          9          9          9          9          9          9          9          9          9          9          9          9          9          9          9          9          9          9          9          9          9          9          9          9          9          9          9          9          9          9          9          9          9          9          9          9          9          9          9          9          9          9          9          9          9          9          9          9          9          9          9          9          9          9          9          9          9          9          9          9          9          9          9          9          9          9          9          9          9          9          9          9          9          9          9          9          9          9          9          9          9          9          9          9          9          9          9          9          9          9          9          9          9          9          9          9          9          9          9          9          9          9          9          9          9          9          9          9          9          9          9          9          9          9          9          9          9          9          9          9          9          9          9          9          9          9          9          9          9          9          9          9          9          9          9          9          9          9          9          9          9          9          9          9          9          9          9          9          9          9          9          9          9          9          9          9          9          9          9          9          9          9          9          9          9          9          9          9          9          9          9          9          9          9          9          9          9          9          9          9          9          9          9          9          9          9          9          9          9          9          9          9          9          9          9          9          9          9          9          9          9          9          9          9          9          9          9          9          9          9          9          9          9          9          9          9          9          9          9          9          9          9          9          9          9          9          9          9          9          9          9          9          9          9          9 </DataArray>
</Cells>
<CellData>
<DataArray type="Int32"                                    Name="material"                                                      NumberOfComponents=" 1" format="ascii">
         1          1          1          1          1          1          1          1          1          1          1          1          1          1          1          1          1          1          1          1          1          1          1          1          1          1          1          1          1          1          1          1          1          1          1          1          1          1          1          1          1          1          1          1          1          1          1          1          1          1          1          1          1          1          1          1          1          1          1          1          1          1          1          1          1          1          1          1          1          1          1          1          1          1          1          1          1          1          1          1          1          1          1          1          1          1          1          1          1          1          1          1          1          1          1          1          1          1          1          1          1          1          1          1          1          1          1          1          1          1          1          1          1          1          1          1          1          1          1          1          1          1          1          1          1          1          1          1          1          1          1          1          1          1          1          1          1          1          1          1          1          1          1          1          1          1          1          1          1          1          1          1          1          1          1          1          1          1          1          1          1          1          1          1          1          1          1          1          1          1          1          1          1          1          1          1          1          1          1          1          1          1          1          1          1          1          1          1          1          1          1          1          1          1          1          1          1          1          1          1          1          1          1          1          1          1          1          1          1          1          1          1          1          1          1          1          1          1          1          1          1          1          1          1          1          1          1          1          1          1          1          1          1          1          1          1          1          1          1          1          1          1          1          1          1          1          1          1          1          1          1          1          1          1          1          1          1          1          1          1          1          1          1          1          1          1          1          1          1          1          1          1          1          1          1          1          1          1          1          1          1          1          1          1          1          1          1          1          1          1          1          1          1          1          1          1          1          1          1          1          1          1          1          1          1          1          1          1          1          1          1          1          1          1          1          1          1          1          1          1          1          1          1          1          1          1          1          1          1          1          1          1          1          1          1          1          1          1          1          1          1          1          1          1          1          1          1          1          1          1          1          1          1          1          1          1          1          1          1          1          1          1          1          1          1          1          1          1          1          1          1          1          1          1          1          1          1          1          1          1          1          1          1          1          1          1          1          1          1          1          1          1          1          1          1          1          1          1          1          1          1          1          1          1          1          1          1          1          1          1          1          1          1          1          1          1          1          1          1          1          1          1          1          1          1          1          1          1          1          1          1          1          1          1          1          1          1          1          1          1          1          1          1          1          1          1          1          1          1          1          1          1          1          1          1          1          1          1          1          1          1          1          1          1          1          1          1          1          1          1          1          1          1          1          1          1          1          1          1          1          1          1          1          1          1          1          1          1          1          1          1          1          1          1          1          1          1          1          1          1          1          1          1          1          1          1          1          1          1          1          1          1          1          1          1          1          1          1          1          1          1          1          1          1          1          1          1          1          1          1          1          1          1          1          1          1          1          1          1          1          1          1          1          1          1          1          1          1          1          1          1          1          1          1          1          1          1          1          1          1          1          1          1          1          1          1          1          1          1          1          1          1          1          1          1          1          1          1          1          1          1          1          1          1          1          1          1          1          1          1          1          1          1          1          1          1          1          1          1          1          1          1          1          1          1          1          1          1          1          1          1          1          1          1          1          1          1          1          1          1          1          1          1          1          1          1          1          1          1          1          1          1          1          1          1          1          1          1          1          1          1          1          1          1          1          1          1          1          1          1          1          1          1          1          1          1          1          1          1          1          1          1          1          1          1          1          1          1          1          1          1          1          1          1          1          1          1          1          1          1          1          1          1          1          1          1          1          1          1          1          1          1          1          1          1          1          1          1          1          1          1          1          1          1          1          1          1          1          1          1          1          1          1          1          1          1          1          1          1          1          1          1          1          1          1          1          1          1          1          1          1          1          1          1          1          1          1          1          1          1          1          1          1          1          1          1          1          1          1          1          1          1          1          1          1          1          1          1          1          1          1          1          1          1          1          1          1          1          1          1          1          1          1          1          1          1          1          1          1          1          1          1          1          1          1          1          1          1          1          1          1          1          1          1          1          1          1          1          1          1          1          1          1          1          1          1          1          1          1          1          1          1          1          1          1          1          1          1          1          1          1          1          1          1          1          1          1          1          1          1          1          1          1          1          1          1          1          1          1          1          1          1          1          1          1          1          1          1          1          1          1          1          1          1          1          1          1          1          1          1          1          1          1          1          1          1          1          1          1          1          1          1          1          1          1          1          1          1          1          1          1          1          1          1          1          1          1          1          1          1          1          1          1          1          1          1          1          1          1          1          1          1          1          1          1          1          1          1          1          1          1          1          1          1          1          1          1          1          1          1          1          1          1          1          1          1          1          1          1          1          1          1          1          1          1          1          1          1          1          1          1          1          1          1          1          1          1          1          1          1          1          1          1          1          1          1          1          1          1          1          1          1          1          1          1          1          1          1          1          1          1          1          1          1          1          1          1          1          1          1          1          1          1          1          1          1          1          1          1          1          1          1          1          1          1          1          1          1          1          1          1          1          1          1          1          1          1          1          1          1          1          1          1          1          1          1          1          1          1          1          1          1          1          1 </DataArray>
</CellData>
<PointData>
<DataArray type="Float64"                                    Name="u"                                                      NumberOfComponents=" 3" format="ascii">
             -0.000814702              -0.000000000               0.999999984              -0.000866151              -0.000000000               0.999999984              -0.000888312               0.000000000               0.999999984              -0.000900660               0.000000000               0.999999984              -0.000910400               0.000000000               0.999999984              -0.000920266               0.000000000               0.999999984              -0.000931027               0.000000000               0.999999984              -0.000943039               0.000000000               0.999999984              -0.000956259               0.000000000               0.999999984              -0.000970504               0.000000000               0.999999984              -0.000985435               0.000000000               0.999999984              -0.001000742               0.000000000               0.999999984              -0.001015998               0.000000000               0.999999984              -0.001030574              -0.000000000               0.999999984              -0.001043857               0.000000000               0.999999984              -0.001055068               0.000000000               0.999999984              -0.001063224               0.000000000               0.999999984              -0.000810127               0.000133690               0.999999984              -0.000857588               0.000107580               0.999999984              -0.000877199               0.000095873               0.999999984              -0.000887916               0.000091183               0.999999984              -0.000896499               0.000090164               0.999999984              -0.000905456               0.000090754               0.999999984              -0.000915564               0.000092283               0.999999984              -0.000926868               0.000094011               0.999999984              -0.000939406               0.000095770               0.999999984              -0.000952883               0.000096936               0.999999984              -0.000966774               0.000097143               0.999999984              -0.000980695               0.000096093               0.999999984              -0.000994142               0.000093238               0.999999984              -0.001006577               0.000088164               0.999999984              -0.001017459               0.000080069               0.999999984              -0.001026137               0.000067966               0.999999984              -0.001031902               0.000050915               0.999999984              -0.000796735               0.000266086               0.999999984              -0.000832395               0.000214717               0.999999984              -0.000844743               0.000192477               0.999999984              -0.000851050               0.000184246               0.999999984              -0.000856774               0.000182806               0.999999984              -0.000863545               0.000184721               0.999999984              -0.000871836               0.000188150               0.999999984              -0.000881442               0.000191991               0.999999984              -0.000891918               0.000195562               0.999999984              -0.000902717               0.000197797               0.999999984              -0.000913354               0.000198008               0.999999984              -0.000923221               0.000195668               0.999999984              -0.000931833               0.000189962               0.999999984              -0.000938712               0.000180102               0.999999984              -0.000943348               0.000165033               0.999999984              -0.000945542               0.000143428               0.999999984              -0.000945170               0.000114096               0.999999984              -0.000774777               0.000396032               0.999999984              -0.000791728               0.000320984               0.999999984              -0.000793509               0.000290495               0.999999984              -0.000793772               0.000280536               0.999999984              -0.000795720               0.000280054               0.999999984              -0.000799866               0.000284054               0.999999984              -0.000805773               0.000290003               0.999999984              -0.000812793               0.000296254               0.999999984              -0.000820112               0.000301539               0.999999984              -0.000826962               0.000304538               0.999999984              -0.000832609               0.000304428               0.999999984              -0.000836440               0.000300540               0.999999984              -0.000837988               0.000291974               0.999999984              -0.000836899               0.000278084               0.999999984              -0.000833064               0.000258003               0.999999984              -0.000826687               0.000230798               0.999999984              -0.000818187               0.000195826               0.999999984              -0.000744558               0.000522421               0.999999984              -0.000737698               0.000426223               0.999999984              -0.000727729               0.000390277               0.999999984              -0.000721945               0.000380557               0.999999984              -0.000720488               0.000382339               0.999999984              -0.000722253               0.000389201               0.999999984              -0.000725731               0.000397946               0.999999984              -0.000729746               0.000406442               0.999999984              -0.000733149               0.000413174               0.999999984              -0.000734884               0.000416453               0.999999984              -0.000734240               0.000415521               0.999999984              -0.000730703               0.000409857               0.999999984              -0.000724067               0.000398769               0.999999984              -0.000714278               0.000381717               0.999999984              -0.000701503               0.000358490               0.999999984              -0.000686242               0.000329063               0.999999984              -0.000669134               0.000293769               0.999999984              -0.000706797               0.000644013               0.999999984              -0.000673043               0.000530508               0.999999984              -0.000652159               0.000491980               0.999999984              -0.000641987               0.000484019               0.999999984              -0.000638363               0.000488785               0.999999984              -0.000638361               0.000498830               0.999999984              -0.000639650               0.000510078               0.999999984              -0.000640316               0.000520471               0.999999984              -0.000638997               0.000527883               0.999999984              -0.000634840               0.000530853               0.999999984              -0.000627204               0.000528692               0.999999984              -0.000615839               0.000521063               0.999999984              -0.000600674               0.000507716               0.999999984              -0.000581875               0.000488523               0.999999984              -0.000560020               0.000463663               0.999999984              -0.000535738               0.000434124               0.999999984              -0.000509766               0.000400866               0.999999984              -0.000662028               0.000759700               0.999999984              -0.000600993               0.000633901               0.999999984              -0.000571922               0.000595134               0.999999984              -0.000559639               0.000589783               0.999999984              -0.000555456               0.000597630               0.999999984              -0.000554483               0.000610371               0.999999984              -0.000553451               0.000623616               0.999999984              -0.000550413               0.000635056               0.999999984              -0.000543981               0.000642560               0.999999984              -0.000533316               0.000644646               0.999999984              -0.000517954               0.000641045               0.999999984              -0.000497871               0.000631698               0.999999984              -0.000473282               0.000616727               0.999999984              -0.000444758               0.000596508               0.999999984              -0.000413186               0.000571639               0.999999984              -0.000379467               0.000543481               0.999999984              -0.000344429               0.000513457               0.999999984              -0.000611234               0.000868245               0.999999984              -0.000525109               0.000736093               0.999999984              -0.000491485               0.000698793               0.999999984              -0.000479834               0.000695907               0.999999984              -0.000476307               0.000706387               0.999999984              -0.000474624               0.000721227               0.999999984              -0.000471266               0.000735635               0.999999984              -0.000464177               0.000747283               0.999999984              -0.000451951               0.000754251               0.999999984              -0.000433749               0.000755205               0.999999984              -0.000409486               0.000750243               0.999999984              -0.000379435               0.000739707               0.999999984              -0.000344412               0.000723920               0.999999984              -0.000305466               0.000703798               0.999999984              -0.000263805               0.000680400               0.999999984              -0.000220436               0.000655018               0.999999984              -0.000176362               0.000629022               0.999999984              -0.000556179               0.000967666               0.999999984              -0.000447924               0.000836983               0.999999984              -0.000415000               0.000801378               0.999999984              -0.000405796               0.000800315               0.999999984              -0.000403599               0.000812672               0.999999984              -0.000401273               0.000828902               0.999999984              -0.000395198               0.000843879               0.999999984              -0.000383220               0.000855271               0.999999984              -0.000364125               0.000861236               0.999999984              -0.000337191               0.000860991               0.999999984              -0.000302659               0.000854938               0.999999984              -0.000261495               0.000843673               0.999999984              -0.000215174               0.000828021               0.999999984              -0.000165237               0.000809180               0.999999984              -0.000113066               0.000788551               0.999999984              -0.000059998               0.000767219               0.999999984              -0.000006833               0.000745824               0.999999984              -0.000499259               0.001061647               0.999999984              -0.000383453               0.000949633               0.999999984              -0.000347691               0.000909878               0.999999984              -0.000337498               0.000903299               0.999999984              -0.000335339               0.000911502               0.999999984              -0.000333906               0.000925788               0.999999984              -0.000329669               0.000941094               0.999999984              -0.000320706               0.000954665               0.999999984              -0.000305710               0.000965039               0.999999984              -0.000283558               0.000971150               0.999999984              -0.000253882               0.000972665               0.999999984              -0.000217244               0.000969898               0.999999984              -0.000174406               0.000963212               0.999999984              -0.000126759               0.000953515               0.999999984              -0.000075736               0.000941585               0.999999984              -0.000022506               0.000928581               0.999999984               0.000031476               0.000915199               0.999999984              -0.000436922               0.001147170               0.999999984              -0.000321839               0.001058655               0.999999984              -0.000283357               0.001021227               0.999999984              -0.000271406               0.001011538               0.999999984              -0.000268488               0.001016810               0.999999984              -0.000267246               0.001029467               0.999999984              -0.000264399               0.001045034               0.999999984              -0.000257698               0.001060707               0.999999984              -0.000246097               0.001074795               0.999999984              -0.000228364               0.001086222               0.999999984              -0.000203760               0.001094250               0.999999984              -0.000172060               0.001098851               0.999999984              -0.000133463               0.001100152               0.999999984              -0.000088856               0.001098661               0.999999984              -0.000039588               0.001095004               0.999999984               0.000013296               0.001089896               0.999999984               0.000068109               0.001084264               0.999999984              -0.000370486               0.001222129               0.999999984              -0.000263086               0.001160614               0.999999984              -0.000223769               0.001130160               0.999999984              -0.000209897               0.001120913               0.999999984              -0.000205648               0.001125067               0.999999984              -0.000204122               0.001137001               0.999999984              -0.000201911               0.001153053               0.999999984              -0.000197091               0.001170707               0.999999984              -0.000188147               0.001188370               0.999999984              -0.000174146               0.001204743               0.999999984              -0.000154199               0.001218946               0.999999984              -0.000127623               0.001230423               0.999999984              -0.000094007               0.001239108               0.999999984              -0.000053633               0.001245163               0.999999984              -0.000007044               0.001248942               0.999999984               0.000044799               0.001251201               0.999999984               0.000100587               0.001252800               0.999999984              -0.000300681               0.001285178               0.999999984              -0.000207156               0.001251222               0.999999984              -0.000169665               0.001231215               0.999999984              -0.000154767               0.001225607               0.999999984              -0.000149319               0.001230782               0.999999984              -0.000147242               0.001243263               0.999999984              -0.000145198               0.001260472               0.999999984              -0.000141479               0.001280453               0.999999984              -0.000134732               0.001301536               0.999999984              -0.000124041               0.001322541               0.999999984              -0.000108438               0.001342476               0.999999984              -0.000086986               0.001360719               0.999999984              -0.000059075               0.001376697               0.999999984              -0.000024145               0.001390326               0.999999984               0.000018149               0.001401774               0.999999984               0.000067731               0.001411569               0.999999984               0.000123970               0.001420292               0.999999984              -0.000228104               0.001335291               0.999999984              -0.000153519               0.001326504               0.999999984              -0.000121162               0.001318429               0.999999984              -0.000107088               0.001318428               0.999999984              -0.000101158               0.001326542               0.999999984              -0.000098562               0.001341144               0.999999984              -0.000096585               0.001360331               0.999999984              -0.000093570               0.001382743               0.999999984              -0.000088566               0.001407163               0.999999984              -0.000080696               0.001432539               0.999999984              -0.000069156               0.001457971               0.999999984              -0.000052916               0.001482706               0.999999984              -0.000031265               0.001506002               0.999999984              -0.000003146               0.001527555               0.999999984               0.000032523               0.001547169               0.999999984               0.000076687               0.001564889               0.999999984               0.000130192               0.001580967               0.999999984              -0.000153333               0.001371674               0.999999984              -0.000101538               0.001382902               0.999999984              -0.000077702               0.001385792               0.999999984              -0.000066555               0.001391952               0.999999984              -0.000061402               0.001403766               0.999999984              -0.000058974               0.001421077               0.999999984              -0.000057286               0.001442868               0.999999984              -0.000055042               0.001467926               0.999999984              -0.000051492               0.001495395               0.999999984              -0.000046145               0.001524596               0.999999984              -0.000038502               0.001554863               0.999999984              -0.000027663               0.001585354               0.999999984              -0.000012635               0.001615405               0.999999984               0.000007552               0.001644644               0.999999984               0.000033815               0.001672453               0.999999984               0.000067760               0.001698300               0.999999984               0.000111397               0.001721911               0.999999984              -0.000077050               0.001393767               0.999999984              -0.000050547               0.001417842               0.999999984              -0.000037891               0.001428387               0.999999984              -0.000031709               0.001439232               0.999999984              -0.000028725               0.001454203               0.999999984              -0.000027157               0.001473852               0.999999984              -0.000026151               0.001497728               0.999999984              -0.000025001               0.001525031               0.999999984              -0.000023142               0.001555054               0.999999984              -0.000020304               0.001587153               0.999999984              -0.000016457               0.001620807               0.999999984              -0.000010889               0.001655426               0.999999984              -0.000003065               0.001690356               0.999999984               0.000007511               0.001725046               0.999999984               0.000021559               0.001758812               0.999999984               0.000040053               0.001790902               0.999999984               0.000064866               0.001820549               0.999999984              -0.000000000               0.001401194               0.999999984              -0.000000000               0.001429713               0.999999984              -0.000000000               0.001442994               0.999999984              -0.000000000               0.001455555               0.999999984              -0.000000000               0.001471785               0.999999984               0.000000000               0.001492328               0.999999984               0.000000000               0.001516967               0.999999984              -0.000000000               0.001545208               0.999999984              -0.000000000               0.001576296               0.999999984              -0.000000000               0.001609516               0.999999984              -0.000000000               0.001644501               0.999999984              -0.000000000               0.001680632               0.999999984               0.000000000               0.001717216               0.999999984               0.000000000               0.001753821               0.999999984              -0.000000000               0.001789732               0.999999984               0.000000000               0.001824163               0.999999984               0.000000000               0.001856133               0.999999984              -0.000814702              -0.000000000               0.999999984              -0.000866151              -0.000000000               0.999999984              -0.000888312               0.000000000               0.999999984              -0.000900660               0.000000000               0.999999984              -0.000910400               0.000000000               0.999999984              -0.000920266               0.000000000               0.999999984              -0.000931027               0.000000000               0.999999984              -0.000943039               0.000000000               0.999999984              -0.000956259               0.000000000               0.999999984              -0.000970504               0.000000000               0.999999984              -0.000985435               0.000000000               0.999999984              -0.001000742               0.000000000               0.999999984              -0.001015998               0.000000000               0.999999984              -0.001030574              -0.000000000               0.999999984              -0.001043857               0.000000000               0.999999984              -0.001055068               0.000000000               0.999999984              -0.001063224               0.000000000               0.999999984              -0.000810127              -0.000133690               0.999999984              -0.000857588              -0.000107580               0.999999984              -0.000877199              -0.000095873               0.999999984              -0.000887916              -0.000091183               0.999999984              -0.000896499              -0.000090164               0.999999984              -0.000905456              -0.000090754               0.999999984              -0.000915564              -0.000092283               0.999999984              -0.000926868              -0.000094011               0.999999984              -0.000939406              -0.000095770               0.999999984              -0.000952883              -0.000096936               0.999999984              -0.000966774              -0.000097143               0.999999984              -0.000980695              -0.000096093               0.999999984              -0.000994142              -0.000093238               0.999999984              -0.001006577              -0.000088164               0.999999984              -0.001017459              -0.000080069               0.999999984              -0.001026137              -0.000067966               0.999999984              -0.001031902              -0.000050915               0.999999984              -0.000796735              -0.000266086               0.999999984              -0.000832395              -0.000214717               0.999999984              -0.000844743              -0.000192477               0.999999984              -0.000851050              -0.000184246               0.999999984              -0.000856774              -0.000182806               0.999999984              -0.000863545              -0.000184721               0.999999984              -0.000871836              -0.000188150               0.999999984              -0.000881442              -0.000191991               0.999999984              -0.000891918              -0.000195562               0.999999984              -0.000902717              -0.000197797               0.999999984              -0.000913354              -0.000198008               0.999999984              -0.000923221              -0.000195668               0.999999984              -0.000931833              -0.000189962               0.999999984              -0.000938712              -0.000180102               0.999999984              -0.000943348              -0.000165033               0.999999984              -0.000945542              -0.000143428               0.999999984              -0.000945170              -0.000114096               0.999999984              -0.000774777              -0.000396032               0.999999984              -0.000791728              -0.000320984               0.999999984              -0.000793509              -0.000290495               0.999999984              -0.000793772              -0.000280536               0.999999984              -0.000795720              -0.000280054               0.999999984              -0.000799866              -0.000284054               0.999999984              -0.000805773              -0.000290003               0.999999984              -0.000812793              -0.000296254               0.999999984              -0.000820112              -0.000301539               0.999999984              -0.000826962              -0.000304538               0.999999984              -0.000832609              -0.000304428               0.999999984              -0.000836440              -0.000300540               0.999999984              -0.000837988              -0.000291974               0.999999984              -0.000836899              -0.000278084               0.999999984              -0.000833064              -0.000258003               0.999999984              -0.000826687              -0.000230798               0.999999984              -0.000818187              -0.000195826               0.999999984              -0.000744558              -0.000522421               0.999999984              -0.000737698              -0.000426223               0.999999984              -0.000727729              -0.000390277               0.999999984              -0.000721945              -0.000380557               0.999999984              -0.000720488              -0.000382339               0.999999984              -0.000722253              -0.000389201               0.999999984              -0.000725731              -0.000397946               0.999999984              -0.000729746              -0.000406442               0.999999984              -0.000733149              -0.000413174               0.999999984              -0.000734884              -0.000416453               0.999999984              -0.000734240              -0.000415521               0.999999984              -0.000730703              -0.000409857               0.999999984              -0.000724067              -0.000398769               0.999999984              -0.000714278              -0.000381717               0.999999984              -0.000701503              -0.000358490               0.999999984              -0.000686242              -0.000329063               0.999999984              -0.000669134              -0.000293769               0.999999984              -0.000706797              -0.000644013               0.999999984              -0.000673043              -0.000530508               0.999999984              -0.000652159              -0.000491980               0.999999984              -0.000641987              -0.000484019               0.999999984              -0.000638363              -0.000488785               0.999999984              -0.000638361              -0.000498830               0.999999984              -0.000639650              -0.000510078               0.999999984              -0.000640316              -0.000520471               0.999999984              -0.000638997              -0.000527883               0.999999984              -0.000634840              -0.000530853               0.999999984              -0.000627204              -0.000528692               0.999999984              -0.000615839              -0.000521063               0.999999984              -0.000600674              -0.000507716               0.999999984              -0.000581875              -0.000488523               0.999999984              -0.000560020              -0.000463663               0.999999984              -0.000535738              -0.000434124               0.999999984              -0.000509766              -0.000400866               0.999999984              -0.000662028              -0.000759700               0.999999984              -0.000600993              -0.000633901               0.999999984              -0.000571922              -0.000595134               0.999999984              -0.000559639              -0.000589783               0.999999984              -0.000555456              -0.000597630               0.999999984              -0.000554483              -0.000610371               0.999999984              -0.000553451              -0.000623616               0.999999984              -0.000550413              -0.000635056               0.999999984              -0.000543981              -0.000642560               0.999999984              -0.000533316              -0.000644646               0.999999984              -0.000517954              -0.000641045               0.999999984              -0.000497871              -0.000631698               0.999999984              -0.000473282              -0.000616727               0.999999984              -0.000444758              -0.000596508               0.999999984              -0.000413186              -0.000571639               0.999999984              -0.000379467              -0.000543481               0.999999984              -0.000344429              -0.000513457               0.999999984              -0.000611234              -0.000868245               0.999999984              -0.000525109              -0.000736093               0.999999984              -0.000491485              -0.000698793               0.999999984              -0.000479834              -0.000695907               0.999999984              -0.000476307              -0.000706387               0.999999984              -0.000474624              -0.000721227               0.999999984              -0.000471266              -0.000735635               0.999999984              -0.000464177              -0.000747283               0.999999984              -0.000451951              -0.000754251               0.999999984              -0.000433749              -0.000755205               0.999999984              -0.000409486              -0.000750243               0.999999984              -0.000379435              -0.000739707               0.999999984              -0.000344412              -0.000723920               0.999999984              -0.000305466              -0.000703798               0.999999984              -0.000263805              -0.000680400               0.999999984              -0.000220436              -0.000655018               0.999999984              -0.000176362              -0.000629022               0.999999984              -0.000556179              -0.000967666               0.999999984              -0.000447924              -0.000836983               0.999999984              -0.000415000              -0.000801378               0.999999984              -0.000405796              -0.000800315               0.999999984              -0.000403599              -0.000812672               0.999999984              -0.000401273              -0.000828902               0.999999984              -0.000395198              -0.000843879               0.999999984              -0.000383220              -0.000855271               0.999999984              -0.000364125              -0.000861236               0.999999984              -0.000337191              -0.000860991               0.999999984              -0.000302659              -0.000854938               0.999999984              -0.000261495              -0.000843673               0.999999984              -0.000215174              -0.000828021               0.999999984              -0.000165237              -0.000809180               0.999999984              -0.000113066              -0.000788551               0.999999984              -0.000059998              -0.000767219               0.999999984              -0.000006833              -0.000745824               0.999999984              -0.000499259              -0.001061647               0.999999984              -0.000383453              -0.000949633               0.999999984              -0.000347691              -0.000909878               0.999999984              -0.000337498              -0.000903299               0.999999984              -0.000335339              -0.000911502               0.999999984              -0.000333906              -0.000925788               0.999999984              -0.000329669              -0.000941094               0.999999984              -0.000320706              -0.000954665               0.999999984              -0.000305710              -0.000965039               0.999999984              -0.000283558              -0.000971150               0.999999984              -0.000253882              -0.000972665               0.999999984              -0.000217244              -0.000969898               0.999999984              -0.000174406              -0.000963212               0.999999984              -0.000126759              -0.000953515               0.999999984              -0.000075736              -0.000941585               0.999999984              -0.000022506              -0.000928581               0.999999984               0.000031476              -0.000915199               0.999999984              -0.000436922              -0.001147170               0.999999984              -0.000321839              -0.001058655               0.999999984              -0.000283357              -0.001021227               0.999999984              -0.000271406              -0.001011538               0.999999984              -0.000268488              -0.001016810               0.999999984              -0.000267246              -0.001029467               0.999999984              -0.000264399              -0.001045034               0.999999984              -0.000257698              -0.001060707               0.999999984              -0.000246097              -0.001074795               0.999999984              -0.000228364              -0.001086222               0.999999984              -0.000203760              -0.001094250               0.999999984              -0.000172060              -0.001098851               0.999999984              -0.000133463              -0.001100152               0.999999984              -0.000088856              -0.001098661               0.999999984              -0.000039588              -0.001095004               0.999999984               0.000013296              -0.001089896               0.999999984               0.000068109              -0.001084264               0.999999984              -0.000370486              -0.001222129               0.999999984              -0.000263086              -0.001160614               0.999999984              -0.000223769              -0.001130160               0.999999984              -0.000209897              -0.001120913               0.999999984              -0.000205648              -0.001125067               0.999999984              -0.000204122              -0.001137001               0.999999984              -0.000201911              -0.001153053               0.999999984              -0.000197091              -0.001170707               0.999999984              -0.000188147              -0.001188370               0.999999984              -0.000174146              -0.001204743               0.999999984              -0.000154199              -0.001218946               0.999999984              -0.000127623              -0.001230423               0.999999984              -0.000094007              -0.001239108               0.999999984              -0.000053633              -0.001245163               0.999999984              -0.000007044              -0.001248942               0.999999984               0.000044799              -0.001251201               0.999999984               0.000100587              -0.001252800               0.999999984              -0.000300681              -0.001285178               0.999999984              -0.000207156              -0.001251222               0.999999984              -0.000169665              -0.001231215               0.999999984              -0.000154767              -0.001225607               0.999999984              -0.000149319              -0.001230782               0.999999984              -0.000147242              -0.001243263               0.999999984              -0.000145198              -0.001260472               0.999999984              -0.000141479              -0.001280453               0.999999984              -0.000134732              -0.001301536               0.999999984              -0.000124041              -0.001322541               0.999999984              -0.000108438              -0.001342476               0.999999984              -0.000086986              -0.001360719               0.999999984              -0.000059075              -0.001376697               0.999999984              -0.000024145              -0.001390326               0.999999984               0.000018149              -0.001401774               0.999999984               0.000067731              -0.001411569               0.999999984               0.000123970              -0.001420292               0.999999984              -0.000228104              -0.001335291               0.999999984              -0.000153519              -0.001326504               0.999999984              -0.000121162              -0.001318429               0.999999984              -0.000107088              -0.001318428               0.999999984              -0.000101158              -0.001326542               0.999999984              -0.000098562              -0.001341144               0.999999984              -0.000096585              -0.001360331               0.999999984              -0.000093570              -0.001382743               0.999999984              -0.000088566              -0.001407163               0.999999984              -0.000080696              -0.001432539               0.999999984              -0.000069156              -0.001457971               0.999999984              -0.000052916              -0.001482706               0.999999984              -0.000031265              -0.001506002               0.999999984              -0.000003146              -0.001527555               0.999999984               0.000032523              -0.001547169               0.999999984               0.000076687              -0.001564889               0.999999984               0.000130192              -0.001580967               0.999999984              -0.000153333              -0.001371674               0.999999984              -0.000101538              -0.001382902               0.999999984              -0.000077702              -0.001385792               0.999999984              -0.000066555              -0.001391952               0.999999984              -0.000061402              -0.001403766               0.999999984              -0.000058974              -0.001421077               0.999999984              -0.000057286              -0.001442868               0.999999984              -0.000055042              -0.001467926               0.999999984              -0.000051492              -0.001495395               0.999999984              -0.000046145              -0.001524596               0.999999984              -0.000038502              -0.001554863               0.999999984              -0.000027663              -0.001585354               0.999999984              -0.000012635              -0.001615405               0.999999984               0.000007552              -0.001644644               0.999999984               0.000033815              -0.001672453               0.999999984               0.000067760              -0.001698300               0.999999984               0.000111397              -0.001721911               0.999999984              -0.000077050              -0.001393767               0.999999984              -0.000050547              -0.001417842               0.999999984              -0.000037891              -0.001428387               0.999999984              -0.000031709              -0.001439232               0.999999984              -0.000028725              -0.001454203               0.999999984              -0.000027157              -0.001473852               0.999999984              -0.000026151              -0.001497728               0.999999984              -0.000025001              -0.001525031               0.999999984              -0.000023142              -0.001555054               0.999999984              -0.000020304              -0.001587153               0.999999984              -0.000016457              -0.001620807               0.999999984              -0.000010889              -0.001655426               0.999999984              -0.000003065              -0.001690356               0.999999984               0.000007511              -0.001725046               0.999999984               0.000021559              -0.001758812               0.999999984               0.000040053              -0.001790902               0.999999984               0.000064866              -0.001820549               0.999999984              -0.000000000              -0.001401194               0.999999984               0.000000000              -0.001429713               0.999999984              -0.000000000              -0.001442994               0.999999984               0.000000000              -0.001455555               0.999999984               0.000000000              -0.001471785               0.999999984              -0.000000000              -0.001492328               0.999999984              -0.000000000              -0.001516967               0.999999984              -0.000000000              -0.001545208               0.999999984               0.000000000              -0.001576296               0.999999984              -0.000000000              -0.001609516               0.999999984               0.000000000              -0.001644501               0.999999984              -0.000000000              -0.001680632               0.999999984               0.000000000              -0.001717216               0.999999984               0.000000000              -0.001753821               0.999999984              -0.000000000              -0.001789732               0.999999984               0.000000000              -0.001824163               0.999999984              -0.000000000              -0.001856133               0.999999984               0.000814702               0.000000000               0.999999984               0.000866151              -0.000000000               0.999999984               0.000888312              -0.000000000               0.999999984               0.000900660               0.000000000               0.999999984               0.000910400               0.000000000               0.999999984               0.000920266               0.000000000               0.999999984               0.000931027               0.000000000               0.999999984               0.000943039              -0.000000000               0.999999984               0.000956259               0.000000000               0.999999984               0.000970504               0.000000000               0.999999984               0.000985435               0.000000000               0.999999984               0.001000742              -0.000000000               0.999999984               0.001015998              -0.000000000               0.999999984               0.001030574               0.000000000               0.999999984               0.001043857              -0.000000000               0.999999984               0.001055068               0.000000000               0.999999984               0.001063224               0.000000000               0.999999984               0.000810127              -0.000133690               0.999999984               0.000857588              -0.000107580               0.999999984               0.000877199              -0.000095873               0.999999984               0.000887916              -0.000091183               0.999999984               0.000896499              -0.000090164               0.999999984               0.000905456              -0.000090754               0.999999984               0.000915564              -0.000092283               0.999999984               0.000926868              -0.000094011               0.999999984               0.000939406              -0.000095770               0.999999984               0.000952883              -0.000096936               0.999999984               0.000966774              -0.000097143               0.999999984               0.000980695              -0.000096093               0.999999984               0.000994142              -0.000093238               0.999999984               0.001006577              -0.000088164               0.999999984               0.001017459              -0.000080069               0.999999984               0.001026137              -0.000067966               0.999999984               0.001031902              -0.000050915               0.999999984               0.000796735              -0.000266086               0.999999984               0.000832395              -0.000214717               0.999999984               0.000844743              -0.000192477               0.999999984               0.000851050              -0.000184246               0.999999984               0.000856774              -0.000182806               0.999999984               0.000863545              -0.000184721               0.999999984               0.000871836              -0.000188150               0.999999984               0.000881442              -0.000191991               0.999999984               0.000891918              -0.000195562               0.999999984               0.000902717              -0.000197797               0.999999984               0.000913354              -0.000198008               0.999999984               0.000923221              -0.000195668               0.999999984               0.000931833              -0.000189962               0.999999984               0.000938712              -0.000180102               0.999999984               0.000943348              -0.000165033               0.999999984               0.000945542              -0.000143428               0.999999984               0.000945170              -0.000114096               0.999999984               0.000774777              -0.000396032               0.999999984               0.000791728              -0.000320984               0.999999984               0.000793509              -0.000290495               0.999999984               0.000793772              -0.000280536               0.999999984               0.000795720              -0.000280054               0.999999984               0.000799866              -0.000284054               0.999999984               0.000805773              -0.000290003               0.999999984               0.000812793              -0.000296254               0.999999984               0.000820112              -0.000301539               0.999999984               0.000826962              -0.000304538               0.999999984               0.000832609              -0.000304428               0.999999984               0.000836440              -0.000300540               0.999999984               0.000837988              -0.000291974               0.999999984               0.000836899              -0.000278084               0.999999984               0.000833064              -0.000258003               0.999999984               0.000826687              -0.000230798               0.999999984               0.000818187              -0.000195826               0.999999984               0.000744558              -0.000522421               0.999999984               0.000737698              -0.000426223               0.999999984               0.000727729              -0.000390277               0.999999984               0.000721945              -0.000380557               0.999999984               0.000720488              -0.000382339               0.999999984               0.000722253              -0.000389201               0.999999984               0.000725731              -0.000397946               0.999999984               0.000729746              -0.000406442               0.999999984               0.000733149              -0.000413174               0.999999984               0.000734884              -0.000416453               0.999999984               0.000734240              -0.000415521               0.999999984               0.000730703              -0.000409857               0.999999984               0.000724067              -0.000398769               0.999999984               0.000714278              -0.000381717               0.999999984               0.000701503              -0.000358490               0.999999984               0.000686242              -0.000329063               0.999999984               0.000669134              -0.000293769               0.999999984               0.000706797              -0.000644013               0.999999984               0.000673043              -0.000530508               0.999999984               0.000652159              -0.000491980               0.999999984               0.000641987              -0.000484019               0.999999984               0.000638363              -0.000488785               0.999999984               0.000638361              -0.000498830               0.999999984               0.000639650              -0.000510078               0.999999984               0.000640316              -0.000520471               0.999999984               0.000638997              -0.000527883               0.999999984               0.000634840              -0.000530853               0.999999984               0.000627204              -0.000528692               0.999999984               0.000615839              -0.000521063               0.999999984               0.000600674              -0.000507716               0.999999984               0.000581875              -0.000488523               0.999999984               0.000560020              -0.000463663               0.999999984               0.000535738              -0.000434124               0.999999984               0.000509766              -0.000400866               0.999999984               0.000662028              -0.000759700               0.999999984               0.000600993              -0.000633901               0.999999984               0.000571922              -0.000595134               0.999999984               0.000559639              -0.000589783               0.999999984               0.000555456              -0.000597630               0.999999984               0.000554483              -0.000610371               0.999999984               0.000553451              -0.000623616               0.999999984               0.000550413              -0.000635056               0.999999984               0.000543981              -0.000642560               0.999999984               0.000533316              -0.000644646               0.999999984               0.000517954              -0.000641045               0.999999984               0.000497871              -0.000631698               0.999999984               0.000473282              -0.000616727               0.999999984               0.000444758              -0.000596508               0.999999984               0.000413186              -0.000571639               0.999999984               0.000379467              -0.000543481               0.999999984               0.000344429              -0.000513457               0.999999984               0.000611234              -0.000868245               0.999999984               0.000525109              -0.000736093               0.999999984               0.000491485              -0.000698793               0.999999984               0.000479834              -0.000695907               0.999999984               0.000476307              -0.000706387               0.999999984               0.000474624              -0.000721227               0.999999984               0.000471266              -0.000735635               0.999999984               0.000464177              -0.000747283               0.999999984               0.000451951              -0.000754251               0.999999984               0.000433749              -0.000755205               0.999999984               0.000409486              -0.000750243               0.999999984               0.000379435              -0.000739707               0.999999984               0.000344412              -0.000723920               0.999999984               0.000305466              -0.000703798               0.999999984               0.000263805              -0.000680400               0.999999984               0.000220436              -0.000655018               0.999999984               0.000176362              -0.000629022               0.999999984               0.000556179              -0.000967666               0.999999984               0.000447924              -0.000836983               0.999999984               0.000415000              -0.000801378               0.999999984               0.000405796              -0.000800315               0.999999984               0.000403599              -0.000812672               0.999999984               0.000401273              -0.000828902               0.999999984               0.000395198              -0.000843879               0.999999984               0.000383220              -0.000855271               0.999999984               0.000364125              -0.000861236               0.999999984               0.000337191              -0.000860991               0.999999984               0.000302659              -0.000854938               0.999999984               0.000261495              -0.000843673               0.999999984               0.000215174              -0.000828021               0.999999984               0.000165237              -0.000809180               0.999999984               0.000113066              -0.000788551               0.999999984               0.000059998              -0.000767219               0.999999984               0.000006833              -0.000745824               0.999999984               0.000499259              -0.001061647               0.999999984               0.000383453              -0.000949633               0.999999984               0.000347691              -0.000909878               0.999999984               0.000337498              -0.000903299               0.999999984               0.000335339              -0.000911502               0.999999984               0.000333906              -0.000925788               0.999999984               0.000329669              -0.000941094               0.999999984               0.000320706              -0.000954665               0.999999984               0.000305710              -0.000965039               0.999999984               0.000283558              -0.000971150               0.999999984               0.000253882              -0.000972665               0.999999984               0.000217244              -0.000969898               0.999999984               0.000174406              -0.000963212               0.999999984               0.000126759              -0.000953515               0.999999984               0.000075736              -0.000941585               0.999999984               0.000022506              -0.000928581               0.999999984              -0.000031476              -0.000915199               0.999999984               0.000436922              -0.001147170               0.999999984               0.000321839              -0.001058655               0.999999984               0.000283357              -0.001021227               0.999999984               0.000271406              -0.001011538               0.999999984               0.000268488              -0.001016810               0.999999984               0.000267246              -0.001029467               0.999999984               0.000264399              -0.001045034               0.999999984               0.000257698              -0.001060707               0.999999984               0.000246097              -0.001074795               0.999999984               0.000228364              -0.001086222               0.999999984               0.000203760              -0.001094250               0.999999984               0.000172060              -0.001098851               0.999999984               0.000133463              -0.001100152               0.999999984               0.000088856              -0.001098661               0.999999984               0.000039588              -0.001095004               0.999999984              -0.000013296              -0.001089896               0.999999984              -0.000068109              -0.001084264               0.999999984               0.000370486              -0.001222129               0.999999984               0.000263086              -0.001160614               0.999999984               0.000223769              -0.001130160               0.999999984               0.000209897              -0.001120913               0.999999984               0.000205648              -0.001125067               0.999999984               0.000204122              -0.001137001               0.999999984               0.000201911              -0.001153053               0.999999984               0.000197091              -0.001170707               0.999999984               0.000188147              -0.001188370               0.999999984               0.000174146              -0.001204743               0.999999984               0.000154199              -0.001218946               0.999999984               0.000127623              -0.001230423               0.999999984               0.000094007              -0.001239108               0.999999984               0.000053633              -0.001245163               0.999999984               0.000007044              -0.001248942               0.999999984              -0.000044799              -0.001251201               0.999999984              -0.000100587              -0.001252800               0.999999984               0.000300681              -0.001285178               0.999999984               0.000207156              -0.001251222               0.999999984               0.000169665              -0.001231215               0.999999984               0.000154767              -0.001225607               0.999999984               0.000149319              -0.001230782               0.999999984               0.000147242              -0.001243263               0.999999984               0.000145198              -0.001260472               0.999999984               0.000141479              -0.001280453               0.999999984               0.000134732              -0.001301536               0.999999984               0.000124041              -0.001322541               0.999999984               0.000108438              -0.001342476               0.999999984               0.000086986              -0.001360719               0.999999984               0.000059075              -0.001376697               0.999999984               0.000024145              -0.001390326               0.999999984              -0.000018149              -0.001401774               0.999999984              -0.000067731              -0.001411569               0.999999984              -0.000123970              -0.001420292               0.999999984               0.000228104              -0.001335291               0.999999984               0.000153519              -0.001326504               0.999999984               0.000121162              -0.001318429               0.999999984               0.000107088              -0.001318428               0.999999984               0.000101158              -0.001326542               0.999999984               0.000098562              -0.001341144               0.999999984               0.000096585              -0.001360331               0.999999984               0.000093570              -0.001382743               0.999999984               0.000088566              -0.001407163               0.999999984               0.000080696              -0.001432539               0.999999984               0.000069156              -0.001457971               0.999999984               0.000052916              -0.001482706               0.999999984               0.000031265              -0.001506002               0.999999984               0.000003146              -0.001527555               0.999999984              -0.000032523              -0.001547169               0.999999984              -0.000076687              -0.001564889               0.999999984              -0.000130192              -0.001580967               0.999999984               0.000153333              -0.001371674               0.999999984               0.000101538              -0.001382902               0.999999984               0.000077702              -0.001385792               0.999999984               0.000066555              -0.001391952               0.999999984               0.000061402              -0.001403766               0.999999984               0.000058974              -0.001421077               0.999999984               0.000057286              -0.001442868               0.999999984               0.000055042              -0.001467926               0.999999984               0.000051492              -0.001495395               0.999999984               0.000046145              -0.001524596               0.999999984               0.000038502              -0.001554863               0.999999984               0.000027663              -0.001585354               0.999999984               0.000012635              -0.001615405               0.999999984              -0.000007552              -0.001644644               0.999999984              -0.000033815              -0.001672453               0.999999984              -0.000067760              -0.001698300               0.999999984              -0.000111397              -0.001721911               0.999999984               0.000077050              -0.001393767               0.999999984               0.000050547              -0.001417842               0.999999984               0.000037891              -0.001428387               0.999999984               0.000031709              -0.001439232               0.999999984               0.000028725              -0.001454203               0.999999984               0.000027157              -0.001473852               0.999999984               0.000026151              -0.001497728               0.999999984               0.000025001              -0.001525031               0.999999984               0.000023142              -0.001555054               0.999999984               0.000020304              -0.001587153               0.999999984               0.000016457              -0.001620807               0.999999984               0.000010889              -0.001655426               0.999999984               0.000003065              -0.001690356               0.999999984              -0.000007511              -0.001725046               0.999999984              -0.000021559              -0.001758812               0.999999984              -0.000040053              -0.001790902               0.999999984              -0.000064866              -0.001820549               0.999999984              -0.000000000              -0.001401194               0.999999984               0.000000000              -0.001429713               0.999999984              -0.000000000              -0.001442994               0.999999984               0.000000000              -0.001455555               0.999999984               0.000000000              -0.001471785               0.999999984              -0.000000000              -0.001492328               0.999999984              -0.000000000              -0.001516967               0.999999984              -0.000000000              -0.001545208               0.999999984               0.000000000              -0.001576296               0.999999984              -0.000000000              -0.001609516               0.999999984               0.000000000              -0.001644501               0.999999984              -0.000000000              -0.001680632               0.999999984               0.000000000              -0.001717216               0.999999984               0.000000000              -0.001753821               0.999999984              -0.000000000              -0.001789732               0.999999984               0.000000000              -0.001824163               0.999999984              -0.000000000              -0.001856133               0.999999984               0.000814702               0.000000000               0.999999984               0.000866151              -0.000000000               0.999999984               0.000888312              -0.000000000               0.999999984               0.000900660               0.000000000               0.999999984               0.000910400               0.000000000               0.999999984               0.000920266               0.000000000               0.999999984               0.000931027               0.000000000               0.999999984               0.000943039              -0.000000000               0.999999984               0.000956259               0.000000000               0.999999984               0.000970504               0.000000000               0.999999984               0.000985435               0.000000000               0.999999984               0.001000742              -0.000000000               0.999999984               0.001015998              -0.000000000               0.999999984               0.001030574               0.000000000               0.999999984               0.001043857              -0.000000000               0.999999984               0.001055068               0.000000000               0.999999984               0.001063224               0.000000000               0.999999984               0.000810127               0.000133690               0.999999984               0.000857588               0.000107580               0.999999984               0.000877199               0.000095873               0.999999984               0.000887916               0.000091183               0.999999984               0.000896499               0.000090164               0.999999984               0.000905456               0.000090754               0.999999984               0.000915564               0.000092283               0.999999984               0.000926868               0.000094011               0.999999984               0.000939406               0.000095770               0.999999984               0.000952883               0.000096936               0.999999984               0.000966774               0.000097143               0.999999984               0.000980695               0.000096093               0.999999984               0.000994142               0.000093238               0.999999984               0.001006577               0.000088164               0.999999984               0.001017459               0.000080069               0.999999984               0.001026137               0.000067966               0.999999984               0.001031902               0.000050915               0.999999984               0.000796735               0.000266086               0.999999984               0.000832395               0.000214717               0.999999984               0.000844743               0.000192477               0.999999984               0.000851050               0.000184246               0.999999984               0.000856774               0.000182806               0.999999984               0.000863545               0.000184721               0.999999984               0.000871836               0.000188150               0.999999984               0.000881442               0.000191991               0.999999984               0.000891918               0.000195562               0.999999984               0.000902717               0.000197797               0.999999984               0.000913354               0.000198008               0.999999984               0.000923221               0.000195668               0.999999984               0.000931833               0.000189962               0.999999984               0.000938712               0.000180102               0.999999984               0.000943348               0.000165033               0.999999984               0.000945542               0.000143428               0.999999984               0.000945170               0.000114096               0.999999984               0.000774777               0.000396032               0.999999984               0.000791728               0.000320984               0.999999984               0.000793509               0.000290495               0.999999984               0.000793772               0.000280536               0.999999984               0.000795720               0.000280054               0.999999984               0.000799866               0.000284054               0.999999984               0.000805773               0.000290003               0.999999984               0.000812793               0.000296254               0.999999984               0.000820112               0.000301539               0.999999984               0.000826962               0.000304538               0.999999984               0.000832609               0.000304428               0.999999984               0.000836440               0.000300540               0.999999984               0.000837988               0.000291974               0.999999984               0.000836899               0.000278084               0.999999984               0.000833064               0.000258003               0.999999984               0.000826687               0.000230798               0.999999984               0.000818187               0.000195826               0.999999984               0.000744558               0.000522421               0.999999984               0.000737698               0.000426223               0.999999984               0.000727729               0.000390277               0.999999984               0.000721945               0.000380557               0.999999984               0.000720488               0.000382339               0.999999984               0.000722253               0.000389201               0.999999984               0.000725731               0.000397946               0.999999984               0.000729746               0.000406442               0.999999984               0.000733149               0.000413174               0.999999984               0.000734884               0.000416453               0.999999984               0.000734240               0.000415521               0.999999984               0.000730703               0.000409857               0.999999984               0.000724067               0.000398769               0.999999984               0.000714278               0.000381717               0.999999984               0.000701503               0.000358490               0.999999984               0.000686242               0.000329063               0.999999984               0.000669134               0.000293769               0.999999984               0.000706797               0.000644013               0.999999984               0.000673043               0.000530508               0.999999984               0.000652159               0.000491980               0.999999984               0.000641987               0.000484019               0.999999984               0.000638363               0.000488785               0.999999984               0.000638361               0.000498830               0.999999984               0.000639650               0.000510078               0.999999984               0.000640316               0.000520471               0.999999984               0.000638997               0.000527883               0.999999984               0.000634840               0.000530853               0.999999984               0.000627204               0.000528692               0.999999984               0.000615839               0.000521063               0.999999984               0.000600674               0.000507716               0.999999984               0.000581875               0.000488523               0.999999984               0.000560020               0.000463663               0.999999984               0.000535738               0.000434124               0.999999984               0.000509766               0.000400866               0.999999984               0.000662028               0.000759700               0.999999984               0.000600993               0.000633901               0.999999984               0.000571922               0.000595134               0.999999984               0.000559639               0.000589783               0.999999984               0.000555456               0.000597630               0.999999984               0.000554483               0.000610371               0.999999984               0.000553451               0.000623616               0.999999984               0.000550413               0.000635056               0.999999984               0.000543981               0.000642560               0.999999984               0.000533316               0.000644646               0.999999984               0.000517954               0.000641045               0.999999984               0.000497871               0.000631698               0.999999984               0.000473282               0.000616727               0.999999984               0.000444758               0.000596508               0.999999984               0.000413186               0.000571639               0.999999984               0.000379467               0.000543481               0.999999984               0.000344429               0.000513457               0.999999984               0.000611234               0.000868245               0.999999984               0.000525109               0.000736093               0.999999984               0.000491485               0.000698793               0.999999984               0.000479834               0.000695907               0.999999984               0.000476307               0.000706387               0.999999984               0.000474624               0.000721227               0.999999984               0.000471266               0.000735635               0.999999984               0.000464177               0.000747283               0.999999984               0.000451951               0.000754251               0.999999984               0.000433749               0.000755205               0.999999984               0.000409486               0.000750243               0.999999984               0.000379435               0.000739707               0.999999984               0.000344412               0.000723920               0.999999984               0.000305466               0.000703798               0.999999984               0.000263805               0.000680400               0.999999984               0.000220436               0.000655018               0.999999984               0.000176362               0.000629022               0.999999984               0.000556179               0.000967666               0.999999984               0.000447924               0.000836983               0.999999984               0.000415000               0.000801378               0.999999984               0.000405796               0.000800315               0.999999984               0.000403599               0.000812672               0.999999984               0.000401273               0.000828902               0.999999984               0.000395198               0.000843879               0.999999984               0.000383220               0.000855271               0.999999984               0.000364125               0.000861236               0.999999984               0.000337191               0.000860991               0.999999984               0.000302659               0.000854938               0.999999984               0.000261495               0.000843673               0.999999984               0.000215174               0.000828021               0.999999984               0.000165237               0.000809180               0.999999984               0.000113066               0.000788551               0.999999984               0.000059998               0.000767219               0.999999984               0.000006833               0.000745824               0.999999984               0.000499259               0.001061647               0.999999984               0.000383453               0.000949633               0.999999984               0.000347691               0.000909878               0.999999984               0.000337498               0.000903299               0.999999984               0.000335339               0.000911502               0.999999984               0.000333906               0.000925788               0.999999984               0.000329669               0.000941094               0.999999984               0.000320706               0.000954665               0.999999984               0.000305710               0.000965039               0.999999984               0.000283558               0.000971150               0.999999984               0.000253882               0.000972665               0.999999984               0.000217244               0.000969898               0.999999984               0.000174406               0.000963212               0.999999984               0.000126759               0.000953515               0.999999984               0.000075736               0.000941585               0.999999984               0.000022506               0.000928581               0.999999984              -0.000031476               0.000915199               0.999999984               0.000436922               0.001147170               0.999999984               0.000321839               0.001058655               0.999999984               0.000283357               0.001021227               0.999999984               0.000271406               0.001011538               0.999999984               0.000268488               0.001016810               0.999999984               0.000267246               0.001029467               0.999999984               0.000264399               0.001045034               0.999999984               0.000257698               0.001060707               0.999999984               0.000246097               0.001074795               0.999999984               0.000228364               0.001086222               0.999999984               0.000203760               0.001094250               0.999999984               0.000172060               0.001098851               0.999999984               0.000133463               0.001100152               0.999999984               0.000088856               0.001098661               0.999999984               0.000039588               0.001095004               0.999999984              -0.000013296               0.001089896               0.999999984              -0.000068109               0.001084264               0.999999984               0.000370486               0.001222129               0.999999984               0.000263086               0.001160614               0.999999984               0.000223769               0.001130160               0.999999984               0.000209897               0.001120913               0.999999984               0.000205648               0.001125067               0.999999984               0.000204122               0.001137001               0.999999984               0.000201911               0.001153053               0.999999984               0.000197091               0.001170707               0.999999984               0.000188147               0.001188370               0.999999984               0.000174146               0.001204743               0.999999984               0.000154199               0.001218946               0.999999984               0.000127623               0.001230423               0.999999984               0.000094007               0.001239108               0.999999984               0.000053633               0.001245163               0.999999984               0.000007044               0.001248942               0.999999984              -0.000044799               0.001251201               0.999999984              -0.000100587               0.001252800               0.999999984               0.000300681               0.001285178               0.999999984               0.000207156               0.001251222               0.999999984               0.000169665               0.001231215               0.999999984               0.000154767               0.001225607               0.999999984               0.000149319               0.001230782               0.999999984               0.000147242               0.001243263               0.999999984               0.000145198               0.001260472               0.999999984               0.000141479               0.001280453               0.999999984               0.000134732               0.001301536               0.999999984               0.000124041               0.001322541               0.999999984               0.000108438               0.001342476               0.999999984               0.000086986               0.001360719               0.999999984               0.000059075               0.001376697               0.999999984               0.000024145               0.001390326               0.999999984              -0.000018149               0.001401774               0.999999984              -0.000067731               0.001411569               0.999999984              -0.000123970               0.001420292               0.999999984               0.000228104               0.001335291               0.999999984               0.000153519               0.001326504               0.999999984               0.000121162               0.001318429               0.999999984               0.000107088               0.001318428               0.999999984               0.000101158               0.001326542               0.999999984               0.000098562               0.001341144               0.999999984               0.000096585               0.001360331               0.999999984               0.000093570               0.001382743               0.999999984               0.000088566               0.001407163               0.999999984               0.000080696               0.001432539               0.999999984               0.000069156               0.001457971               0.999999984               0.000052916               0.001482706               0.999999984               0.000031265               0.001506002               0.999999984               0.000003146               0.001527555               0.999999984              -0.000032523               0.001547169               0.999999984              -0.000076687               0.001564889               0.999999984              -0.000130192               0.001580967               0.999999984               0.000153333               0.001371674               0.999999984               0.000101538               0.001382902               0.999999984               0.000077702               0.001385792               0.999999984               0.000066555               0.001391952               0.999999984               0.000061402               0.001403766               0.999999984               0.000058974               0.001421077               0.999999984               0.000057286               0.001442868               0.999999984               0.000055042               0.001467926               0.999999984               0.000051492               0.001495395               0.999999984               0.000046145               0.001524596               0.999999984               0.000038502               0.001554863               0.999999984               0.000027663               0.001585354               0.999999984               0.000012635               0.001615405               0.999999984              -0.000007552               0.001644644               0.999999984              -0.000033815               0.001672453               0.999999984              -0.000067760               0.001698300               0.999999984              -0.000111397               0.001721911               0.999999984               0.000077050               0.001393767               0.999999984               0.000050547               0.001417842               0.999999984               0.000037891               0.001428387               0.999999984               0.000031709               0.001439232               0.999999984               0.000028725               0.001454203               0.999999984               0.000027157               0.001473852               0.999999984               0.000026151               0.001497728               0.999999984               0.000025001               0.001525031               0.999999984               0.000023142               0.001555054               0.999999984               0.000020304               0.001587153               0.999999984               0.000016457               0.001620807               0.999999984               0.000010889               0.001655426               0.999999984               0.000003065               0.001690356               0.999999984              -0.000007511               0.001725046               0.999999984              -0.000021559               0.001758812               0.999999984              -0.000040053               0.001790902               0.999999984              -0.000064866               0.001820549               0.999999984              -0.000000000               0.001401194               0.999999984              -0.000000000               0.001429713               0.999999984              -0.000000000               0.001442994               0.999999984              -0.000000000               0.001455555               0.999999984              -0.000000000               0.001471785               0.999999984               0.000000000               0.001492328               0.999999984               0.000000000               0.001516967               0.999999984              -0.000000000               0.001545208               0.999999984              -0.000000000               0.001576296               0.999999984              -0.000000000               0.001609516               0.999999984              -0.000000000               0.001644501               0.999999984              -0.000000000               0.001680632               0.999999984               0.000000000               0.001717216               0.999999984               0.000000000               0.001753821               0.999999984              -0.000000000               0.001789732               0.999999984               0.000000000               0.001824163               0.999999984               0.000000000               0.001856133               0.999999984 </DataArray>
<DataArray type="Float64"                                    Name="defo"                                                      NumberOfComponents=" 3" format="ascii">
             -0.000814702              -0.000000000               0.999999984              -0.000866151              -0.000000000               0.999999984              -0.000888312               0.000000000               0.999999984              -0.000900660               0.000000000               0.999999984              -0.000910400               0.000000000               0.999999984              -0.000920266               0.000000000               0.999999984              -0.000931027               0.000000000               0.999999984              -0.000943039               0.000000000               0.999999984              -0.000956259               0.000000000               0.999999984              -0.000970504               0.000000000               0.999999984              -0.000985435               0.000000000               0.999999984              -0.001000742               0.000000000               0.999999984              -0.001015998               0.000000000               0.999999984              -0.001030574              -0.000000000               0.999999984              -0.001043857               0.000000000               0.999999984              -0.001055068               0.000000000               0.999999984              -0.001063224               0.000000000               0.999999984              -0.000810127               0.000133690               0.999999984              -0.000857588               0.000107580               0.999999984              -0.000877199               0.000095873               0.999999984              -0.000887916               0.000091183               0.999999984              -0.000896499               0.000090164               0.999999984              -0.000905456               0.000090754               0.999999984              -0.000915564               0.000092283               0.999999984              -0.000926868               0.000094011               0.999999984              -0.000939406               0.000095770               0.999999984              -0.000952883               0.000096936               0.999999984              -0.000966774               0.000097143               0.999999984              -0.000980695               0.000096093               0.999999984              -0.000994142               0.000093238               0.999999984              -0.001006577               0.000088164               0.999999984              -0.001017459               0.000080069               0.999999984              -0.001026137               0.000067966               0.999999984              -0.001031902               0.000050915               0.999999984              -0.000796735               0.000266086               0.999999984              -0.000832395               0.000214717               0.999999984              -0.000844743               0.000192477               0.999999984              -0.000851050               0.000184246               0.999999984              -0.000856774               0.000182806               0.999999984              -0.000863545               0.000184721               0.999999984              -0.000871836               0.000188150               0.999999984              -0.000881442               0.000191991               0.999999984              -0.000891918               0.000195562               0.999999984              -0.000902717               0.000197797               0.999999984              -0.000913354               0.000198008               0.999999984              -0.000923221               0.000195668               0.999999984              -0.000931833               0.000189962               0.999999984              -0.000938712               0.000180102               0.999999984              -0.000943348               0.000165033               0.999999984              -0.000945542               0.000143428               0.999999984              -0.000945170               0.000114096               0.999999984              -0.000774777               0.000396032               0.999999984              -0.000791728               0.000320984               0.999999984              -0.000793509               0.000290495               0.999999984              -0.000793772               0.000280536               0.999999984              -0.000795720               0.000280054               0.999999984              -0.000799866               0.000284054               0.999999984              -0.000805773               0.000290003               0.999999984              -0.000812793               0.000296254               0.999999984              -0.000820112               0.000301539               0.999999984              -0.000826962               0.000304538               0.999999984              -0.000832609               0.000304428               0.999999984              -0.000836440               0.000300540               0.999999984              -0.000837988               0.000291974               0.999999984              -0.000836899               0.000278084               0.999999984              -0.000833064               0.000258003               0.999999984              -0.000826687               0.000230798               0.999999984              -0.000818187               0.000195826               0.999999984              -0.000744558               0.000522421               0.999999984              -0.000737698               0.000426223               0.999999984              -0.000727729               0.000390277               0.999999984              -0.000721945               0.000380557               0.999999984              -0.000720488               0.000382339               0.999999984              -0.000722253               0.000389201               0.999999984              -0.000725731               0.000397946               0.999999984              -0.000729746               0.000406442               0.999999984              -0.000733149               0.000413174               0.999999984              -0.000734884               0.000416453               0.999999984              -0.000734240               0.000415521               0.999999984              -0.000730703               0.000409857               0.999999984              -0.000724067               0.000398769               0.999999984              -0.000714278               0.000381717               0.999999984              -0.000701503               0.000358490               0.999999984              -0.000686242               0.000329063               0.999999984              -0.000669134               0.000293769               0.999999984              -0.000706797               0.000644013               0.999999984              -0.000673043               0.000530508               0.999999984              -0.000652159               0.000491980               0.999999984              -0.000641987               0.000484019               0.999999984              -0.000638363               0.000488785               0.999999984              -0.000638361               0.000498830               0.999999984              -0.000639650               0.000510078               0.999999984              -0.000640316               0.000520471               0.999999984              -0.000638997               0.000527883               0.999999984              -0.000634840               0.000530853               0.999999984              -0.000627204               0.000528692               0.999999984              -0.000615839               0.000521063               0.999999984              -0.000600674               0.000507716               0.999999984              -0.000581875               0.000488523               0.999999984              -0.000560020               0.000463663               0.999999984              -0.000535738               0.000434124               0.999999984              -0.000509766               0.000400866               0.999999984              -0.000662028               0.000759700               0.999999984              -0.000600993               0.000633901               0.999999984              -0.000571922               0.000595134               0.999999984              -0.000559639               0.000589783               0.999999984              -0.000555456               0.000597630               0.999999984              -0.000554483               0.000610371               0.999999984              -0.000553451               0.000623616               0.999999984              -0.000550413               0.000635056               0.999999984              -0.000543981               0.000642560               0.999999984              -0.000533316               0.000644646               0.999999984              -0.000517954               0.000641045               0.999999984              -0.000497871               0.000631698               0.999999984              -0.000473282               0.000616727               0.999999984              -0.000444758               0.000596508               0.999999984              -0.000413186               0.000571639               0.999999984              -0.000379467               0.000543481               0.999999984              -0.000344429               0.000513457               0.999999984              -0.000611234               0.000868245               0.999999984              -0.000525109               0.000736093               0.999999984              -0.000491485               0.000698793               0.999999984              -0.000479834               0.000695907               0.999999984              -0.000476307               0.000706387               0.999999984              -0.000474624               0.000721227               0.999999984              -0.000471266               0.000735635               0.999999984              -0.000464177               0.000747283               0.999999984              -0.000451951               0.000754251               0.999999984              -0.000433749               0.000755205               0.999999984              -0.000409486               0.000750243               0.999999984              -0.000379435               0.000739707               0.999999984              -0.000344412               0.000723920               0.999999984              -0.000305466               0.000703798               0.999999984              -0.000263805               0.000680400               0.999999984              -0.000220436               0.000655018               0.999999984              -0.000176362               0.000629022               0.999999984              -0.000556179               0.000967666               0.999999984              -0.000447924               0.000836983               0.999999984              -0.000415000               0.000801378               0.999999984              -0.000405796               0.000800315               0.999999984              -0.000403599               0.000812672               0.999999984              -0.000401273               0.000828902               0.999999984              -0.000395198               0.000843879               0.999999984              -0.000383220               0.000855271               0.999999984              -0.000364125               0.000861236               0.999999984              -0.000337191               0.000860991               0.999999984              -0.000302659               0.000854938               0.999999984              -0.000261495               0.000843673               0.999999984              -0.000215174               0.000828021               0.999999984              -0.000165237               0.000809180               0.999999984              -0.000113066               0.000788551               0.999999984              -0.000059998               0.000767219               0.999999984              -0.000006833               0.000745824               0.999999984              -0.000499259               0.001061647               0.999999984              -0.000383453               0.000949633               0.999999984              -0.000347691               0.000909878               0.999999984              -0.000337498               0.000903299               0.999999984              -0.000335339               0.000911502               0.999999984              -0.000333906               0.000925788               0.999999984              -0.000329669               0.000941094               0.999999984              -0.000320706               0.000954665               0.999999984              -0.000305710               0.000965039               0.999999984              -0.000283558               0.000971150               0.999999984              -0.000253882               0.000972665               0.999999984              -0.000217244               0.000969898               0.999999984              -0.000174406               0.000963212               0.999999984              -0.000126759               0.000953515               0.999999984              -0.000075736               0.000941585               0.999999984              -0.000022506               0.000928581               0.999999984               0.000031476               0.000915199               0.999999984              -0.000436922               0.001147170               0.999999984              -0.000321839               0.001058655               0.999999984              -0.000283357               0.001021227               0.999999984              -0.000271406               0.001011538               0.999999984              -0.000268488               0.001016810               0.999999984              -0.000267246               0.001029467               0.999999984              -0.000264399               0.001045034               0.999999984              -0.000257698               0.001060707               0.999999984              -0.000246097               0.001074795               0.999999984              -0.000228364               0.001086222               0.999999984              -0.000203760               0.001094250               0.999999984              -0.000172060               0.001098851               0.999999984              -0.000133463               0.001100152               0.999999984              -0.000088856               0.001098661               0.999999984              -0.000039588               0.001095004               0.999999984               0.000013296               0.001089896               0.999999984               0.000068109               0.001084264               0.999999984              -0.000370486               0.001222129               0.999999984              -0.000263086               0.001160614               0.999999984              -0.000223769               0.001130160               0.999999984              -0.000209897               0.001120913               0.999999984              -0.000205648               0.001125067               0.999999984              -0.000204122               0.001137001               0.999999984              -0.000201911               0.001153053               0.999999984              -0.000197091               0.001170707               0.999999984              -0.000188147               0.001188370               0.999999984              -0.000174146               0.001204743               0.999999984              -0.000154199               0.001218946               0.999999984              -0.000127623               0.001230423               0.999999984              -0.000094007               0.001239108               0.999999984              -0.000053633               0.001245163               0.999999984              -0.000007044               0.001248942               0.999999984               0.000044799               0.001251201               0.999999984               0.000100587               0.001252800               0.999999984              -0.000300681               0.001285178               0.999999984              -0.000207156               0.001251222               0.999999984              -0.000169665               0.001231215               0.999999984              -0.000154767               0.001225607               0.999999984              -0.000149319               0.001230782               0.999999984              -0.000147242               0.001243263               0.999999984              -0.000145198               0.001260472               0.999999984              -0.000141479               0.001280453               0.999999984              -0.000134732               0.001301536               0.999999984              -0.000124041               0.001322541               0.999999984              -0.000108438               0.001342476               0.999999984              -0.000086986               0.001360719               0.999999984              -0.000059075               0.001376697               0.999999984              -0.000024145               0.001390326               0.999999984               0.000018149               0.001401774               0.999999984               0.000067731               0.001411569               0.999999984               0.000123970               0.001420292               0.999999984              -0.000228104               0.001335291               0.999999984              -0.000153519               0.001326504               0.999999984              -0.000121162               0.001318429               0.999999984              -0.000107088               0.001318428               0.999999984              -0.000101158               0.001326542               0.999999984              -0.000098562               0.001341144               0.999999984              -0.000096585               0.001360331               0.999999984              -0.000093570               0.001382743               0.999999984              -0.000088566               0.001407163               0.999999984              -0.000080696               0.001432539               0.999999984              -0.000069156               0.001457971               0.999999984              -0.000052916               0.001482706               0.999999984              -0.000031265               0.001506002               0.999999984              -0.000003146               0.001527555               0.999999984               0.000032523               0.001547169               0.999999984               0.000076687               0.001564889               0.999999984               0.000130192               0.001580967               0.999999984              -0.000153333               0.001371674               0.999999984              -0.000101538               0.001382902               0.999999984              -0.000077702               0.001385792               0.999999984              -0.000066555               0.001391952               0.999999984              -0.000061402               0.001403766               0.999999984              -0.000058974               0.001421077               0.999999984              -0.000057286               0.001442868               0.999999984              -0.000055042               0.001467926               0.999999984              -0.000051492               0.001495395               0.999999984              -0.000046145               0.001524596               0.999999984              -0.000038502               0.001554863               0.999999984              -0.000027663               0.001585354               0.999999984              -0.000012635               0.001615405               0.999999984               0.000007552               0.001644644               0.999999984               0.000033815               0.001672453               0.999999984               0.000067760               0.001698300               0.999999984               0.000111397               0.001721911               0.999999984              -0.000077050               0.001393767               0.999999984              -0.000050547               0.001417842               0.999999984              -0.000037891               0.001428387               0.999999984              -0.000031709               0.001439232               0.999999984              -0.000028725               0.001454203               0.999999984              -0.000027157               0.001473852               0.999999984              -0.000026151               0.001497728               0.999999984              -0.000025001               0.001525031               0.999999984              -0.000023142               0.001555054               0.999999984              -0.000020304               0.001587153               0.999999984              -0.000016457               0.001620807               0.999999984              -0.000010889               0.001655426               0.999999984              -0.000003065               0.001690356               0.999999984               0.000007511               0.001725046               0.999999984               0.000021559               0.001758812               0.999999984               0.000040053               0.001790902               0.999999984               0.000064866               0.001820549               0.999999984              -0.000000000               0.001401194               0.999999984              -0.000000000               0.001429713               0.999999984              -0.000000000               0.001442994               0.999999984              -0.000000000               0.001455555               0.999999984              -0.000000000               0.001471785               0.999999984               0.000000000               0.001492328               0.999999984               0.000000000               0.001516967               0.999999984              -0.000000000               0.001545208               0.999999984              -0.000000000               0.001576296               0.999999984              -0.000000000               0.001609516               0.999999984              -0.000000000               0.001644501               0.999999984              -0.000000000               0.001680632               0.999999984               0.000000000               0.001717216               0.999999984               0.000000000               0.001753821               0.999999984              -0.000000000               0.001789732               0.999999984               0.000000000               0.001824163               0.999999984               0.000000000               0.001856133               0.999999984              -0.000814702              -0.000000000               0.999999984              -0.000866151              -0.000000000               0.999999984              -0.000888312               0.000000000               0.999999984              -0.000900660               0.000000000               0.999999984              -0.000910400               0.000000000               0.999999984              -0.000920266               0.000000000               0.999999984              -0.000931027               0.000000000               0.999999984              -0.000943039               0.000000000               0.999999984              -0.000956259               0.000000000               0.999999984              -0.000970504               0.000000000               0.999999984              -0.000985435               0.000000000               0.999999984              -0.001000742               0.000000000               0.999999984              -0.001015998               0.000000000               0.999999984              -0.001030574              -0.000000000               0.999999984              -0.001043857               0.000000000               0.999999984              -0.001055068               0.000000000               0.999999984              -0.001063224               0.000000000               0.999999984              -0.000810127              -0.000133690               0.999999984              -0.000857588              -0.000107580               0.999999984              -0.000877199              -0.000095873               0.999999984              -0.000887916              -0.000091183               0.999999984              -0.000896499              -0.000090164               0.999999984              -0.000905456              -0.000090754               0.999999984              -0.000915564              -0.000092283               0.999999984              -0.000926868              -0.000094011               0.999999984              -0.000939406              -0.000095770               0.999999984              -0.000952883              -0.000096936               0.999999984              -0.000966774              -0.000097143               0.999999984              -0.000980695              -0.000096093               0.999999984              -0.000994142              -0.000093238               0.999999984              -0.001006577              -0.000088164               0.999999984              -0.001017459              -0.000080069               0.999999984              -0.001026137              -0.000067966               0.999999984              -0.001031902              -0.000050915               0.999999984              -0.000796735              -0.000266086               0.999999984              -0.000832395              -0.000214717               0.999999984              -0.000844743              -0.000192477               0.999999984              -0.000851050              -0.000184246               0.999999984              -0.000856774              -0.000182806               0.999999984              -0.000863545              -0.000184721               0.999999984              -0.000871836              -0.000188150               0.999999984              -0.000881442              -0.000191991               0.999999984              -0.000891918              -0.000195562               0.999999984              -0.000902717              -0.000197797               0.999999984              -0.000913354              -0.000198008               0.999999984              -0.000923221              -0.000195668               0.999999984              -0.000931833              -0.000189962               0.999999984              -0.000938712              -0.000180102               0.999999984              -0.000943348              -0.000165033               0.999999984              -0.000945542              -0.000143428               0.999999984              -0.000945170              -0.000114096               0.999999984              -0.000774777              -0.000396032               0.999999984              -0.000791728              -0.000320984               0.999999984              -0.000793509              -0.000290495               0.999999984              -0.000793772              -0.000280536               0.999999984              -0.000795720              -0.000280054               0.999999984              -0.000799866              -0.000284054               0.999999984              -0.000805773              -0.000290003               0.999999984              -0.000812793              -0.000296254               0.999999984              -0.000820112              -0.000301539               0.999999984              -0.000826962              -0.000304538               0.999999984              -0.000832609              -0.000304428               0.999999984              -0.000836440              -0.000300540               0.999999984              -0.000837988              -0.000291974               0.999999984              -0.000836899              -0.000278084               0.999999984              -0.000833064              -0.000258003               0.999999984              -0.000826687              -0.000230798               0.999999984              -0.000818187              -0.000195826               0.999999984              -0.000744558              -0.000522421               0.999999984              -0.000737698              -0.000426223               0.999999984              -0.000727729              -0.000390277               0.999999984              -0.000721945              -0.000380557               0.999999984              -0.000720488              -0.000382339               0.999999984              -0.000722253              -0.000389201               0.999999984              -0.000725731              -0.000397946               0.999999984              -0.000729746              -0.000406442               0.999999984              -0.000733149              -0.000413174               0.999999984              -0.000734884              -0.000416453               0.999999984              -0.000734240              -0.000415521               0.999999984              -0.000730703              -0.000409857               0.999999984              -0.000724067              -0.000398769               0.999999984              -0.000714278              -0.000381717               0.999999984              -0.000701503              -0.000358490               0.999999984              -0.000686242              -0.000329063               0.999999984              -0.000669134              -0.000293769               0.999999984              -0.000706797              -0.000644013               0.999999984              -0.000673043              -0.000530508               0.999999984              -0.000652159              -0.000491980               0.999999984              -0.000641987              -0.000484019               0.999999984              -0.000638363              -0.000488785               0.999999984              -0.000638361              -0.000498830               0.999999984              -0.000639650              -0.000510078               0.999999984              -0.000640316              -0.000520471               0.999999984              -0.000638997              -0.000527883               0.999999984              -0.000634840              -0.000530853               0.999999984              -0.000627204              -0.000528692               0.999999984              -0.000615839              -0.000521063               0.999999984              -0.000600674              -0.000507716               0.999999984              -0.000581875              -0.000488523               0.999999984              -0.000560020              -0.000463663               0.999999984              -0.000535738              -0.000434124               0.999999984              -0.000509766              -0.000400866               0.999999984              -0.000662028              -0.000759700               0.999999984              -0.000600993              -0.000633901               0.999999984              -0.000571922              -0.000595134               0.999999984              -0.000559639              -0.000589783               0.999999984              -0.000555456              -0.000597630               0.999999984              -0.000554483              -0.000610371               0.999999984              -0.000553451              -0.000623616               0.999999984              -0.000550413              -0.000635056               0.999999984              -0.000543981              -0.000642560               0.999999984              -0.000533316              -0.000644646               0.999999984              -0.000517954              -0.000641045               0.999999984              -0.000497871              -0.000631698               0.999999984              -0.000473282              -0.000616727               0.999999984              -0.000444758              -0.000596508               0.999999984              -0.000413186              -0.000571639               0.999999984              -0.000379467              -0.000543481               0.999999984              -0.000344429              -0.000513457               0.999999984              -0.000611234              -0.000868245               0.999999984              -0.000525109              -0.000736093               0.999999984              -0.000491485              -0.000698793               0.999999984              -0.000479834              -0.000695907               0.999999984              -0.000476307              -0.000706387               0.999999984              -0.000474624              -0.000721227               0.999999984              -0.000471266              -0.000735635               0.999999984              -0.000464177              -0.000747283               0.999999984              -0.000451951              -0.000754251               0.999999984              -0.000433749              -0.000755205               0.999999984              -0.000409486              -0.000750243               0.999999984              -0.000379435              -0.000739707               0.999999984              -0.000344412              -0.000723920               0.999999984              -0.000305466              -0.000703798               0.999999984              -0.000263805              -0.000680400               0.999999984              -0.000220436              -0.000655018               0.999999984              -0.000176362              -0.000629022               0.999999984              -0.000556179              -0.000967666               0.999999984              -0.000447924              -0.000836983               0.999999984              -0.000415000              -0.000801378               0.999999984              -0.000405796              -0.000800315               0.999999984              -0.000403599              -0.000812672               0.999999984              -0.000401273              -0.000828902               0.999999984              -0.000395198              -0.000843879               0.999999984              -0.000383220              -0.000855271               0.999999984              -0.000364125              -0.000861236               0.999999984              -0.000337191              -0.000860991               0.999999984              -0.000302659              -0.000854938               0.999999984              -0.000261495              -0.000843673               0.999999984              -0.000215174              -0.000828021               0.999999984              -0.000165237              -0.000809180               0.999999984              -0.000113066              -0.000788551               0.999999984              -0.000059998              -0.000767219               0.999999984              -0.000006833              -0.000745824               0.999999984              -0.000499259              -0.001061647               0.999999984              -0.000383453              -0.000949633               0.999999984              -0.000347691              -0.000909878               0.999999984              -0.000337498              -0.000903299               0.999999984              -0.000335339              -0.000911502               0.999999984              -0.000333906              -0.000925788               0.999999984              -0.000329669              -0.000941094               0.999999984              -0.000320706              -0.000954665               0.999999984              -0.000305710              -0.000965039               0.999999984              -0.000283558              -0.000971150               0.999999984              -0.000253882              -0.000972665               0.999999984              -0.000217244              -0.000969898               0.999999984              -0.000174406              -0.000963212               0.999999984              -0.000126759              -0.000953515               0.999999984              -0.000075736              -0.000941585               0.999999984              -0.000022506              -0.000928581               0.999999984               0.000031476              -0.000915199               0.999999984              -0.000436922              -0.001147170               0.999999984              -0.000321839              -0.001058655               0.999999984              -0.000283357              -0.001021227               0.999999984              -0.000271406              -0.001011538               0.999999984              -0.000268488              -0.001016810               0.999999984              -0.000267246              -0.001029467               0.999999984              -0.000264399              -0.001045034               0.999999984              -0.000257698              -0.001060707               0.999999984              -0.000246097              -0.001074795               0.999999984              -0.000228364              -0.001086222               0.999999984              -0.000203760              -0.001094250               0.999999984              -0.000172060              -0.001098851               0.999999984              -0.000133463              -0.001100152               0.999999984              -0.000088856              -0.001098661               0.999999984              -0.000039588              -0.001095004               0.999999984               0.000013296              -0.001089896               0.999999984               0.000068109              -0.001084264               0.999999984              -0.000370486              -0.001222129               0.999999984              -0.000263086              -0.001160614               0.999999984              -0.000223769              -0.001130160               0.999999984              -0.000209897              -0.001120913               0.999999984              -0.000205648              -0.001125067               0.999999984              -0.000204122              -0.001137001               0.999999984              -0.000201911              -0.001153053               0.999999984              -0.000197091              -0.001170707               0.999999984              -0.000188147              -0.001188370               0.999999984              -0.000174146              -0.001204743               0.999999984              -0.000154199              -0.001218946               0.999999984              -0.000127623              -0.001230423               0.999999984              -0.000094007              -0.001239108               0.999999984              -0.000053633              -0.001245163               0.999999984              -0.000007044              -0.001248942               0.999999984               0.000044799              -0.001251201               0.999999984               0.000100587              -0.001252800               0.999999984              -0.000300681              -0.001285178               0.999999984              -0.000207156              -0.001251222               0.999999984              -0.000169665              -0.001231215               0.999999984              -0.000154767              -0.001225607               0.999999984              -0.000149319              -0.001230782               0.999999984              -0.000147242              -0.001243263               0.999999984              -0.000145198              -0.001260472               0.999999984              -0.000141479              -0.001280453               0.999999984              -0.000134732              -0.001301536               0.999999984              -0.000124041              -0.001322541               0.999999984              -0.000108438              -0.001342476               0.999999984              -0.000086986              -0.001360719               0.999999984              -0.000059075              -0.001376697               0.999999984              -0.000024145              -0.001390326               0.999999984               0.000018149              -0.001401774               0.999999984               0.000067731              -0.001411569               0.999999984               0.000123970              -0.001420292               0.999999984              -0.000228104              -0.001335291               0.999999984              -0.000153519              -0.001326504               0.999999984              -0.000121162              -0.001318429               0.999999984              -0.000107088              -0.001318428               0.999999984              -0.000101158              -0.001326542               0.999999984              -0.000098562              -0.001341144               0.999999984              -0.000096585              -0.001360331               0.999999984              -0.000093570              -0.001382743               0.999999984              -0.000088566              -0.001407163               0.999999984              -0.000080696              -0.001432539               0.999999984              -0.000069156              -0.001457971               0.999999984              -0.000052916              -0.001482706               0.999999984              -0.000031265              -0.001506002               0.999999984              -0.000003146              -0.001527555               0.999999984               0.000032523              -0.001547169               0.999999984               0.000076687              -0.001564889               0.999999984               0.000130192              -0.001580967               0.999999984              -0.000153333              -0.001371674               0.999999984              -0.000101538              -0.001382902               0.999999984              -0.000077702              -0.001385792               0.999999984              -0.000066555              -0.001391952               0.999999984              -0.000061402              -0.001403766               0.999999984              -0.000058974              -0.001421077               0.999999984              -0.000057286              -0.001442868               0.999999984              -0.000055042              -0.001467926               0.999999984              -0.000051492              -0.001495395               0.999999984              -0.000046145              -0.001524596               0.999999984              -0.000038502              -0.001554863               0.999999984              -0.000027663              -0.001585354               0.999999984              -0.000012635              -0.001615405               0.999999984               0.000007552              -0.001644644               0.999999984               0.000033815              -0.001672453               0.999999984               0.000067760              -0.001698300               0.999999984               0.000111397              -0.001721911               0.999999984              -0.000077050              -0.001393767               0.999999984              -0.000050547              -0.001417842               0.999999984              -0.000037891              -0.001428387               0.999999984              -0.000031709              -0.001439232               0.999999984              -0.000028725              -0.001454203               0.999999984              -0.000027157              -0.001473852               0.999999984              -0.000026151              -0.001497728               0.999999984              -0.000025001              -0.001525031               0.999999984              -0.000023142              -0.001555054               0.999999984              -0.000020304              -0.001587153               0.999999984              -0.000016457              -0.001620807               0.999999984              -0.000010889              -0.001655426               0.999999984              -0.000003065              -0.001690356               0.999999984               0.000007511              -0.001725046               0.999999984               0.000021559              -0.001758812               0.999999984               0.000040053              -0.001790902               0.999999984               0.000064866              -0.001820549               0.999999984              -0.000000000              -0.001401194               0.999999984               0.000000000              -0.001429713               0.999999984              -0.000000000              -0.001442994               0.999999984               0.000000000              -0.001455555               0.999999984               0.000000000              -0.001471785               0.999999984              -0.000000000              -0.001492328               0.999999984              -0.000000000              -0.001516967               0.999999984              -0.000000000              -0.001545208               0.999999984               0.000000000              -0.001576296               0.999999984              -0.000000000              -0.001609516               0.999999984               0.000000000              -0.001644501               0.999999984              -0.000000000              -0.001680632               0.999999984               0.000000000              -0.001717216               0.999999984               0.000000000              -0.001753821               0.999999984              -0.000000000              -0.001789732               0.999999984               0.000000000              -0.001824163               0.999999984              -0.000000000              -0.001856133               0.999999984               0.000814702               0.000000000               0.999999984               0.000866151              -0.000000000               0.999999984               0.000888312              -0.000000000               0.999999984               0.000900660               0.000000000               0.999999984               0.000910400               0.000000000               0.999999984               0.000920266               0.000000000               0.999999984               0.000931027               0.000000000               0.999999984               0.000943039              -0.000000000               0.999999984               0.000956259               0.000000000               0.999999984               0.000970504               0.000000000               0.999999984               0.000985435               0.000000000               0.999999984               0.001000742              -0.000000000               0.999999984               0.001015998              -0.000000000               0.999999984               0.001030574               0.000000000               0.999999984               0.001043857              -0.000000000               0.999999984               0.001055068               0.000000000               0.999999984               0.001063224               0.000000000               0.999999984               0.000810127              -0.000133690               0.999999984               0.000857588              -0.000107580               0.999999984               0.000877199              -0.000095873               0.999999984               0.000887916              -0.000091183               0.999999984               0.000896499              -0.000090164               0.999999984               0.000905456              -0.000090754               0.999999984               0.000915564              -0.000092283               0.999999984               0.000926868              -0.000094011               0.999999984               0.000939406              -0.000095770               0.999999984               0.000952883              -0.000096936               0.999999984               0.000966774              -0.000097143               0.999999984               0.000980695              -0.000096093               0.999999984               0.000994142              -0.000093238               0.999999984               0.001006577              -0.000088164               0.999999984               0.001017459              -0.000080069               0.999999984               0.001026137              -0.000067966               0.999999984               0.001031902              -0.000050915               0.999999984               0.000796735              -0.000266086               0.999999984               0.000832395              -0.000214717               0.999999984               0.000844743              -0.000192477               0.999999984               0.000851050              -0.000184246               0.999999984               0.000856774              -0.000182806               0.999999984               0.000863545              -0.000184721               0.999999984               0.000871836              -0.000188150               0.999999984               0.000881442              -0.000191991               0.999999984               0.000891918              -0.000195562               0.999999984               0.000902717              -0.000197797               0.999999984               0.000913354              -0.000198008               0.999999984               0.000923221              -0.000195668               0.999999984               0.000931833              -0.000189962               0.999999984               0.000938712              -0.000180102               0.999999984               0.000943348              -0.000165033               0.999999984               0.000945542              -0.000143428               0.999999984               0.000945170              -0.000114096               0.999999984               0.000774777              -0.000396032               0.999999984               0.000791728              -0.000320984               0.999999984               0.000793509              -0.000290495               0.999999984               0.000793772              -0.000280536               0.999999984               0.000795720              -0.000280054               0.999999984               0.000799866              -0.000284054               0.999999984               0.000805773              -0.000290003               0.999999984               0.000812793              -0.000296254               0.999999984               0.000820112              -0.000301539               0.999999984               0.000826962              -0.000304538               0.999999984               0.000832609              -0.000304428               0.999999984               0.000836440              -0.000300540               0.999999984               0.000837988              -0.000291974               0.999999984               0.000836899              -0.000278084               0.999999984               0.000833064              -0.000258003               0.999999984               0.000826687              -0.000230798               0.999999984               0.000818187              -0.000195826               0.999999984               0.000744558              -0.000522421               0.999999984               0.000737698              -0.000426223               0.999999984               0.000727729              -0.000390277               0.999999984               0.000721945              -0.000380557               0.999999984               0.000720488              -0.000382339               0.999999984               0.000722253              -0.000389201               0.999999984               0.000725731              -0.000397946               0.999999984               0.000729746              -0.000406442               0.999999984               0.000733149              -0.000413174               0.999999984               0.000734884              -0.000416453               0.999999984               0.000734240              -0.000415521               0.999999984               0.000730703              -0.000409857               0.999999984               0.000724067              -0.000398769               0.999999984               0.000714278              -0.000381717               0.999999984               0.000701503              -0.000358490               0.999999984               0.000686242              -0.000329063               0.999999984               0.000669134              -0.000293769               0.999999984               0.000706797              -0.000644013               0.999999984               0.000673043              -0.000530508               0.999999984               0.000652159              -0.000491980               0.999999984               0.000641987              -0.000484019               0.999999984               0.000638363              -0.000488785               0.999999984               0.000638361              -0.000498830               0.999999984               0.000639650              -0.000510078               0.999999984               0.000640316              -0.000520471               0.999999984               0.000638997              -0.000527883               0.999999984               0.000634840              -0.000530853               0.999999984               0.000627204              -0.000528692               0.999999984               0.000615839              -0.000521063               0.999999984               0.000600674              -0.000507716               0.999999984               0.000581875              -0.000488523               0.999999984               0.000560020              -0.000463663               0.999999984               0.000535738              -0.000434124               0.999999984               0.000509766              -0.000400866               0.999999984               0.000662028              -0.000759700               0.999999984               0.000600993              -0.000633901               0.999999984               0.000571922              -0.000595134               0.999999984               0.000559639              -0.000589783               0.999999984               0.000555456              -0.000597630               0.999999984               0.000554483              -0.000610371               0.999999984               0.000553451              -0.000623616               0.999999984               0.000550413              -0.000635056               0.999999984               0.000543981              -0.000642560               0.999999984               0.000533316              -0.000644646               0.999999984               0.000517954              -0.000641045               0.999999984               0.000497871              -0.000631698               0.999999984               0.000473282              -0.000616727               0.999999984               0.000444758              -0.000596508               0.999999984               0.000413186              -0.000571639               0.999999984               0.000379467              -0.000543481               0.999999984               0.000344429              -0.000513457               0.999999984               0.000611234              -0.000868245               0.999999984               0.000525109              -0.000736093               0.999999984               0.000491485              -0.000698793               0.999999984               0.000479834              -0.000695907               0.999999984               0.000476307              -0.000706387               0.999999984               0.000474624              -0.000721227               0.999999984               0.000471266              -0.000735635               0.999999984               0.000464177              -0.000747283               0.999999984               0.000451951              -0.000754251               0.999999984               0.000433749              -0.000755205               0.999999984               0.000409486              -0.000750243               0.999999984               0.000379435              -0.000739707               0.999999984               0.000344412              -0.000723920               0.999999984               0.000305466              -0.000703798               0.999999984               0.000263805              -0.000680400               0.999999984               0.000220436              -0.000655018               0.999999984               0.000176362              -0.000629022               0.999999984               0.000556179              -0.000967666               0.999999984               0.000447924              -0.000836983               0.999999984               0.000415000              -0.000801378               0.999999984               0.000405796              -0.000800315               0.999999984               0.000403599              -0.000812672               0.999999984               0.000401273              -0.000828902               0.999999984               0.000395198              -0.000843879               0.999999984               0.000383220              -0.000855271               0.999999984               0.000364125              -0.000861236               0.999999984               0.000337191              -0.000860991               0.999999984               0.000302659              -0.000854938               0.999999984               0.000261495              -0.000843673               0.999999984               0.000215174              -0.000828021               0.999999984               0.000165237              -0.000809180               0.999999984               0.000113066              -0.000788551               0.999999984               0.000059998              -0.000767219               0.999999984               0.000006833              -0.000745824               0.999999984               0.000499259              -0.001061647               0.999999984               0.000383453              -0.000949633               0.999999984               0.000347691              -0.000909878               0.999999984               0.000337498              -0.000903299               0.999999984               0.000335339              -0.000911502               0.999999984               0.000333906              -0.000925788               0.999999984               0.000329669              -0.000941094               0.999999984               0.000320706              -0.000954665               0.999999984               0.000305710              -0.000965039               0.999999984               0.000283558              -0.000971150               0.999999984               0.000253882              -0.000972665               0.999999984               0.000217244              -0.000969898               0.999999984               0.000174406              -0.000963212               0.999999984               0.000126759              -0.000953515               0.999999984               0.000075736              -0.000941585               0.999999984               0.000022506              -0.000928581               0.999999984              -0.000031476              -0.000915199               0.999999984               0.000436922              -0.001147170               0.999999984               0.000321839              -0.001058655               0.999999984               0.000283357              -0.001021227               0.999999984               0.000271406              -0.001011538               0.999999984               0.000268488              -0.001016810               0.999999984               0.000267246              -0.001029467               0.999999984               0.000264399              -0.001045034               0.999999984               0.000257698              -0.001060707               0.999999984               0.000246097              -0.001074795               0.999999984               0.000228364              -0.001086222               0.999999984               0.000203760              -0.001094250               0.999999984               0.000172060              -0.001098851               0.999999984               0.000133463              -0.001100152               0.999999984               0.000088856              -0.001098661               0.999999984               0.000039588              -0.001095004               0.999999984              -0.000013296              -0.001089896               0.999999984              -0.000068109              -0.001084264               0.999999984               0.000370486              -0.001222129               0.999999984               0.000263086              -0.001160614               0.999999984               0.000223769              -0.001130160               0.999999984               0.000209897              -0.001120913               0.999999984               0.000205648              -0.001125067               0.999999984               0.000204122              -0.001137001               0.999999984               0.000201911              -0.001153053               0.999999984               0.000197091              -0.001170707               0.999999984               0.000188147              -0.001188370               0.999999984               0.000174146              -0.001204743               0.999999984               0.000154199              -0.001218946               0.999999984               0.000127623              -0.001230423               0.999999984               0.000094007              -0.001239108               0.999999984               0.000053633              -0.001245163               0.999999984               0.000007044              -0.001248942               0.999999984              -0.000044799              -0.001251201               0.999999984              -0.000100587              -0.001252800               0.999999984               0.000300681              -0.001285178               0.999999984               0.000207156              -0.001251222               0.999999984               0.000169665              -0.001231215               0.999999984               0.000154767              -0.001225607               0.999999984               0.000149319              -0.001230782               0.999999984               0.000147242              -0.001243263               0.999999984               0.000145198              -0.001260472               0.999999984               0.000141479              -0.001280453               0.999999984               0.000134732              -0.001301536               0.999999984               0.000124041              -0.001322541               0.999999984               0.000108438              -0.001342476               0.999999984               0.000086986              -0.001360719               0.999999984               0.000059075              -0.001376697               0.999999984               0.000024145              -0.001390326               0.999999984              -0.000018149              -0.001401774               0.999999984              -0.000067731              -0.001411569               0.999999984              -0.000123970              -0.001420292               0.999999984               0.000228104              -0.001335291               0.999999984               0.000153519              -0.001326504               0.999999984               0.000121162              -0.001318429               0.999999984               0.000107088              -0.001318428               0.999999984               0.000101158              -0.001326542               0.999999984               0.000098562              -0.001341144               0.999999984               0.000096585              -0.001360331               0.999999984               0.000093570              -0.001382743               0.999999984               0.000088566              -0.001407163               0.999999984               0.000080696              -0.001432539               0.999999984               0.000069156              -0.001457971               0.999999984               0.000052916              -0.001482706               0.999999984               0.000031265              -0.001506002               0.999999984               0.000003146              -0.001527555               0.999999984              -0.000032523              -0.001547169               0.999999984              -0.000076687              -0.001564889               0.999999984              -0.000130192              -0.001580967               0.999999984               0.000153333              -0.001371674               0.999999984               0.000101538              -0.001382902               0.999999984               0.000077702              -0.001385792               0.999999984               0.000066555              -0.001391952               0.999999984               0.000061402              -0.001403766               0.999999984               0.000058974              -0.001421077               0.999999984               0.000057286              -0.001442868               0.999999984               0.000055042              -0.001467926               0.999999984               0.000051492              -0.001495395               0.999999984               0.000046145              -0.001524596               0.999999984               0.000038502              -0.001554863               0.999999984               0.000027663              -0.001585354               0.999999984               0.000012635              -0.001615405               0.999999984              -0.000007552              -0.001644644               0.999999984              -0.000033815              -0.001672453               0.999999984              -0.000067760              -0.001698300               0.999999984              -0.000111397              -0.001721911               0.999999984               0.000077050              -0.001393767               0.999999984               0.000050547              -0.001417842               0.999999984               0.000037891              -0.001428387               0.999999984               0.000031709              -0.001439232               0.999999984               0.000028725              -0.001454203               0.999999984               0.000027157              -0.001473852               0.999999984               0.000026151              -0.001497728               0.999999984               0.000025001              -0.001525031               0.999999984               0.000023142              -0.001555054               0.999999984               0.000020304              -0.001587153               0.999999984               0.000016457              -0.001620807               0.999999984               0.000010889              -0.001655426               0.999999984               0.000003065              -0.001690356               0.999999984              -0.000007511              -0.001725046               0.999999984              -0.000021559              -0.001758812               0.999999984              -0.000040053              -0.001790902               0.999999984              -0.000064866              -0.001820549               0.999999984              -0.000000000              -0.001401194               0.999999984               0.000000000              -0.001429713               0.999999984              -0.000000000              -0.001442994               0.999999984               0.000000000              -0.001455555               0.999999984               0.000000000              -0.001471785               0.999999984              -0.000000000              -0.001492328               0.999999984              -0.000000000              -0.001516967               0.999999984              -0.000000000              -0.001545208               0.999999984               0.000000000              -0.001576296               0.999999984              -0.000000000              -0.001609516               0.999999984               0.000000000              -0.001644501               0.999999984              -0.000000000              -0.001680632               0.999999984               0.000000000              -0.001717216               0.999999984               0.000000000              -0.001753821               0.999999984              -0.000000000              -0.001789732               0.999999984               0.000000000              -0.001824163               0.999999984              -0.000000000              -0.001856133               0.999999984               0.000814702               0.000000000               0.999999984               0.000866151              -0.000000000               0.999999984               0.000888312              -0.000000000               0.999999984               0.000900660               0.000000000               0.999999984               0.000910400               0.000000000               0.999999984               0.000920266               0.000000000               0.999999984               0.000931027               0.000000000               0.999999984               0.000943039              -0.000000000               0.999999984               0.000956259               0.000000000               0.999999984               0.000970504               0.000000000               0.999999984               0.000985435               0.000000000               0.999999984               0.001000742              -0.000000000               0.999999984               0.001015998              -0.000000000               0.999999984               0.001030574               0.000000000               0.999999984               0.001043857              -0.000000000               0.999999984               0.001055068               0.000000000               0.999999984               0.001063224               0.000000000               0.999999984               0.000810127               0.000133690               0.999999984               0.000857588               0.000107580               0.999999984               0.000877199               0.000095873               0.999999984               0.000887916               0.000091183               0.999999984               0.000896499               0.000090164               0.999999984               0.000905456               0.000090754               0.999999984               0.000915564               0.000092283               0.999999984               0.000926868               0.000094011               0.999999984               0.000939406               0.000095770               0.999999984               0.000952883               0.000096936               0.999999984               0.000966774               0.000097143               0.999999984               0.000980695               0.000096093               0.999999984               0.000994142               0.000093238               0.999999984               0.001006577               0.000088164               0.999999984               0.001017459               0.000080069               0.999999984               0.001026137               0.000067966               0.999999984               0.001031902               0.000050915               0.999999984               0.000796735               0.000266086               0.999999984               0.000832395               0.000214717               0.999999984               0.000844743               0.000192477               0.999999984               0.000851050               0.000184246               0.999999984               0.000856774               0.000182806               0.999999984               0.000863545               0.000184721               0.999999984               0.000871836               0.000188150               0.999999984               0.000881442               0.000191991               0.999999984               0.000891918               0.000195562               0.999999984               0.000902717               0.000197797               0.999999984               0.000913354               0.000198008               0.999999984               0.000923221               0.000195668               0.999999984               0.000931833               0.000189962               0.999999984               0.000938712               0.000180102               0.999999984               0.000943348               0.000165033               0.999999984               0.000945542               0.000143428               0.999999984               0.000945170               0.000114096               0.999999984               0.000774777               0.000396032               0.999999984               0.000791728               0.000320984               0.999999984               0.000793509               0.000290495               0.999999984               0.000793772               0.000280536               0.999999984               0.000795720               0.000280054               0.999999984               0.000799866               0.000284054               0.999999984               0.000805773               0.000290003               0.999999984               0.000812793               0.000296254               0.999999984               0.000820112               0.000301539               0.999999984               0.000826962               0.000304538               0.999999984               0.000832609               0.000304428               0.999999984               0.000836440               0.000300540               0.999999984               0.000837988               0.000291974               0.999999984               0.000836899               0.000278084               0.999999984               0.000833064               0.000258003               0.999999984               0.000826687               0.000230798               0.999999984               0.000818187               0.000195826               0.999999984               0.000744558               0.000522421               0.999999984               0.000737698               0.000426223               0.999999984               0.000727729               0.000390277               0.999999984               0.000721945               0.000380557               0.999999984               0.000720488               0.000382339               0.999999984               0.000722253               0.000389201               0.999999984               0.000725731               0.000397946               0.999999984               0.000729746               0.000406442               0.999999984               0.000733149               0.000413174               0.999999984               0.000734884               0.000416453               0.999999984               0.000734240               0.000415521               0.999999984               0.000730703               0.000409857               0.999999984               0.000724067               0.000398769               0.999999984               0.000714278               0.000381717               0.999999984               0.000701503               0.000358490               0.999999984               0.000686242               0.000329063               0.999999984               0.000669134               0.000293769               0.999999984               0.000706797               0.000644013               0.999999984               0.000673043               0.000530508               0.999999984               0.000652159               0.000491980               0.999999984               0.000641987               0.000484019               0.999999984               0.000638363               0.000488785               0.999999984               0.000638361               0.000498830               0.999999984               0.000639650               0.000510078               0.999999984               0.000640316               0.000520471               0.999999984               0.000638997               0.000527883               0.999999984               0.000634840               0.000530853               0.999999984               0.000627204               0.000528692               0.999999984               0.000615839               0.000521063               0.999999984               0.000600674               0.000507716               0.999999984               0.000581875               0.000488523               0.999999984               0.000560020               0.000463663               0.999999984               0.000535738               0.000434124               0.999999984               0.000509766               0.000400866               0.999999984               0.000662028               0.000759700               0.999999984               0.000600993               0.000633901               0.999999984               0.000571922               0.000595134               0.999999984               0.000559639               0.000589783               0.999999984               0.000555456               0.000597630               0.999999984               0.000554483               0.000610371               0.999999984               0.000553451               0.000623616               0.999999984               0.000550413               0.000635056               0.999999984               0.000543981               0.000642560               0.999999984               0.000533316               0.000644646               0.999999984               0.000517954               0.000641045               0.999999984               0.000497871               0.000631698               0.999999984               0.000473282               0.000616727               0.999999984               0.000444758               0.000596508               0.999999984               0.000413186               0.000571639               0.999999984               0.000379467               0.000543481               0.999999984               0.000344429               0.000513457               0.999999984               0.000611234               0.000868245               0.999999984               0.000525109               0.000736093               0.999999984               0.000491485               0.000698793               0.999999984               0.000479834               0.000695907               0.999999984               0.000476307               0.000706387               0.999999984               0.000474624               0.000721227               0.999999984               0.000471266               0.000735635               0.999999984               0.000464177               0.000747283               0.999999984               0.000451951               0.000754251               0.999999984               0.000433749               0.000755205               0.999999984               0.000409486               0.000750243               0.999999984               0.000379435               0.000739707               0.999999984               0.000344412               0.000723920               0.999999984               0.000305466               0.000703798               0.999999984               0.000263805               0.000680400               0.999999984               0.000220436               0.000655018               0.999999984               0.000176362               0.000629022               0.999999984               0.000556179               0.000967666               0.999999984               0.000447924               0.000836983               0.999999984               0.000415000               0.000801378               0.999999984               0.000405796               0.000800315               0.999999984               0.000403599               0.000812672               0.999999984               0.000401273               0.000828902               0.999999984               0.000395198               0.000843879               0.999999984               0.000383220               0.000855271               0.999999984               0.000364125               0.000861236               0.999999984               0.000337191               0.000860991               0.999999984               0.000302659               0.000854938               0.999999984               0.000261495               0.000843673               0.999999984               0.000215174               0.000828021               0.999999984               0.000165237               0.000809180               0.999999984               0.000113066               0.000788551               0.999999984               0.000059998               0.000767219               0.999999984               0.000006833               0.000745824               0.999999984               0.000499259               0.001061647               0.999999984               0.000383453               0.000949633               0.999999984               0.000347691               0.000909878               0.999999984               0.000337498               0.000903299               0.999999984               0.000335339               0.000911502               0.999999984               0.000333906               0.000925788               0.999999984               0.000329669               0.000941094               0.999999984               0.000320706               0.000954665               0.999999984               0.000305710               0.000965039               0.999999984               0.000283558               0.000971150               0.999999984               0.000253882               0.000972665               0.999999984               0.000217244               0.000969898               0.999999984               0.000174406               0.000963212               0.999999984               0.000126759               0.000953515               0.999999984               0.000075736               0.000941585               0.999999984               0.000022506               0.000928581               0.999999984              -0.000031476               0.000915199               0.999999984               0.000436922               0.001147170               0.999999984               0.000321839               0.001058655               0.999999984               0.000283357               0.001021227               0.999999984               0.000271406               0.001011538               0.999999984               0.000268488               0.001016810               0.999999984               0.000267246               0.001029467               0.999999984               0.000264399               0.001045034               0.999999984               0.000257698               0.001060707               0.999999984               0.000246097               0.001074795               0.999999984               0.000228364               0.001086222               0.999999984               0.000203760               0.001094250               0.999999984               0.000172060               0.001098851               0.999999984               0.000133463               0.001100152               0.999999984               0.000088856               0.001098661               0.999999984               0.000039588               0.001095004               0.999999984              -0.000013296               0.001089896               0.999999984              -0.000068109               0.001084264               0.999999984               0.000370486               0.001222129               0.999999984               0.000263086               0.001160614               0.999999984               0.000223769               0.001130160               0.999999984               0.000209897               0.001120913               0.999999984               0.000205648               0.001125067               0.999999984               0.000204122               0.001137001               0.999999984               0.000201911               0.001153053               0.999999984               0.000197091               0.001170707               0.999999984               0.000188147               0.001188370               0.999999984               0.000174146               0.001204743               0.999999984               0.000154199               0.001218946               0.999999984               0.000127623               0.001230423               0.999999984               0.000094007               0.001239108               0.999999984               0.000053633               0.001245163               0.999999984               0.000007044               0.001248942               0.999999984              -0.000044799               0.001251201               0.999999984              -0.000100587               0.001252800               0.999999984               0.000300681               0.001285178               0.999999984               0.000207156               0.001251222               0.999999984               0.000169665               0.001231215               0.999999984               0.000154767               0.001225607               0.999999984               0.000149319               0.001230782               0.999999984               0.000147242               0.001243263               0.999999984               0.000145198               0.001260472               0.999999984               0.000141479               0.001280453               0.999999984               0.000134732               0.001301536               0.999999984               0.000124041               0.001322541               0.999999984               0.000108438               0.001342476               0.999999984               0.000086986               0.001360719               0.999999984               0.000059075               0.001376697               0.999999984               0.000024145               0.001390326               0.999999984              -0.000018149               0.001401774               0.999999984              -0.000067731               0.001411569               0.999999984              -0.000123970               0.001420292               0.999999984               0.000228104               0.001335291               0.999999984               0.000153519               0.001326504               0.999999984               0.000121162               0.001318429               0.999999984               0.000107088               0.001318428               0.999999984               0.000101158               0.001326542               0.999999984               0.000098562               0.001341144               0.999999984               0.000096585               0.001360331               0.999999984               0.000093570               0.001382743               0.999999984               0.000088566               0.001407163               0.999999984               0.000080696               0.001432539               0.999999984               0.000069156               0.001457971               0.999999984               0.000052916               0.001482706               0.999999984               0.000031265               0.001506002               0.999999984               0.000003146               0.001527555               0.999999984              -0.000032523               0.001547169               0.999999984              -0.000076687               0.001564889               0.999999984              -0.000130192               0.001580967               0.999999984               0.000153333               0.001371674               0.999999984               0.000101538               0.001382902               0.999999984               0.000077702               0.001385792               0.999999984               0.000066555               0.001391952               0.999999984               0.000061402               0.001403766               0.999999984               0.000058974               0.001421077               0.999999984               0.000057286               0.001442868               0.999999984               0.000055042               0.001467926               0.999999984               0.000051492               0.001495395               0.999999984               0.000046145               0.001524596               0.999999984               0.000038502               0.001554863               0.999999984               0.000027663               0.001585354               0.999999984               0.000012635               0.001615405               0.999999984              -0.000007552               0.001644644               0.999999984              -0.000033815               0.001672453               0.999999984              -0.000067760               0.001698300               0.999999984              -0.000111397               0.001721911               0.999999984               0.000077050               0.001393767               0.999999984               0.000050547               0.001417842               0.999999984               0.000037891               0.001428387               0.999999984               0.000031709               0.001439232               0.999999984               0.000028725               0.001454203               0.999999984               0.000027157               0.001473852               0.999999984               0.000026151               0.001497728               0.999999984               0.000025001               0.001525031               0.999999984               0.000023142               0.001555054               0.999999984               0.000020304               0.001587153               0.999999984               0.000016457               0.001620807               0.999999984               0.000010889               0.001655426               0.999999984               0.000003065               0.001690356               0.999999984              -0.000007511               0.001725046               0.999999984              -0.000021559               0.001758812               0.999999984              -0.000040053               0.001790902               0.999999984              -0.000064866               0.001820549               0.999999984              -0.000000000               0.001401194               0.999999984              -0.000000000               0.001429713               0.999999984              -0.000000000               0.001442994               0.999999984              -0.000000000               0.001455555               0.999999984              -0.000000000               0.001471785               0.999999984               0.000000000               0.001492328               0.999999984               0.000000000               0.001516967               0.999999984              -0.000000000               0.001545208               0.999999984              -0.000000000               0.001576296               0.999999984              -0.000000000               0.001609516               0.999999984              -0.000000000               0.001644501               0.999999984              -0.000000000               0.001680632               0.999999984               0.000000000               0.001717216               0.999999984               0.000000000               0.001753821               0.999999984              -0.000000000               0.001789732               0.999999984               0.000000000               0.001824163               0.999999984               0.000000000               0.001856133               0.999999984 </DataArray>
<DataArray type="Float64"                                    Name="stress"                                                      NumberOfComponents="10" format="ascii">
              0.002256020               0.024353864              -0.000000000              -0.002198220               0.008850614               0.006652394               0.000000000               0.000000000               0.000000000               0.000000000               0.002187679               0.018856442               0.000000000              -0.001536672               0.006797642               0.005260970               0.000000000               0.000000000               0.000000000               0.000000000               0.002834227               0.014382571               0.000000000              -0.000734985               0.005039137               0.004304153               0.000000000               0.000000000               0.000000000               0.000000000               0.002658738               0.011843953               0.000000000              -0.000483466               0.004109100               0.003625634               0.000000000               0.000000000               0.000000000               0.000000000               0.002247652               0.010234433               0.000000000              -0.000436433               0.003556921               0.003120488               0.000000000               0.000000000               0.000000000               0.000000000               0.001803352               0.009104072               0.000000000              -0.000461751               0.003188577               0.002726826               0.000000000               0.000000000               0.000000000               0.000000000               0.001394937               0.008255469               0.000000000              -0.000508831               0.002921406               0.002412575               0.000000000               0.000000000               0.000000000               0.000000000               0.001027041               0.007569683               0.000000000              -0.000561069               0.002710225               0.002149157               0.000000000               0.000000000               0.000000000               0.000000000               0.000707673               0.006988840               0.000000000              -0.000608226               0.002532332               0.001924106               0.000000000               0.000000000               0.000000000               0.000000000               0.000441751               0.006461558               0.000000000              -0.000642036               0.002367843               0.001725807               0.000000000               0.000000000               0.000000000               0.000000000               0.000224243               0.005954561              -0.000000000              -0.000660227               0.002204910               0.001544682               0.000000000               0.000000000               0.000000000               0.000000000               0.000050965               0.005445771              -0.000000000              -0.000661608               0.002035775               0.001374167               0.000000000               0.000000000               0.000000000               0.000000000              -0.000069248               0.004915483               0.000000000              -0.000640402               0.001851945               0.001211543               0.000000000               0.000000000               0.000000000               0.000000000              -0.000134180               0.004346215               0.000000000              -0.000593593               0.001646588               0.001052995               0.000000000               0.000000000               0.000000000               0.000000000              -0.000144323               0.003710859               0.000000000              -0.000517977               0.001409600               0.000891622               0.000000000               0.000000000               0.000000000               0.000000000              -0.000090575               0.002983145               0.000000000              -0.000406858               0.001129991               0.000723133               0.000000000               0.000000000               0.000000000               0.000000000              -0.000108114               0.002419172              -0.000000000              -0.000342938               0.000920696               0.000577757               0.000000000               0.000000000               0.000000000               0.000000000               0.002323924               0.023839982              -0.001643367              -0.002108521               0.008649421               0.006540900               0.000000000               0.000000000               0.000000000               0.000000000               0.002130804               0.018531093              -0.000786213              -0.001517332               0.006682747               0.005165415               0.000000000               0.000000000               0.000000000               0.000000000               0.002641177               0.014248646               0.000060707              -0.000790637               0.005013047               0.004222410               0.000000000               0.000000000               0.000000000               0.000000000               0.002416080               0.011811884               0.000410277              -0.000570454               0.004127407               0.003556952               0.000000000               0.000000000               0.000000000               0.000000000               0.001996785               0.010251049               0.000546611              -0.000532586               0.003594511               0.003061925               0.000000000               0.000000000               0.000000000               0.000000000               0.001559354               0.009151885               0.000591456              -0.000559227               0.003237007               0.002677780               0.000000000               0.000000000               0.000000000               0.000000000               0.001165861               0.008318560               0.000594626              -0.000602621               0.002973699               0.002371078               0.000000000               0.000000000               0.000000000               0.000000000               0.000821575               0.007643090               0.000580271              -0.000647294               0.002763436               0.002116142               0.000000000               0.000000000               0.000000000               0.000000000               0.000525558               0.007062315               0.000556388              -0.000685704               0.002582649               0.001896946               0.000000000               0.000000000               0.000000000               0.000000000               0.000287029               0.006531159               0.000524210              -0.000708757               0.002413283               0.001704526               0.000000000               0.000000000               0.000000000               0.000000000               0.000101772               0.006020453               0.000491020              -0.000714390               0.002244928               0.001530537               0.000000000               0.000000000               0.000000000               0.000000000              -0.000036246               0.005510770               0.000454204              -0.000702437               0.002071051               0.001368614               0.000000000               0.000000000               0.000000000               0.000000000              -0.000124008               0.004985749               0.000410269              -0.000669720               0.001885140               0.001215420               0.000000000               0.000000000               0.000000000               0.000000000              -0.000162036               0.004430071               0.000352129              -0.000614521               0.001681516               0.001066995               0.000000000               0.000000000               0.000000000               0.000000000              -0.000151688               0.003826270               0.000267199              -0.000535165               0.001453799               0.000918634               0.000000000               0.000000000               0.000000000               0.000000000              -0.000090052               0.003157505               0.000148342              -0.000428457               0.001195310               0.000766853               0.000000000               0.000000000               0.000000000               0.000000000              -0.000101011               0.002652499               0.000091084              -0.000369441               0.001007304               0.000637864               0.000000000               0.000000000               0.000000000               0.000000000               0.002498206               0.022379227              -0.003048774              -0.001860573               0.008079858               0.006219286               0.000000000               0.000000000               0.000000000               0.000000000               0.001953480               0.017605290              -0.001454168              -0.001468103               0.006357739               0.004889636               0.000000000               0.000000000               0.000000000               0.000000000               0.002085113               0.013870273               0.000107490              -0.000951864               0.004940666               0.003988802               0.000000000               0.000000000               0.000000000               0.000000000               0.001725672               0.011712697               0.000727296              -0.000816958               0.004176513               0.003359554               0.000000000               0.000000000               0.000000000               0.000000000               0.001291136               0.010293512               0.000959058              -0.000802511               0.003698640               0.002896129               0.000000000               0.000000000               0.000000000               0.000000000               0.000888725               0.009271368               0.001028291              -0.000825647               0.003365641               0.002539994               0.000000000               0.000000000               0.000000000               0.000000000               0.000545728               0.008477062               0.001027809              -0.000854983               0.003110653               0.002255670               0.000000000               0.000000000               0.000000000               0.000000000               0.000270982               0.007821884               0.000998441              -0.000876115               0.002899307               0.002023192               0.000000000               0.000000000               0.000000000               0.000000000               0.000057535               0.007241890               0.000952710              -0.000883659               0.002708492               0.001824833               0.000000000               0.000000000               0.000000000               0.000000000              -0.000100506               0.006700628               0.000895063              -0.000875266               0.002525276               0.001650009               0.000000000               0.000000000               0.000000000               0.000000000              -0.000205338               0.006180367               0.000835389              -0.000849546               0.002343284               0.001493738               0.000000000               0.000000000               0.000000000               0.000000000              -0.000261619               0.005668744               0.000768786              -0.000806698               0.002158462               0.001351764               0.000000000               0.000000000               0.000000000               0.000000000              -0.000275114               0.005156871               0.000687782              -0.000747775               0.001968198               0.001220423               0.000000000               0.000000000               0.000000000               0.000000000              -0.000244912               0.004642698               0.000583125              -0.000672178               0.001771610               0.001099432               0.000000000               0.000000000               0.000000000               0.000000000              -0.000182244               0.004124219               0.000437491              -0.000583868               0.001569348               0.000985481               0.000000000               0.000000000               0.000000000               0.000000000              -0.000099284               0.003602374               0.000240763              -0.000487527               0.001363288               0.000875761               0.000000000               0.000000000               0.000000000               0.000000000              -0.000092003               0.003239618               0.000144398              -0.000439452               0.001226346               0.000786894               0.000000000               0.000000000               0.000000000               0.000000000               0.002665094               0.020171513              -0.004030556              -0.001522027               0.007231112               0.005709085               0.000000000               0.000000000               0.000000000               0.000000000               0.001625840               0.016216919              -0.001924099              -0.001417422               0.005878059               0.004460637               0.000000000               0.000000000               0.000000000               0.000000000               0.001235295               0.013302839               0.000109603              -0.001199616               0.004834107               0.003634491               0.000000000               0.000000000               0.000000000               0.000000000               0.000723388               0.011539335               0.000873526              -0.001171144               0.004236788               0.003065644               0.000000000               0.000000000               0.000000000               0.000000000               0.000292592               0.010317381               0.001139553              -0.001179948               0.003832408               0.002652460               0.000000000               0.000000000               0.000000000               0.000000000              -0.000037176               0.009392246               0.001209444              -0.001187969               0.003526707               0.002338738               0.000000000               0.000000000               0.000000000               0.000000000              -0.000278898               0.008644195               0.001201495              -0.001185109               0.003276406               0.002091297               0.000000000               0.000000000               0.000000000               0.000000000              -0.000444519               0.008000820               0.001160557              -0.001166795               0.003055845               0.001889050               0.000000000               0.000000000               0.000000000               0.000000000              -0.000542417               0.007415612               0.001098491              -0.001130355               0.002848631               0.001718276               0.000000000               0.000000000               0.000000000               0.000000000              -0.000584614               0.006861917               0.001024804              -0.001076967               0.002646272               0.001569304               0.000000000               0.000000000               0.000000000               0.000000000              -0.000577301               0.006333888               0.000949665              -0.001008222               0.002447349               0.001439127               0.000000000               0.000000000               0.000000000               0.000000000              -0.000528759               0.005828560               0.000864303              -0.000926852               0.002251785               0.001324932               0.000000000               0.000000000               0.000000000               0.000000000              -0.000446156               0.005346350               0.000760513              -0.000835600               0.002060632               0.001225032               0.000000000               0.000000000               0.000000000               0.000000000              -0.000337241               0.004892080               0.000631285              -0.000737974               0.001876668               0.001138695               0.000000000               0.000000000               0.000000000               0.000000000              -0.000220078               0.004477000               0.000462453              -0.000642153               0.001706369               0.001064217               0.000000000               0.000000000               0.000000000               0.000000000              -0.000110081               0.004119824               0.000248964              -0.000556257               0.001558680               0.001002423               0.000000000               0.000000000               0.000000000               0.000000000              -0.000079652               0.003908602               0.000143420              -0.000518443               0.001475669               0.000957225               0.000000000               0.000000000               0.000000000               0.000000000               0.002666723               0.017471880              -0.004509616              -0.001183964               0.006218556               0.005034591               0.000000000               0.000000000               0.000000000               0.000000000               0.001116236               0.014553689              -0.002181111              -0.001400620               0.005318054               0.003917434               0.000000000               0.000000000               0.000000000               0.000000000               0.000190394               0.012619034               0.000029415              -0.001505978               0.004708295               0.003202317               0.000000000               0.000000000               0.000000000               0.000000000              -0.000414649               0.011283292               0.000802743              -0.001565901               0.004283027               0.002717126               0.000000000               0.000000000               0.000000000               0.000000000              -0.000785270               0.010258794               0.001052183              -0.001576822               0.003945171               0.002368349               0.000000000               0.000000000               0.000000000               0.000000000              -0.000996654               0.009428133               0.001110526              -0.001552258               0.003660099               0.002107840               0.000000000               0.000000000               0.000000000               0.000000000              -0.001098980               0.008713914               0.001098757              -0.001501353               0.003405060               0.001903707               0.000000000               0.000000000               0.000000000               0.000000000              -0.001126215               0.008074898               0.001058295              -0.001431690               0.003168836               0.001737146               0.000000000               0.000000000               0.000000000               0.000000000              -0.001091917               0.007478738               0.000996563              -0.001344308               0.002940990               0.001596682               0.000000000               0.000000000               0.000000000               0.000000000              -0.001007474               0.006916397               0.000921426              -0.001242349               0.002719559               0.001477210               0.000000000               0.000000000               0.000000000               0.000000000              -0.000885015               0.006389441               0.000843847              -0.001130558               0.002506645               0.001376087               0.000000000               0.000000000               0.000000000               0.000000000              -0.000736693               0.005901067               0.000754662              -0.001013891               0.002304966               0.001291075               0.000000000               0.000000000               0.000000000               0.000000000              -0.000572192               0.005459184               0.000644339              -0.000896968               0.002118699               0.001221731               0.000000000               0.000000000               0.000000000               0.000000000              -0.000403121               0.005070170               0.000512190              -0.000784940               0.001951686               0.001166747               0.000000000               0.000000000               0.000000000               0.000000000              -0.000246960               0.004747062               0.000358505              -0.000685991               0.001811002               0.001125011               0.000000000               0.000000000               0.000000000               0.000000000              -0.000114993               0.004514464               0.000185657              -0.000607429               0.001707283               0.001099854               0.000000000               0.000000000               0.000000000               0.000000000              -0.000067076               0.004404447               0.000102460              -0.000575708               0.001660037               0.001084329               0.000000000               0.000000000               0.000000000               0.000000000               0.002374991               0.014561500              -0.004492210              -0.000929567               0.005163639               0.004234072               0.000000000               0.000000000               0.000000000               0.000000000               0.000428045               0.012800309              -0.002254448              -0.001439520               0.004746566               0.003307047               0.000000000               0.000000000               0.000000000               0.000000000              -0.000931252               0.011873874              -0.000160025              -0.001833449               0.004569068               0.002735619               0.000000000               0.000000000               0.000000000               0.000000000              -0.001525153               0.010933509               0.000524472              -0.001938616               0.004290672               0.002352056               0.000000000               0.000000000               0.000000000               0.000000000              -0.001756814               0.010077853               0.000737901              -0.001918532               0.003998762               0.002080229               0.000000000               0.000000000               0.000000000               0.000000000              -0.001810427               0.009314275               0.000791453              -0.001843190               0.003719124               0.001875934               0.000000000               0.000000000               0.000000000               0.000000000              -0.001756703               0.008621774               0.000793524              -0.001736481               0.003452723               0.001716242               0.000000000               0.000000000               0.000000000               0.000000000              -0.001632343               0.007985753               0.000770773              -0.001610344               0.003198672               0.001588328               0.000000000               0.000000000               0.000000000               0.000000000              -0.001467011               0.007384474               0.000722900              -0.001473185               0.002952528               0.001479344               0.000000000               0.000000000               0.000000000               0.000000000              -0.001271186               0.006824153               0.000661563              -0.001329711               0.002717932               0.001388221               0.000000000               0.000000000               0.000000000               0.000000000              -0.001055353               0.006314790               0.000595565              -0.001185103               0.002499943               0.001314840               0.000000000               0.000000000               0.000000000               0.000000000              -0.000832032               0.005860834               0.000520046              -0.001044614               0.002301796               0.001257183               0.000000000               0.000000000               0.000000000               0.000000000              -0.000609557               0.005471715               0.000428689              -0.000912546               0.002128069               0.001215523               0.000000000               0.000000000               0.000000000               0.000000000              -0.000407357               0.005153045               0.000320712              -0.000796888               0.001983294               0.001186406               0.000000000               0.000000000               0.000000000               0.000000000              -0.000238799               0.004910686               0.000208836              -0.000703384               0.001871340               0.001167956               0.000000000               0.000000000               0.000000000               0.000000000              -0.000104967               0.004758247               0.000102909              -0.000634142               0.001797447               0.001163305               0.000000000               0.000000000               0.000000000               0.000000000              -0.000054310               0.004698025               0.000055569              -0.000607618               0.001768532               0.001160914               0.000000000               0.000000000               0.000000000               0.000000000               0.001712985               0.011681266              -0.004065407              -0.000817790               0.004166312               0.003348522               0.000000000               0.000000000               0.000000000               0.000000000              -0.000407708               0.011086065              -0.002205174              -0.001538646               0.004208200               0.002669553               0.000000000               0.000000000               0.000000000               0.000000000              -0.002002371               0.011087593              -0.000465427              -0.002136833               0.004408105               0.002271272               0.000000000               0.000000000               0.000000000               0.000000000              -0.002466039               0.010470876               0.000087759              -0.002233619               0.004234797               0.002001178               0.000000000               0.000000000               0.000000000               0.000000000              -0.002505331               0.009747665               0.000275917              -0.002157952               0.003968506               0.001810555               0.000000000               0.000000000               0.000000000               0.000000000              -0.002374721               0.009037506               0.000347676              -0.002020204               0.003685873               0.001665669               0.000000000               0.000000000               0.000000000               0.000000000              -0.002162739               0.008363882               0.000382079              -0.001856508               0.003406769               0.001550261               0.000000000               0.000000000               0.000000000               0.000000000              -0.001905990               0.007730930               0.000392497              -0.001681108               0.003137320               0.001456212               0.000000000               0.000000000               0.000000000               0.000000000              -0.001623079               0.007142936               0.000372964              -0.001501518               0.002881461               0.001379943               0.000000000               0.000000000               0.000000000               0.000000000              -0.001332462               0.006607843               0.000341941              -0.001325650               0.002644476               0.001318825               0.000000000               0.000000000               0.000000000               0.000000000              -0.001045392               0.006139420               0.000308658              -0.001159447               0.002432935               0.001273488               0.000000000               0.000000000               0.000000000               0.000000000              -0.000774999               0.005741386               0.000266996              -0.001008295               0.002249875               0.001241579               0.000000000               0.000000000               0.000000000               0.000000000              -0.000531270               0.005415710               0.000213644              -0.000876188               0.002097281               0.001221093               0.000000000               0.000000000               0.000000000               0.000000000              -0.000329944               0.005167394               0.000148049              -0.000769651               0.001978998               0.001209346               0.000000000               0.000000000               0.000000000               0.000000000              -0.000177519               0.004998823               0.000083666              -0.000691421               0.001896731               0.001205310               0.000000000               0.000000000               0.000000000               0.000000000              -0.000071308               0.004904269               0.000036257              -0.000639772               0.001847997               0.001208225               0.000000000               0.000000000               0.000000000               0.000000000              -0.000033364               0.004872027               0.000019171              -0.000621513               0.001831164               0.001209651               0.000000000               0.000000000               0.000000000               0.000000000               0.000721394               0.009009734              -0.003346444              -0.000855695               0.003288445               0.002432751               0.000000000               0.000000000               0.000000000               0.000000000              -0.001338372               0.009506901              -0.002086527              -0.001690249               0.003732351               0.002042102               0.000000000               0.000000000               0.000000000               0.000000000              -0.002919543               0.010261887              -0.000870749              -0.002377559               0.004213114               0.001835556               0.000000000               0.000000000               0.000000000               0.000000000              -0.003149105               0.009890687              -0.000437074              -0.002417244               0.004102611               0.001685366               0.000000000               0.000000000               0.000000000               0.000000000              -0.002969850               0.009278171              -0.000238354              -0.002273459               0.003850512               0.001577053               0.000000000               0.000000000               0.000000000               0.000000000              -0.002665305               0.008622078              -0.000127370              -0.002077244               0.003566412               0.001489168               0.000000000               0.000000000               0.000000000               0.000000000              -0.002314433               0.007977599              -0.000050197              -0.001865108               0.003280876               0.001415768               0.000000000               0.000000000               0.000000000               0.000000000              -0.001945430               0.007368572               0.000005723              -0.001650604               0.003006367               0.001355764               0.000000000               0.000000000               0.000000000               0.000000000              -0.001565709               0.006811233               0.000033329              -0.001438541               0.002749902               0.001311361               0.000000000               0.000000000               0.000000000               0.000000000              -0.001198356               0.006323264               0.000048494              -0.001239788               0.002520996               0.001281208               0.000000000               0.000000000               0.000000000               0.000000000              -0.000864893               0.005911665               0.000061865              -0.001063290               0.002324966               0.001261675               0.000000000               0.000000000               0.000000000               0.000000000              -0.000580838               0.005574466               0.000063673              -0.000914620               0.002163010               0.001248390               0.000000000               0.000000000               0.000000000               0.000000000              -0.000355265               0.005312225               0.000051951              -0.000797250               0.002036474               0.001239224               0.000000000               0.000000000               0.000000000               0.000000000              -0.000190468               0.005128271               0.000032019              -0.000712457               0.001946893               0.001234435               0.000000000               0.000000000               0.000000000               0.000000000              -0.000082200               0.005021590               0.000011031              -0.000658522               0.001893354               0.001234832               0.000000000               0.000000000               0.000000000               0.000000000              -0.000024550               0.004973353               0.000000617              -0.000630874               0.001868059               0.001237185               0.000000000               0.000000000               0.000000000               0.000000000              -0.000010782               0.004959298               0.000000155              -0.000623954               0.001861067               0.001237114               0.000000000               0.000000000               0.000000000               0.000000000              -0.000461993               0.006746763              -0.002455978              -0.001016592               0.002587762               0.001571170               0.000000000               0.000000000               0.000000000               0.000000000              -0.002248588               0.008090596              -0.001946928              -0.001854541               0.003315018               0.001460477               0.000000000               0.000000000               0.000000000               0.000000000              -0.003632692               0.009432697              -0.001350261              -0.002541341               0.003991314               0.001449974               0.000000000               0.000000000               0.000000000               0.000000000              -0.003610934               0.009320458              -0.000991969              -0.002519151               0.003946505               0.001427354               0.000000000               0.000000000               0.000000000               0.000000000              -0.003249775               0.008844997              -0.000758318              -0.002324284               0.003723064               0.001398780               0.000000000               0.000000000               0.000000000               0.000000000              -0.002807676               0.008269872              -0.000595148              -0.002086608               0.003452132               0.001365525               0.000000000               0.000000000               0.000000000               0.000000000              -0.002348184               0.007686724              -0.000469415              -0.001841405               0.003176017               0.001334612               0.000000000               0.000000000               0.000000000               0.000000000              -0.001889132               0.007127625              -0.000366400              -0.001599374               0.002908976               0.001309602               0.000000000               0.000000000               0.000000000               0.000000000              -0.001437655               0.006613322              -0.000285418              -0.001365783               0.002659680               0.001293897               0.000000000               0.000000000               0.000000000               0.000000000              -0.001014259               0.006171354              -0.000214820              -0.001151763               0.002441019               0.001289255               0.000000000               0.000000000               0.000000000               0.000000000              -0.000652279               0.005802203              -0.000149919              -0.000969878               0.002257341               0.001287463               0.000000000               0.000000000               0.000000000               0.000000000              -0.000370348               0.005497904              -0.000098568              -0.000826116               0.002107988               0.001281872               0.000000000               0.000000000               0.000000000               0.000000000              -0.000174314               0.005263592              -0.000061567              -0.000723315               0.001995618               0.001272303               0.000000000               0.000000000               0.000000000               0.000000000              -0.000050758               0.005108739              -0.000035421              -0.000657625               0.001922104               0.001264479               0.000000000               0.000000000               0.000000000               0.000000000               0.000011523               0.005026273              -0.000016920              -0.000623961               0.001883395               0.001259433               0.000000000               0.000000000               0.000000000               0.000000000               0.000025446               0.004996168              -0.000005377              -0.000614977               0.001870365               0.001255388               0.000000000               0.000000000               0.000000000               0.000000000               0.000020013               0.004989068              -0.000000232              -0.000616127               0.001868382               0.001252255               0.000000000               0.000000000               0.000000000               0.000000000              -0.001855471               0.004644334              -0.001509574              -0.001276341               0.001973542               0.000697202               0.000000000               0.000000000               0.000000000               0.000000000              -0.003012155               0.006457779              -0.001788873              -0.001936776               0.002798163               0.000861387               0.000000000               0.000000000               0.000000000               0.000000000              -0.004054164               0.008222310              -0.001851729              -0.002548094               0.003590107               0.001042013               0.000000000               0.000000000               0.000000000               0.000000000              -0.003893355               0.008494552              -0.001580613              -0.002521821               0.003672096               0.001150275               0.000000000               0.000000000               0.000000000               0.000000000              -0.003454470               0.008284951              -0.001315624              -0.002331039               0.003538636               0.001207596               0.000000000               0.000000000               0.000000000               0.000000000              -0.002962359               0.007903901              -0.001097458              -0.002098867               0.003334230               0.001235362               0.000000000               0.000000000               0.000000000               0.000000000              -0.002467647               0.007468926              -0.000924304              -0.001858979               0.003109277               0.001250298               0.000000000               0.000000000               0.000000000               0.000000000              -0.001984017               0.007033784              -0.000779234              -0.001623226               0.002885646               0.001262421               0.000000000               0.000000000               0.000000000               0.000000000              -0.001513432               0.006621159              -0.000649895              -0.001395178               0.002672090               0.001276912               0.000000000               0.000000000               0.000000000               0.000000000              -0.001071455               0.006242583              -0.000526451              -0.001182116               0.002474879               0.001292763               0.000000000               0.000000000               0.000000000               0.000000000              -0.000682607               0.005909336              -0.000409564              -0.000994642               0.002301306               0.001306664               0.000000000               0.000000000               0.000000000               0.000000000              -0.000370965               0.005619086              -0.000301079              -0.000841496               0.002153508               0.001312013               0.000000000               0.000000000               0.000000000               0.000000000              -0.000148988               0.005378402              -0.000204164              -0.000728169               0.002035506               0.001307337               0.000000000               0.000000000               0.000000000               0.000000000              -0.000010591               0.005197243              -0.000125469              -0.000653625               0.001950272               0.001296647               0.000000000               0.000000000               0.000000000               0.000000000               0.000060912               0.005079730              -0.000062083              -0.000612123               0.001897267               0.001285145               0.000000000               0.000000000               0.000000000               0.000000000               0.000079041               0.005021420              -0.000017954              -0.000598036               0.001873135               0.001275100               0.000000000               0.000000000               0.000000000               0.000000000               0.000072003               0.005001816              -0.000001571              -0.000598224               0.001866663               0.001268439               0.000000000               0.000000000               0.000000000               0.000000000              -0.003643229               0.002742434              -0.000579094              -0.001709012               0.001483805              -0.000225207               0.000000000               0.000000000               0.000000000               0.000000000              -0.003875188               0.004813623              -0.001556933              -0.002054894               0.002289489               0.000234595               0.000000000               0.000000000               0.000000000               0.000000000              -0.004382388               0.006799310              -0.002248419              -0.002493304               0.003097514               0.000604211               0.000000000               0.000000000               0.000000000               0.000000000              -0.004092800               0.007440762              -0.002139949              -0.002464890               0.003301858               0.000836969               0.000000000               0.000000000               0.000000000               0.000000000              -0.003606902               0.007543307              -0.001884193              -0.002295496               0.003279576               0.000984079               0.000000000               0.000000000               0.000000000               0.000000000              -0.003089215               0.007405180              -0.001634686              -0.002084098               0.003163068               0.001078969               0.000000000               0.000000000               0.000000000               0.000000000              -0.002578739               0.007163302              -0.001420563              -0.001862436               0.003008555               0.001146119               0.000000000               0.000000000               0.000000000               0.000000000              -0.002085148               0.006883235              -0.001237098              -0.001642331               0.002841832               0.001199501               0.000000000               0.000000000               0.000000000               0.000000000              -0.001613711               0.006591190              -0.001070758              -0.001429037               0.002673387               0.001244350               0.000000000               0.000000000               0.000000000               0.000000000              -0.001163618               0.006295947              -0.000909891              -0.001223347               0.002506410               0.001283063               0.000000000               0.000000000               0.000000000               0.000000000              -0.000747322               0.006013933              -0.000751637              -0.001031985               0.002348619               0.001316634               0.000000000               0.000000000               0.000000000               0.000000000              -0.000390434               0.005751374              -0.000591497              -0.000865333               0.002205549               0.001340217               0.000000000               0.000000000               0.000000000               0.000000000              -0.000111930               0.005515687              -0.000436094              -0.000731433               0.002082355               0.001350922               0.000000000               0.000000000               0.000000000               0.000000000               0.000077830               0.005314131              -0.000295813              -0.000635079               0.001983052               0.001347973               0.000000000               0.000000000               0.000000000               0.000000000               0.000180215               0.005154527              -0.000170128              -0.000576734               0.001910403               0.001333669               0.000000000               0.000000000               0.000000000               0.000000000               0.000211312               0.005053435              -0.000068115              -0.000552436               0.001868607               0.001316171               0.000000000               0.000000000               0.000000000               0.000000000               0.000201238               0.005014181              -0.000023271              -0.000551307               0.001855146               0.001303839               0.000000000               0.000000000               0.000000000               0.000000000              -0.005692249               0.001189037               0.000247358              -0.002283220               0.001157411              -0.001125809               0.000000000               0.000000000               0.000000000               0.000000000              -0.004886716               0.003255411              -0.001234175              -0.002239441               0.001831605              -0.000407836               0.000000000               0.000000000               0.000000000               0.000000000              -0.004653114               0.005184386              -0.002421141              -0.002392961               0.002525764               0.000132803               0.000000000               0.000000000               0.000000000               0.000000000              -0.004151985               0.006087187              -0.002519029              -0.002317888               0.002801670               0.000483782               0.000000000               0.000000000               0.000000000               0.000000000              -0.003600958               0.006474151              -0.002331270              -0.002159623               0.002877902               0.000718279               0.000000000               0.000000000               0.000000000               0.000000000              -0.003059118               0.006591088              -0.002089703              -0.001971051               0.002854024               0.000882973               0.000000000               0.000000000               0.000000000               0.000000000              -0.002546108               0.006567609              -0.001859711              -0.001775738               0.002781093               0.001005356               0.000000000               0.000000000               0.000000000               0.000000000              -0.002052095               0.006473536              -0.001653701              -0.001578724               0.002684065               0.001105340               0.000000000               0.000000000               0.000000000               0.000000000              -0.001581954               0.006333171              -0.001464503              -0.001384876               0.002572661               0.001187785               0.000000000               0.000000000               0.000000000               0.000000000              -0.001132288               0.006156620              -0.001284756              -0.001194183               0.002450247               0.001256064               0.000000000               0.000000000               0.000000000               0.000000000              -0.000706675               0.005958691              -0.001104307              -0.001009837               0.002322823               0.001312985               0.000000000               0.000000000               0.000000000               0.000000000              -0.000318832               0.005752759              -0.000916184              -0.000838655               0.002197119               0.001358464               0.000000000               0.000000000               0.000000000               0.000000000               0.000015000               0.005550940              -0.000723036              -0.000688241               0.002079708               0.001391467               0.000000000               0.000000000               0.000000000               0.000000000               0.000270398               0.005359155              -0.000529151              -0.000568494               0.001975865               0.001407371               0.000000000               0.000000000               0.000000000               0.000000000               0.000430042               0.005193964              -0.000337020              -0.000487979               0.001893964               0.001405985               0.000000000               0.000000000               0.000000000               0.000000000               0.000493519               0.005077821              -0.000158550              -0.000449657               0.001842476               0.001392819               0.000000000               0.000000000               0.000000000               0.000000000               0.000486387               0.005024640              -0.000070614              -0.000445684               0.001823425               0.001377741               0.000000000               0.000000000               0.000000000               0.000000000              -0.007856479               0.000069614               0.000850219              -0.002954879               0.001008157              -0.001946721               0.000000000               0.000000000               0.000000000               0.000000000              -0.005988289               0.001882342              -0.000870679              -0.002480898               0.001454403              -0.001026495               0.000000000               0.000000000               0.000000000               0.000000000              -0.004895042               0.003530358              -0.002341465              -0.002276931               0.001935749              -0.000341182               0.000000000               0.000000000               0.000000000               0.000000000              -0.004096003               0.004552136              -0.002625513              -0.002105014               0.002219033               0.000114020               0.000000000               0.000000000               0.000000000               0.000000000              -0.003445126               0.005159684              -0.002540205              -0.001936879               0.002365503               0.000428624               0.000000000               0.000000000               0.000000000               0.000000000              -0.002875515               0.005514150              -0.002346067              -0.001767583               0.002427225               0.000659642               0.000000000               0.000000000               0.000000000               0.000000000              -0.002358786               0.005714274              -0.002131770              -0.001598826               0.002437680               0.000838854               0.000000000               0.000000000               0.000000000               0.000000000              -0.001879806               0.005809680              -0.001927159              -0.001431134               0.002413585               0.000982450               0.000000000               0.000000000               0.000000000               0.000000000              -0.001420641               0.005829253              -0.001737167              -0.001261395               0.002363529               0.001102135               0.000000000               0.000000000               0.000000000               0.000000000              -0.000975618               0.005791904              -0.001557147              -0.001089843               0.002293896               0.001204053               0.000000000               0.000000000               0.000000000               0.000000000              -0.000542444               0.005713299              -0.001375323              -0.000917577               0.002210273               0.001292695               0.000000000               0.000000000               0.000000000               0.000000000              -0.000129364               0.005600317              -0.001186229              -0.000748550               0.002116270               0.001367720               0.000000000               0.000000000               0.000000000               0.000000000               0.000254575               0.005465886              -0.000984763              -0.000587769               0.002017867               0.001430098               0.000000000               0.000000000               0.000000000               0.000000000               0.000587637               0.005328412              -0.000763299              -0.000445687               0.001924682               0.001478995               0.000000000               0.000000000               0.000000000               0.000000000               0.000843160               0.005202384              -0.000521195              -0.000334112               0.001845481               0.001511369               0.000000000               0.000000000               0.000000000               0.000000000               0.000992807               0.005094950              -0.000264184              -0.000264565               0.001786488               0.001521923               0.000000000               0.000000000               0.000000000               0.000000000               0.001031009               0.005040571              -0.000131983              -0.000243442               0.001761321               0.001517879               0.000000000               0.000000000               0.000000000               0.000000000              -0.009935090              -0.000632852               0.001126506              -0.003646550               0.001004559              -0.002641991               0.000000000               0.000000000               0.000000000               0.000000000              -0.007081990               0.000776640              -0.000530700              -0.002752823               0.001176479              -0.001576344               0.000000000               0.000000000               0.000000000               0.000000000              -0.005115097               0.001997542              -0.002011500              -0.002167851               0.001388454              -0.000779397               0.000000000               0.000000000               0.000000000               0.000000000              -0.003970139               0.003013915              -0.002400069              -0.001865538               0.001626472              -0.000239066               0.000000000               0.000000000               0.000000000               0.000000000              -0.003184228               0.003769476              -0.002407443              -0.001665267               0.001811567               0.000146300               0.000000000               0.000000000               0.000000000               0.000000000              -0.002572301               0.004309102              -0.002282926              -0.001503248               0.001937435               0.000434187               0.000000000               0.000000000               0.000000000               0.000000000              -0.002050209               0.004689769              -0.002115406              -0.001355047               0.002014922               0.000659875               0.000000000               0.000000000               0.000000000               0.000000000              -0.001582211               0.004955365              -0.001940582              -0.001212748               0.002056020               0.000843273               0.000000000               0.000000000               0.000000000               0.000000000              -0.001141064               0.005134923              -0.001773908              -0.001069762               0.002068211               0.000998448               0.000000000               0.000000000               0.000000000               0.000000000              -0.000707684               0.005249073              -0.001616352              -0.000921514               0.002056844               0.001135330               0.000000000               0.000000000               0.000000000               0.000000000              -0.000270496               0.005309622              -0.001458755              -0.000765138               0.002024902               0.001259764               0.000000000               0.000000000               0.000000000               0.000000000               0.000165501               0.005315556              -0.001292931              -0.000602381               0.001972628               0.001370247               0.000000000               0.000000000               0.000000000               0.000000000               0.000593026               0.005283981              -0.001110666              -0.000438113               0.001907347               0.001469234               0.000000000               0.000000000               0.000000000               0.000000000               0.001005535               0.005233095              -0.000898929              -0.000277061               0.001836701               0.001559640               0.000000000               0.000000000               0.000000000               0.000000000               0.001386674               0.005165865              -0.000647635              -0.000125730               0.001763848               0.001638117               0.000000000               0.000000000               0.000000000               0.000000000               0.001703247               0.005086016              -0.000345637               0.000002965               0.001694334               0.001697298               0.000000000               0.000000000               0.000000000               0.000000000               0.001872493               0.005054613              -0.000187533               0.000070357               0.001661402               0.001731759               0.000000000               0.000000000               0.000000000               0.000000000              -0.011682306              -0.001008729               0.001030906              -0.004254771               0.001082006              -0.003172764               0.000000000               0.000000000               0.000000000               0.000000000              -0.008030120              -0.000020884              -0.000269382              -0.003008682               0.000995926              -0.002012756               0.000000000               0.000000000               0.000000000               0.000000000              -0.005307129               0.000757892              -0.001465703              -0.002084908               0.000947593              -0.001137315               0.000000000               0.000000000               0.000000000               0.000000000              -0.003830002               0.001692392              -0.001835143              -0.001647797               0.001113388              -0.000534409               0.000000000               0.000000000               0.000000000               0.000000000              -0.002898632               0.002513761              -0.001893477              -0.001401205               0.001304979              -0.000096226               0.000000000               0.000000000               0.000000000               0.000000000              -0.002233141               0.003176157              -0.001831525              -0.001234445               0.001470189               0.000235744               0.000000000               0.000000000               0.000000000               0.000000000              -0.001700205               0.003688910              -0.001724206              -0.001098689               0.001595853               0.000497165               0.000000000               0.000000000               0.000000000               0.000000000              -0.001234135               0.004084976              -0.001602800              -0.000973421               0.001686118               0.000712697               0.000000000               0.000000000               0.000000000               0.000000000              -0.000801564               0.004398659              -0.001483270              -0.000850418               0.001749677               0.000899259               0.000000000               0.000000000               0.000000000               0.000000000              -0.000376606               0.004649227              -0.001371477              -0.000722380               0.001790520               0.001068140               0.000000000               0.000000000               0.000000000               0.000000000               0.000058278               0.004837669              -0.001258651              -0.000582853               0.001806824               0.001223971               0.000000000               0.000000000               0.000000000               0.000000000               0.000506858               0.004963019              -0.001133361              -0.000430305               0.001797758               0.001367453               0.000000000               0.000000000               0.000000000               0.000000000               0.000976186               0.005047571              -0.000991011              -0.000264877               0.001770799               0.001505922               0.000000000               0.000000000               0.000000000               0.000000000               0.001472426               0.005095551              -0.000825510              -0.000084784               0.001726761               0.001641977               0.000000000               0.000000000               0.000000000               0.000000000               0.001992732               0.005096480              -0.000619523               0.000110213               0.001662072               0.001772285               0.000000000               0.000000000               0.000000000               0.000000000               0.002529902               0.005058942              -0.000345014               0.000316342               0.001580850               0.001897192               0.000000000               0.000000000               0.000000000               0.000000000               0.002902197               0.005069291              -0.000200966               0.000454658               0.001538194               0.001992852               0.000000000               0.000000000               0.000000000               0.000000000              -0.012852022              -0.001169672               0.000608862              -0.004673296               0.001167867              -0.003505430               0.000000000               0.000000000               0.000000000               0.000000000              -0.008681797              -0.000496768              -0.000104449              -0.003193576               0.000898930              -0.002294646               0.000000000               0.000000000               0.000000000               0.000000000              -0.005447542              -0.000049806              -0.000770830              -0.002036601               0.000662260              -0.001374341               0.000000000               0.000000000               0.000000000               0.000000000              -0.003723505               0.000798447              -0.000994528              -0.001496119               0.000764850              -0.000731269               0.000000000               0.000000000               0.000000000               0.000000000              -0.002677523               0.001636459              -0.001044869              -0.001208626               0.000948355              -0.000260271               0.000000000               0.000000000               0.000000000               0.000000000              -0.001965710               0.002357580              -0.001023166              -0.001031836               0.001129797               0.000097961               0.000000000               0.000000000               0.000000000               0.000000000              -0.001420760               0.002951284              -0.000973455              -0.000901694               0.001284316               0.000382622               0.000000000               0.000000000               0.000000000               0.000000000              -0.000953974               0.003436436              -0.000914020              -0.000787293               0.001407898               0.000620605               0.000000000               0.000000000               0.000000000               0.000000000              -0.000520235               0.003836246              -0.000853469              -0.000674618               0.001503608               0.000828991               0.000000000               0.000000000               0.000000000               0.000000000              -0.000095156               0.004170330              -0.000798046              -0.000556974               0.001575754               0.001018780               0.000000000               0.000000000               0.000000000               0.000000000               0.000337785               0.004445055              -0.000740230              -0.000428962               0.001624657               0.001195696               0.000000000               0.000000000               0.000000000               0.000000000               0.000796441               0.004658173              -0.000671538              -0.000283606               0.001647244               0.001363638               0.000000000               0.000000000               0.000000000               0.000000000               0.001302564               0.004824090              -0.000593395              -0.000114550               0.001646197               0.001531647               0.000000000               0.000000000               0.000000000               0.000000000               0.001869655               0.004944699              -0.000501602               0.000083032               0.001620539               0.001703571               0.000000000               0.000000000               0.000000000               0.000000000               0.002506037               0.005009217              -0.000385014               0.000313609               0.001565186               0.001878795               0.000000000               0.000000000               0.000000000               0.000000000               0.003233783               0.005021161              -0.000220260               0.000585018               0.001478698               0.002063715               0.000000000               0.000000000               0.000000000               0.000000000               0.003793303               0.005074859              -0.000133340               0.000788123               0.001428895               0.002217018               0.000000000               0.000000000               0.000000000               0.000000000              -0.013263758              -0.001210321               0.000000000              -0.004822616               0.001204090              -0.003618526               0.000000000               0.000000000               0.000000000               0.000000000              -0.008914505              -0.000654469               0.000000000              -0.003261128               0.000868880              -0.002392248               0.000000000               0.000000000               0.000000000               0.000000000              -0.005499744              -0.000331371               0.000000000              -0.002020981               0.000563199              -0.001457782               0.000000000               0.000000000               0.000000000               0.000000000              -0.003684703               0.000482448              -0.000000000              -0.001442068               0.000641501              -0.000800567               0.000000000               0.000000000               0.000000000               0.000000000              -0.002595828               0.001320566              -0.000000000              -0.001138504               0.000819684              -0.000318820               0.000000000               0.000000000               0.000000000               0.000000000              -0.001862337               0.002056390              -0.000000000              -0.000955423               0.001003930               0.000048508               0.000000000               0.000000000               0.000000000               0.000000000              -0.001310655               0.002680232              -0.000000000              -0.000826523               0.001168909               0.000342386               0.000000000               0.000000000               0.000000000               0.000000000              -0.000845678               0.003199056              -0.000000000              -0.000717010               0.001305345               0.000588335               0.000000000               0.000000000               0.000000000               0.000000000              -0.000412591               0.003625485              -0.000000000              -0.000607906               0.001411118               0.000803212               0.000000000               0.000000000               0.000000000               0.000000000               0.000016225               0.003987228              -0.000000000              -0.000492318               0.001493169               0.001000851               0.000000000               0.000000000               0.000000000               0.000000000               0.000450731               0.004291784               0.000000000              -0.000367448               0.001553063               0.001185615               0.000000000               0.000000000               0.000000000               0.000000000               0.000916042               0.004532391               0.000000000              -0.000223033               0.001585126               0.001362093               0.000000000               0.000000000               0.000000000               0.000000000               0.001437732               0.004725693              -0.000000000              -0.000051562               0.001592402               0.001540840               0.000000000               0.000000000               0.000000000               0.000000000               0.002031275               0.004874865              -0.000000000               0.000152368               0.001574149               0.001726518               0.000000000               0.000000000               0.000000000               0.000000000               0.002712689               0.004967827               0.000000000               0.000396276               0.001523834               0.001920110               0.000000000               0.000000000               0.000000000               0.000000000               0.003513236               0.005002831               0.000000000               0.000692103               0.001436893               0.002128996               0.000000000               0.000000000               0.000000000               0.000000000               0.004147017               0.005074810              -0.000000000               0.000920771               0.001384663               0.002305434               0.000000000               0.000000000               0.000000000               0.000000000               0.000000000               0.000000000               0.000000000               0.000000000               0.000000000               0.000000000               0.000000000               0.000000000               0.000000000               0.000000000               0.000000000               0.000000000               0.000000000               0.000000000               0.000000000               0.000000000               0.000000000               0.000000000               0.000000000               0.000000000               0.000000000               0.000000000               0.000000000               0.000000000               0.000000000               0.000000000               0.000000000               0.000000000               0.000000000               0.000000000               0.000000000               0.000000000               0.000000000               0.000000000               0.000000000               0.000000000               0.000000000               0.000000000               0.000000000               0.000000000               0.000000000               0.000000000               0.000000000               0.000000000               0.000000000               0.000000000               0.000000000               0.000000000               0.000000000               0.000000000               0.000000000               0.000000000               0.000000000               0.000000000               0.000000000               0.000000000               0.000000000               0.000000000               0.000000000               0.000000000               0.000000000               0.000000000               0.000000000               0.000000000               0.000000000               0.000000000               0.000000000               0.000000000               0.000000000               0.000000000               0.000000000               0.000000000               0.000000000               0.000000000               0.000000000               0.000000000               0.000000000               0.000000000               0.000000000               0.000000000               0.000000000               0.000000000               0.000000000               0.000000000               0.000000000               0.000000000               0.000000000               0.000000000               0.000000000               0.000000000               0.000000000               0.000000000               0.000000000               0.000000000               0.000000000               0.000000000               0.000000000               0.000000000               0.000000000               0.000000000               0.000000000               0.000000000               0.000000000               0.000000000               0.000000000               0.000000000               0.000000000               0.000000000               0.000000000               0.000000000               0.000000000               0.000000000               0.000000000               0.000000000               0.000000000               0.000000000               0.000000000               0.000000000               0.000000000               0.000000000               0.000000000               0.000000000               0.000000000               0.000000000               0.000000000               0.000000000               0.000000000               0.000000000               0.000000000               0.000000000               0.000000000               0.000000000               0.000000000               0.000000000               0.000000000               0.000000000               0.000000000               0.000000000               0.000000000               0.000000000               0.000000000               0.000000000               0.000000000               0.000000000               0.000000000               0.000000000               0.000000000               0.000000000               0.000000000               0.000000000               0.000000000               0.000000000               0.000000000               0.000000000               0.000000000               0.000000000               0.000000000               0.000000000               0.000000000               0.000000000               0.000000000               0.000000000               0.000000000               0.000000000               0.000000000               0.000000000               0.000000000               0.000000000               0.000000000               0.000000000               0.002323924               0.023839982               0.001643367              -0.002108521               0.008649421               0.006540900               0.000000000               0.000000000               0.000000000               0.000000000               0.002130804               0.018531093               0.000786213              -0.001517332               0.006682747               0.005165415               0.000000000               0.000000000               0.000000000               0.000000000               0.002641177               0.014248646              -0.000060707              -0.000790637               0.005013047               0.004222410               0.000000000               0.000000000               0.000000000               0.000000000               0.002416080               0.011811884              -0.000410277              -0.000570454               0.004127407               0.003556952               0.000000000               0.000000000               0.000000000               0.000000000               0.001996785               0.010251049              -0.000546611              -0.000532586               0.003594511               0.003061925               0.000000000               0.000000000               0.000000000               0.000000000               0.001559354               0.009151885              -0.000591456              -0.000559227               0.003237007               0.002677780               0.000000000               0.000000000               0.000000000               0.000000000               0.001165861               0.008318560              -0.000594626              -0.000602621               0.002973699               0.002371078               0.000000000               0.000000000               0.000000000               0.000000000               0.000821575               0.007643090              -0.000580271              -0.000647294               0.002763436               0.002116142               0.000000000               0.000000000               0.000000000               0.000000000               0.000525558               0.007062315              -0.000556388              -0.000685704               0.002582649               0.001896946               0.000000000               0.000000000               0.000000000               0.000000000               0.000287029               0.006531159              -0.000524210              -0.000708757               0.002413283               0.001704526               0.000000000               0.000000000               0.000000000               0.000000000               0.000101772               0.006020453              -0.000491020              -0.000714390               0.002244928               0.001530537               0.000000000               0.000000000               0.000000000               0.000000000              -0.000036246               0.005510770              -0.000454204              -0.000702437               0.002071051               0.001368614               0.000000000               0.000000000               0.000000000               0.000000000              -0.000124008               0.004985749              -0.000410269              -0.000669720               0.001885140               0.001215420               0.000000000               0.000000000               0.000000000               0.000000000              -0.000162036               0.004430071              -0.000352129              -0.000614521               0.001681516               0.001066995               0.000000000               0.000000000               0.000000000               0.000000000              -0.000151688               0.003826270              -0.000267199              -0.000535165               0.001453799               0.000918634               0.000000000               0.000000000               0.000000000               0.000000000              -0.000090052               0.003157505              -0.000148342              -0.000428457               0.001195310               0.000766853               0.000000000               0.000000000               0.000000000               0.000000000              -0.000101011               0.002652499              -0.000091084              -0.000369441               0.001007304               0.000637864               0.000000000               0.000000000               0.000000000               0.000000000               0.002498206               0.022379227               0.003048774              -0.001860573               0.008079858               0.006219286               0.000000000               0.000000000               0.000000000               0.000000000               0.001953480               0.017605290               0.001454168              -0.001468103               0.006357739               0.004889636               0.000000000               0.000000000               0.000000000               0.000000000               0.002085113               0.013870273              -0.000107490              -0.000951864               0.004940666               0.003988802               0.000000000               0.000000000               0.000000000               0.000000000               0.001725672               0.011712697              -0.000727296              -0.000816958               0.004176513               0.003359554               0.000000000               0.000000000               0.000000000               0.000000000               0.001291136               0.010293512              -0.000959058              -0.000802511               0.003698640               0.002896129               0.000000000               0.000000000               0.000000000               0.000000000               0.000888725               0.009271368              -0.001028291              -0.000825647               0.003365641               0.002539994               0.000000000               0.000000000               0.000000000               0.000000000               0.000545728               0.008477062              -0.001027809              -0.000854983               0.003110653               0.002255670               0.000000000               0.000000000               0.000000000               0.000000000               0.000270982               0.007821884              -0.000998441              -0.000876115               0.002899307               0.002023192               0.000000000               0.000000000               0.000000000               0.000000000               0.000057535               0.007241890              -0.000952710              -0.000883659               0.002708492               0.001824833               0.000000000               0.000000000               0.000000000               0.000000000              -0.000100506               0.006700628              -0.000895063              -0.000875266               0.002525276               0.001650009               0.000000000               0.000000000               0.000000000               0.000000000              -0.000205338               0.006180367              -0.000835389              -0.000849546               0.002343284               0.001493738               0.000000000               0.000000000               0.000000000               0.000000000              -0.000261619               0.005668744              -0.000768786              -0.000806698               0.002158462               0.001351764               0.000000000               0.000000000               0.000000000               0.000000000              -0.000275114               0.005156871              -0.000687782              -0.000747775               0.001968198               0.001220423               0.000000000               0.000000000               0.000000000               0.000000000              -0.000244912               0.004642698              -0.000583125              -0.000672178               0.001771610               0.001099432               0.000000000               0.000000000               0.000000000               0.000000000              -0.000182244               0.004124219              -0.000437491              -0.000583868               0.001569348               0.000985481               0.000000000               0.000000000               0.000000000               0.000000000              -0.000099284               0.003602374              -0.000240763              -0.000487527               0.001363288               0.000875761               0.000000000               0.000000000               0.000000000               0.000000000              -0.000092003               0.003239618              -0.000144398              -0.000439452               0.001226346               0.000786894               0.000000000               0.000000000               0.000000000               0.000000000               0.002665094               0.020171513               0.004030556              -0.001522027               0.007231112               0.005709085               0.000000000               0.000000000               0.000000000               0.000000000               0.001625840               0.016216919               0.001924099              -0.001417422               0.005878059               0.004460637               0.000000000               0.000000000               0.000000000               0.000000000               0.001235295               0.013302839              -0.000109603              -0.001199616               0.004834107               0.003634491               0.000000000               0.000000000               0.000000000               0.000000000               0.000723388               0.011539335              -0.000873526              -0.001171144               0.004236788               0.003065644               0.000000000               0.000000000               0.000000000               0.000000000               0.000292592               0.010317381              -0.001139553              -0.001179948               0.003832408               0.002652460               0.000000000               0.000000000               0.000000000               0.000000000              -0.000037176               0.009392246              -0.001209444              -0.001187969               0.003526707               0.002338738               0.000000000               0.000000000               0.000000000               0.000000000              -0.000278898               0.008644195              -0.001201495              -0.001185109               0.003276406               0.002091297               0.000000000               0.000000000               0.000000000               0.000000000              -0.000444519               0.008000820              -0.001160557              -0.001166795               0.003055845               0.001889050               0.000000000               0.000000000               0.000000000               0.000000000              -0.000542417               0.007415612              -0.001098491              -0.001130355               0.002848631               0.001718276               0.000000000               0.000000000               0.000000000               0.000000000              -0.000584614               0.006861917              -0.001024804              -0.001076967               0.002646272               0.001569304               0.000000000               0.000000000               0.000000000               0.000000000              -0.000577301               0.006333888              -0.000949665              -0.001008222               0.002447349               0.001439127               0.000000000               0.000000000               0.000000000               0.000000000              -0.000528759               0.005828560              -0.000864303              -0.000926852               0.002251785               0.001324932               0.000000000               0.000000000               0.000000000               0.000000000              -0.000446156               0.005346350              -0.000760513              -0.000835600               0.002060632               0.001225032               0.000000000               0.000000000               0.000000000               0.000000000              -0.000337241               0.004892080              -0.000631285              -0.000737974               0.001876668               0.001138695               0.000000000               0.000000000               0.000000000               0.000000000              -0.000220078               0.004477000              -0.000462453              -0.000642153               0.001706369               0.001064217               0.000000000               0.000000000               0.000000000               0.000000000              -0.000110081               0.004119824              -0.000248964              -0.000556257               0.001558680               0.001002423               0.000000000               0.000000000               0.000000000               0.000000000              -0.000079652               0.003908602              -0.000143420              -0.000518443               0.001475669               0.000957225               0.000000000               0.000000000               0.000000000               0.000000000               0.002666723               0.017471880               0.004509616              -0.001183964               0.006218556               0.005034591               0.000000000               0.000000000               0.000000000               0.000000000               0.001116236               0.014553689               0.002181111              -0.001400620               0.005318054               0.003917434               0.000000000               0.000000000               0.000000000               0.000000000               0.000190394               0.012619034              -0.000029415              -0.001505978               0.004708295               0.003202317               0.000000000               0.000000000               0.000000000               0.000000000              -0.000414649               0.011283292              -0.000802743              -0.001565901               0.004283027               0.002717126               0.000000000               0.000000000               0.000000000               0.000000000              -0.000785270               0.010258794              -0.001052183              -0.001576822               0.003945171               0.002368349               0.000000000               0.000000000               0.000000000               0.000000000              -0.000996654               0.009428133              -0.001110526              -0.001552258               0.003660099               0.002107840               0.000000000               0.000000000               0.000000000               0.000000000              -0.001098980               0.008713914              -0.001098757              -0.001501353               0.003405060               0.001903707               0.000000000               0.000000000               0.000000000               0.000000000              -0.001126215               0.008074898              -0.001058295              -0.001431690               0.003168836               0.001737146               0.000000000               0.000000000               0.000000000               0.000000000              -0.001091917               0.007478738              -0.000996563              -0.001344308               0.002940990               0.001596682               0.000000000               0.000000000               0.000000000               0.000000000              -0.001007474               0.006916397              -0.000921426              -0.001242349               0.002719559               0.001477210               0.000000000               0.000000000               0.000000000               0.000000000              -0.000885015               0.006389441              -0.000843847              -0.001130558               0.002506645               0.001376087               0.000000000               0.000000000               0.000000000               0.000000000              -0.000736693               0.005901067              -0.000754662              -0.001013891               0.002304966               0.001291075               0.000000000               0.000000000               0.000000000               0.000000000              -0.000572192               0.005459184              -0.000644339              -0.000896968               0.002118699               0.001221731               0.000000000               0.000000000               0.000000000               0.000000000              -0.000403121               0.005070170              -0.000512190              -0.000784940               0.001951686               0.001166747               0.000000000               0.000000000               0.000000000               0.000000000              -0.000246960               0.004747062              -0.000358505              -0.000685991               0.001811002               0.001125011               0.000000000               0.000000000               0.000000000               0.000000000              -0.000114993               0.004514464              -0.000185657              -0.000607429               0.001707283               0.001099854               0.000000000               0.000000000               0.000000000               0.000000000              -0.000067076               0.004404447              -0.000102460              -0.000575708               0.001660037               0.001084329               0.000000000               0.000000000               0.000000000               0.000000000               0.002374991               0.014561500               0.004492210              -0.000929567               0.005163639               0.004234072               0.000000000               0.000000000               0.000000000               0.000000000               0.000428045               0.012800309               0.002254448              -0.001439520               0.004746566               0.003307047               0.000000000               0.000000000               0.000000000               0.000000000              -0.000931252               0.011873874               0.000160025              -0.001833449               0.004569068               0.002735619               0.000000000               0.000000000               0.000000000               0.000000000              -0.001525153               0.010933509              -0.000524472              -0.001938616               0.004290672               0.002352056               0.000000000               0.000000000               0.000000000               0.000000000              -0.001756814               0.010077853              -0.000737901              -0.001918532               0.003998762               0.002080229               0.000000000               0.000000000               0.000000000               0.000000000              -0.001810427               0.009314275              -0.000791453              -0.001843190               0.003719124               0.001875934               0.000000000               0.000000000               0.000000000               0.000000000              -0.001756703               0.008621774              -0.000793524              -0.001736481               0.003452723               0.001716242               0.000000000               0.000000000               0.000000000               0.000000000              -0.001632343               0.007985753              -0.000770773              -0.001610344               0.003198672               0.001588328               0.000000000               0.000000000               0.000000000               0.000000000              -0.001467011               0.007384474              -0.000722900              -0.001473185               0.002952528               0.001479344               0.000000000               0.000000000               0.000000000               0.000000000              -0.001271186               0.006824153              -0.000661563              -0.001329711               0.002717932               0.001388221               0.000000000               0.000000000               0.000000000               0.000000000              -0.001055353               0.006314790              -0.000595565              -0.001185103               0.002499943               0.001314840               0.000000000               0.000000000               0.000000000               0.000000000              -0.000832032               0.005860834              -0.000520046              -0.001044614               0.002301796               0.001257183               0.000000000               0.000000000               0.000000000               0.000000000              -0.000609557               0.005471715              -0.000428689              -0.000912546               0.002128069               0.001215523               0.000000000               0.000000000               0.000000000               0.000000000              -0.000407357               0.005153045              -0.000320712              -0.000796888               0.001983294               0.001186406               0.000000000               0.000000000               0.000000000               0.000000000              -0.000238799               0.004910686              -0.000208836              -0.000703384               0.001871340               0.001167956               0.000000000               0.000000000               0.000000000               0.000000000              -0.000104967               0.004758247              -0.000102909              -0.000634142               0.001797447               0.001163305               0.000000000               0.000000000               0.000000000               0.000000000              -0.000054310               0.004698025              -0.000055569              -0.000607618               0.001768532               0.001160914               0.000000000               0.000000000               0.000000000               0.000000000               0.001712985               0.011681266               0.004065407              -0.000817790               0.004166312               0.003348522               0.000000000               0.000000000               0.000000000               0.000000000              -0.000407708               0.011086065               0.002205174              -0.001538646               0.004208200               0.002669553               0.000000000               0.000000000               0.000000000               0.000000000              -0.002002371               0.011087593               0.000465427              -0.002136833               0.004408105               0.002271272               0.000000000               0.000000000               0.000000000               0.000000000              -0.002466039               0.010470876              -0.000087759              -0.002233619               0.004234797               0.002001178               0.000000000               0.000000000               0.000000000               0.000000000              -0.002505331               0.009747665              -0.000275917              -0.002157952               0.003968506               0.001810555               0.000000000               0.000000000               0.000000000               0.000000000              -0.002374721               0.009037506              -0.000347676              -0.002020204               0.003685873               0.001665669               0.000000000               0.000000000               0.000000000               0.000000000              -0.002162739               0.008363882              -0.000382079              -0.001856508               0.003406769               0.001550261               0.000000000               0.000000000               0.000000000               0.000000000              -0.001905990               0.007730930              -0.000392497              -0.001681108               0.003137320               0.001456212               0.000000000               0.000000000               0.000000000               0.000000000              -0.001623079               0.007142936              -0.000372964              -0.001501518               0.002881461               0.001379943               0.000000000               0.000000000               0.000000000               0.000000000              -0.001332462               0.006607843              -0.000341941              -0.001325650               0.002644476               0.001318825               0.000000000               0.000000000               0.000000000               0.000000000              -0.001045392               0.006139420              -0.000308658              -0.001159447               0.002432935               0.001273488               0.000000000               0.000000000               0.000000000               0.000000000              -0.000774999               0.005741386              -0.000266996              -0.001008295               0.002249875               0.001241579               0.000000000               0.000000000               0.000000000               0.000000000              -0.000531270               0.005415710              -0.000213644              -0.000876188               0.002097281               0.001221093               0.000000000               0.000000000               0.000000000               0.000000000              -0.000329944               0.005167394              -0.000148049              -0.000769651               0.001978998               0.001209346               0.000000000               0.000000000               0.000000000               0.000000000              -0.000177519               0.004998823              -0.000083666              -0.000691421               0.001896731               0.001205310               0.000000000               0.000000000               0.000000000               0.000000000              -0.000071308               0.004904269              -0.000036257              -0.000639772               0.001847997               0.001208225               0.000000000               0.000000000               0.000000000               0.000000000              -0.000033364               0.004872027              -0.000019171              -0.000621513               0.001831164               0.001209651               0.000000000               0.000000000               0.000000000               0.000000000               0.000721394               0.009009734               0.003346444              -0.000855695               0.003288445               0.002432751               0.000000000               0.000000000               0.000000000               0.000000000              -0.001338372               0.009506901               0.002086527              -0.001690249               0.003732351               0.002042102               0.000000000               0.000000000               0.000000000               0.000000000              -0.002919543               0.010261887               0.000870749              -0.002377559               0.004213114               0.001835556               0.000000000               0.000000000               0.000000000               0.000000000              -0.003149105               0.009890687               0.000437074              -0.002417244               0.004102611               0.001685366               0.000000000               0.000000000               0.000000000               0.000000000              -0.002969850               0.009278171               0.000238354              -0.002273459               0.003850512               0.001577053               0.000000000               0.000000000               0.000000000               0.000000000              -0.002665305               0.008622078               0.000127370              -0.002077244               0.003566412               0.001489168               0.000000000               0.000000000               0.000000000               0.000000000              -0.002314433               0.007977599               0.000050197              -0.001865108               0.003280876               0.001415768               0.000000000               0.000000000               0.000000000               0.000000000              -0.001945430               0.007368572              -0.000005723              -0.001650604               0.003006367               0.001355764               0.000000000               0.000000000               0.000000000               0.000000000              -0.001565709               0.006811233              -0.000033329              -0.001438541               0.002749902               0.001311361               0.000000000               0.000000000               0.000000000               0.000000000              -0.001198356               0.006323264              -0.000048494              -0.001239788               0.002520996               0.001281208               0.000000000               0.000000000               0.000000000               0.000000000              -0.000864893               0.005911665              -0.000061865              -0.001063290               0.002324966               0.001261675               0.000000000               0.000000000               0.000000000               0.000000000              -0.000580838               0.005574466              -0.000063673              -0.000914620               0.002163010               0.001248390               0.000000000               0.000000000               0.000000000               0.000000000              -0.000355265               0.005312225              -0.000051951              -0.000797250               0.002036474               0.001239224               0.000000000               0.000000000               0.000000000               0.000000000              -0.000190468               0.005128271              -0.000032019              -0.000712457               0.001946893               0.001234435               0.000000000               0.000000000               0.000000000               0.000000000              -0.000082200               0.005021590              -0.000011031              -0.000658522               0.001893354               0.001234832               0.000000000               0.000000000               0.000000000               0.000000000              -0.000024550               0.004973353              -0.000000617              -0.000630874               0.001868059               0.001237185               0.000000000               0.000000000               0.000000000               0.000000000              -0.000010782               0.004959298              -0.000000155              -0.000623954               0.001861067               0.001237114               0.000000000               0.000000000               0.000000000               0.000000000              -0.000461993               0.006746763               0.002455978              -0.001016592               0.002587762               0.001571170               0.000000000               0.000000000               0.000000000               0.000000000              -0.002248588               0.008090596               0.001946928              -0.001854541               0.003315018               0.001460477               0.000000000               0.000000000               0.000000000               0.000000000              -0.003632692               0.009432697               0.001350261              -0.002541341               0.003991314               0.001449974               0.000000000               0.000000000               0.000000000               0.000000000              -0.003610934               0.009320458               0.000991969              -0.002519151               0.003946505               0.001427354               0.000000000               0.000000000               0.000000000               0.000000000              -0.003249775               0.008844997               0.000758318              -0.002324284               0.003723064               0.001398780               0.000000000               0.000000000               0.000000000               0.000000000              -0.002807676               0.008269872               0.000595148              -0.002086608               0.003452132               0.001365525               0.000000000               0.000000000               0.000000000               0.000000000              -0.002348184               0.007686724               0.000469415              -0.001841405               0.003176017               0.001334612               0.000000000               0.000000000               0.000000000               0.000000000              -0.001889132               0.007127625               0.000366400              -0.001599374               0.002908976               0.001309602               0.000000000               0.000000000               0.000000000               0.000000000              -0.001437655               0.006613322               0.000285418              -0.001365783               0.002659680               0.001293897               0.000000000               0.000000000               0.000000000               0.000000000              -0.001014259               0.006171354               0.000214820              -0.001151763               0.002441019               0.001289255               0.000000000               0.000000000               0.000000000               0.000000000              -0.000652279               0.005802203               0.000149919              -0.000969878               0.002257341               0.001287463               0.000000000               0.000000000               0.000000000               0.000000000              -0.000370348               0.005497904               0.000098568              -0.000826116               0.002107988               0.001281872               0.000000000               0.000000000               0.000000000               0.000000000              -0.000174314               0.005263592               0.000061567              -0.000723315               0.001995618               0.001272303               0.000000000               0.000000000               0.000000000               0.000000000              -0.000050758               0.005108739               0.000035421              -0.000657625               0.001922104               0.001264479               0.000000000               0.000000000               0.000000000               0.000000000               0.000011523               0.005026273               0.000016920              -0.000623961               0.001883395               0.001259433               0.000000000               0.000000000               0.000000000               0.000000000               0.000025446               0.004996168               0.000005377              -0.000614977               0.001870365               0.001255388               0.000000000               0.000000000               0.000000000               0.000000000               0.000020013               0.004989068               0.000000232              -0.000616127               0.001868382               0.001252255               0.000000000               0.000000000               0.000000000               0.000000000              -0.001855471               0.004644334               0.001509574              -0.001276341               0.001973542               0.000697202               0.000000000               0.000000000               0.000000000               0.000000000              -0.003012155               0.006457779               0.001788873              -0.001936776               0.002798163               0.000861387               0.000000000               0.000000000               0.000000000               0.000000000              -0.004054164               0.008222310               0.001851729              -0.002548094               0.003590107               0.001042013               0.000000000               0.000000000               0.000000000               0.000000000              -0.003893355               0.008494552               0.001580613              -0.002521821               0.003672096               0.001150275               0.000000000               0.000000000               0.000000000               0.000000000              -0.003454470               0.008284951               0.001315624              -0.002331039               0.003538636               0.001207596               0.000000000               0.000000000               0.000000000               0.000000000              -0.002962359               0.007903901               0.001097458              -0.002098867               0.003334230               0.001235362               0.000000000               0.000000000               0.000000000               0.000000000              -0.002467647               0.007468926               0.000924304              -0.001858979               0.003109277               0.001250298               0.000000000               0.000000000               0.000000000               0.000000000              -0.001984017               0.007033784               0.000779234              -0.001623226               0.002885646               0.001262421               0.000000000               0.000000000               0.000000000               0.000000000              -0.001513432               0.006621159               0.000649895              -0.001395178               0.002672090               0.001276912               0.000000000               0.000000000               0.000000000               0.000000000              -0.001071455               0.006242583               0.000526451              -0.001182116               0.002474879               0.001292763               0.000000000               0.000000000               0.000000000               0.000000000              -0.000682607               0.005909336               0.000409564              -0.000994642               0.002301306               0.001306664               0.000000000               0.000000000               0.000000000               0.000000000              -0.000370965               0.005619086               0.000301079              -0.000841496               0.002153508               0.001312013               0.000000000               0.000000000               0.000000000               0.000000000              -0.000148988               0.005378402               0.000204164              -0.000728169               0.002035506               0.001307337               0.000000000               0.000000000               0.000000000               0.000000000              -0.000010591               0.005197243               0.000125469              -0.000653625               0.001950272               0.001296647               0.000000000               0.000000000               0.000000000               0.000000000               0.000060912               0.005079730               0.000062083              -0.000612123               0.001897267               0.001285145               0.000000000               0.000000000               0.000000000               0.000000000               0.000079041               0.005021420               0.000017954              -0.000598036               0.001873135               0.001275100               0.000000000               0.000000000               0.000000000               0.000000000               0.000072003               0.005001816               0.000001571              -0.000598224               0.001866663               0.001268439               0.000000000               0.000000000               0.000000000               0.000000000              -0.003643229               0.002742434               0.000579094              -0.001709012               0.001483805              -0.000225207               0.000000000               0.000000000               0.000000000               0.000000000              -0.003875188               0.004813623               0.001556933              -0.002054894               0.002289489               0.000234595               0.000000000               0.000000000               0.000000000               0.000000000              -0.004382388               0.006799310               0.002248419              -0.002493304               0.003097514               0.000604211               0.000000000               0.000000000               0.000000000               0.000000000              -0.004092800               0.007440762               0.002139949              -0.002464890               0.003301858               0.000836969               0.000000000               0.000000000               0.000000000               0.000000000              -0.003606902               0.007543307               0.001884193              -0.002295496               0.003279576               0.000984079               0.000000000               0.000000000               0.000000000               0.000000000              -0.003089215               0.007405180               0.001634686              -0.002084098               0.003163068               0.001078969               0.000000000               0.000000000               0.000000000               0.000000000              -0.002578739               0.007163302               0.001420563              -0.001862436               0.003008555               0.001146119               0.000000000               0.000000000               0.000000000               0.000000000              -0.002085148               0.006883235               0.001237098              -0.001642331               0.002841832               0.001199501               0.000000000               0.000000000               0.000000000               0.000000000              -0.001613711               0.006591190               0.001070758              -0.001429037               0.002673387               0.001244350               0.000000000               0.000000000               0.000000000               0.000000000              -0.001163618               0.006295947               0.000909891              -0.001223347               0.002506410               0.001283063               0.000000000               0.000000000               0.000000000               0.000000000              -0.000747322               0.006013933               0.000751637              -0.001031985               0.002348619               0.001316634               0.000000000               0.000000000               0.000000000               0.000000000              -0.000390434               0.005751374               0.000591497              -0.000865333               0.002205549               0.001340217               0.000000000               0.000000000               0.000000000               0.000000000              -0.000111930               0.005515687               0.000436094              -0.000731433               0.002082355               0.001350922               0.000000000               0.000000000               0.000000000               0.000000000               0.000077830               0.005314131               0.000295813              -0.000635079               0.001983052               0.001347973               0.000000000               0.000000000               0.000000000               0.000000000               0.000180215               0.005154527               0.000170128              -0.000576734               0.001910403               0.001333669               0.000000000               0.000000000               0.000000000               0.000000000               0.000211312               0.005053435               0.000068115              -0.000552436               0.001868607               0.001316171               0.000000000               0.000000000               0.000000000               0.000000000               0.000201238               0.005014181               0.000023271              -0.000551307               0.001855146               0.001303839               0.000000000               0.000000000               0.000000000               0.000000000              -0.005692249               0.001189037              -0.000247358              -0.002283220               0.001157411              -0.001125809               0.000000000               0.000000000               0.000000000               0.000000000              -0.004886716               0.003255411               0.001234175              -0.002239441               0.001831605              -0.000407836               0.000000000               0.000000000               0.000000000               0.000000000              -0.004653114               0.005184386               0.002421141              -0.002392961               0.002525764               0.000132803               0.000000000               0.000000000               0.000000000               0.000000000              -0.004151985               0.006087187               0.002519029              -0.002317888               0.002801670               0.000483782               0.000000000               0.000000000               0.000000000               0.000000000              -0.003600958               0.006474151               0.002331270              -0.002159623               0.002877902               0.000718279               0.000000000               0.000000000               0.000000000               0.000000000              -0.003059118               0.006591088               0.002089703              -0.001971051               0.002854024               0.000882973               0.000000000               0.000000000               0.000000000               0.000000000              -0.002546108               0.006567609               0.001859711              -0.001775738               0.002781093               0.001005356               0.000000000               0.000000000               0.000000000               0.000000000              -0.002052095               0.006473536               0.001653701              -0.001578724               0.002684065               0.001105340               0.000000000               0.000000000               0.000000000               0.000000000              -0.001581954               0.006333171               0.001464503              -0.001384876               0.002572661               0.001187785               0.000000000               0.000000000               0.000000000               0.000000000              -0.001132288               0.006156620               0.001284756              -0.001194183               0.002450247               0.001256064               0.000000000               0.000000000               0.000000000               0.000000000              -0.000706675               0.005958691               0.001104307              -0.001009837               0.002322823               0.001312985               0.000000000               0.000000000               0.000000000               0.000000000              -0.000318832               0.005752759               0.000916184              -0.000838655               0.002197119               0.001358464               0.000000000               0.000000000               0.000000000               0.000000000               0.000015000               0.005550940               0.000723036              -0.000688241               0.002079708               0.001391467               0.000000000               0.000000000               0.000000000               0.000000000               0.000270398               0.005359155               0.000529151              -0.000568494               0.001975865               0.001407371               0.000000000               0.000000000               0.000000000               0.000000000               0.000430042               0.005193964               0.000337020              -0.000487979               0.001893964               0.001405985               0.000000000               0.000000000               0.000000000               0.000000000               0.000493519               0.005077821               0.000158550              -0.000449657               0.001842476               0.001392819               0.000000000               0.000000000               0.000000000               0.000000000               0.000486387               0.005024640               0.000070614              -0.000445684               0.001823425               0.001377741               0.000000000               0.000000000               0.000000000               0.000000000              -0.007856479               0.000069614              -0.000850219              -0.002954879               0.001008157              -0.001946721               0.000000000               0.000000000               0.000000000               0.000000000              -0.005988289               0.001882342               0.000870679              -0.002480898               0.001454403              -0.001026495               0.000000000               0.000000000               0.000000000               0.000000000              -0.004895042               0.003530358               0.002341465              -0.002276931               0.001935749              -0.000341182               0.000000000               0.000000000               0.000000000               0.000000000              -0.004096003               0.004552136               0.002625513              -0.002105014               0.002219033               0.000114020               0.000000000               0.000000000               0.000000000               0.000000000              -0.003445126               0.005159684               0.002540205              -0.001936879               0.002365503               0.000428624               0.000000000               0.000000000               0.000000000               0.000000000              -0.002875515               0.005514150               0.002346067              -0.001767583               0.002427225               0.000659642               0.000000000               0.000000000               0.000000000               0.000000000              -0.002358786               0.005714274               0.002131770              -0.001598826               0.002437680               0.000838854               0.000000000               0.000000000               0.000000000               0.000000000              -0.001879806               0.005809680               0.001927159              -0.001431134               0.002413585               0.000982450               0.000000000               0.000000000               0.000000000               0.000000000              -0.001420641               0.005829253               0.001737167              -0.001261395               0.002363529               0.001102135               0.000000000               0.000000000               0.000000000               0.000000000              -0.000975618               0.005791904               0.001557147              -0.001089843               0.002293896               0.001204053               0.000000000               0.000000000               0.000000000               0.000000000              -0.000542444               0.005713299               0.001375323              -0.000917577               0.002210273               0.001292695               0.000000000               0.000000000               0.000000000               0.000000000              -0.000129364               0.005600317               0.001186229              -0.000748550               0.002116270               0.001367720               0.000000000               0.000000000               0.000000000               0.000000000               0.000254575               0.005465886               0.000984763              -0.000587769               0.002017867               0.001430098               0.000000000               0.000000000               0.000000000               0.000000000               0.000587637               0.005328412               0.000763299              -0.000445687               0.001924682               0.001478995               0.000000000               0.000000000               0.000000000               0.000000000               0.000843160               0.005202384               0.000521195              -0.000334112               0.001845481               0.001511369               0.000000000               0.000000000               0.000000000               0.000000000               0.000992807               0.005094950               0.000264184              -0.000264565               0.001786488               0.001521923               0.000000000               0.000000000               0.000000000               0.000000000               0.001031009               0.005040571               0.000131983              -0.000243442               0.001761321               0.001517879               0.000000000               0.000000000               0.000000000               0.000000000              -0.009935090              -0.000632852              -0.001126506              -0.003646550               0.001004559              -0.002641991               0.000000000               0.000000000               0.000000000               0.000000000              -0.007081990               0.000776640               0.000530700              -0.002752823               0.001176479              -0.001576344               0.000000000               0.000000000               0.000000000               0.000000000              -0.005115097               0.001997542               0.002011500              -0.002167851               0.001388454              -0.000779397               0.000000000               0.000000000               0.000000000               0.000000000              -0.003970139               0.003013915               0.002400069              -0.001865538               0.001626472              -0.000239066               0.000000000               0.000000000               0.000000000               0.000000000              -0.003184228               0.003769476               0.002407443              -0.001665267               0.001811567               0.000146300               0.000000000               0.000000000               0.000000000               0.000000000              -0.002572301               0.004309102               0.002282926              -0.001503248               0.001937435               0.000434187               0.000000000               0.000000000               0.000000000               0.000000000              -0.002050209               0.004689769               0.002115406              -0.001355047               0.002014922               0.000659875               0.000000000               0.000000000               0.000000000               0.000000000              -0.001582211               0.004955365               0.001940582              -0.001212748               0.002056020               0.000843273               0.000000000               0.000000000               0.000000000               0.000000000              -0.001141064               0.005134923               0.001773908              -0.001069762               0.002068211               0.000998448               0.000000000               0.000000000               0.000000000               0.000000000              -0.000707684               0.005249073               0.001616352              -0.000921514               0.002056844               0.001135330               0.000000000               0.000000000               0.000000000               0.000000000              -0.000270496               0.005309622               0.001458755              -0.000765138               0.002024902               0.001259764               0.000000000               0.000000000               0.000000000               0.000000000               0.000165501               0.005315556               0.001292931              -0.000602381               0.001972628               0.001370247               0.000000000               0.000000000               0.000000000               0.000000000               0.000593026               0.005283981               0.001110666              -0.000438113               0.001907347               0.001469234               0.000000000               0.000000000               0.000000000               0.000000000               0.001005535               0.005233095               0.000898929              -0.000277061               0.001836701               0.001559640               0.000000000               0.000000000               0.000000000               0.000000000               0.001386674               0.005165865               0.000647635              -0.000125730               0.001763848               0.001638117               0.000000000               0.000000000               0.000000000               0.000000000               0.001703247               0.005086016               0.000345637               0.000002965               0.001694334               0.001697298               0.000000000               0.000000000               0.000000000               0.000000000               0.001872493               0.005054613               0.000187533               0.000070357               0.001661402               0.001731759               0.000000000               0.000000000               0.000000000               0.000000000              -0.011682306              -0.001008729              -0.001030906              -0.004254771               0.001082006              -0.003172764               0.000000000               0.000000000               0.000000000               0.000000000              -0.008030120              -0.000020884               0.000269382              -0.003008682               0.000995926              -0.002012756               0.000000000               0.000000000               0.000000000               0.000000000              -0.005307129               0.000757892               0.001465703              -0.002084908               0.000947593              -0.001137315               0.000000000               0.000000000               0.000000000               0.000000000              -0.003830002               0.001692392               0.001835143              -0.001647797               0.001113388              -0.000534409               0.000000000               0.000000000               0.000000000               0.000000000              -0.002898632               0.002513761               0.001893477              -0.001401205               0.001304979              -0.000096226               0.000000000               0.000000000               0.000000000               0.000000000              -0.002233141               0.003176157               0.001831525              -0.001234445               0.001470189               0.000235744               0.000000000               0.000000000               0.000000000               0.000000000              -0.001700205               0.003688910               0.001724206              -0.001098689               0.001595853               0.000497165               0.000000000               0.000000000               0.000000000               0.000000000              -0.001234135               0.004084976               0.001602800              -0.000973421               0.001686118               0.000712697               0.000000000               0.000000000               0.000000000               0.000000000              -0.000801564               0.004398659               0.001483270              -0.000850418               0.001749677               0.000899259               0.000000000               0.000000000               0.000000000               0.000000000              -0.000376606               0.004649227               0.001371477              -0.000722380               0.001790520               0.001068140               0.000000000               0.000000000               0.000000000               0.000000000               0.000058278               0.004837669               0.001258651              -0.000582853               0.001806824               0.001223971               0.000000000               0.000000000               0.000000000               0.000000000               0.000506858               0.004963019               0.001133361              -0.000430305               0.001797758               0.001367453               0.000000000               0.000000000               0.000000000               0.000000000               0.000976186               0.005047571               0.000991011              -0.000264877               0.001770799               0.001505922               0.000000000               0.000000000               0.000000000               0.000000000               0.001472426               0.005095551               0.000825510              -0.000084784               0.001726761               0.001641977               0.000000000               0.000000000               0.000000000               0.000000000               0.001992732               0.005096480               0.000619523               0.000110213               0.001662072               0.001772285               0.000000000               0.000000000               0.000000000               0.000000000               0.002529902               0.005058942               0.000345014               0.000316342               0.001580850               0.001897192               0.000000000               0.000000000               0.000000000               0.000000000               0.002902197               0.005069291               0.000200966               0.000454658               0.001538194               0.001992852               0.000000000               0.000000000               0.000000000               0.000000000              -0.012852022              -0.001169672              -0.000608862              -0.004673296               0.001167867              -0.003505430               0.000000000               0.000000000               0.000000000               0.000000000              -0.008681797              -0.000496768               0.000104449              -0.003193576               0.000898930              -0.002294646               0.000000000               0.000000000               0.000000000               0.000000000              -0.005447542              -0.000049806               0.000770830              -0.002036601               0.000662260              -0.001374341               0.000000000               0.000000000               0.000000000               0.000000000              -0.003723505               0.000798447               0.000994528              -0.001496119               0.000764850              -0.000731269               0.000000000               0.000000000               0.000000000               0.000000000              -0.002677523               0.001636459               0.001044869              -0.001208626               0.000948355              -0.000260271               0.000000000               0.000000000               0.000000000               0.000000000              -0.001965710               0.002357580               0.001023166              -0.001031836               0.001129797               0.000097961               0.000000000               0.000000000               0.000000000               0.000000000              -0.001420760               0.002951284               0.000973455              -0.000901694               0.001284316               0.000382622               0.000000000               0.000000000               0.000000000               0.000000000              -0.000953974               0.003436436               0.000914020              -0.000787293               0.001407898               0.000620605               0.000000000               0.000000000               0.000000000               0.000000000              -0.000520235               0.003836246               0.000853469              -0.000674618               0.001503608               0.000828991               0.000000000               0.000000000               0.000000000               0.000000000              -0.000095156               0.004170330               0.000798046              -0.000556974               0.001575754               0.001018780               0.000000000               0.000000000               0.000000000               0.000000000               0.000337785               0.004445055               0.000740230              -0.000428962               0.001624657               0.001195696               0.000000000               0.000000000               0.000000000               0.000000000               0.000796441               0.004658173               0.000671538              -0.000283606               0.001647244               0.001363638               0.000000000               0.000000000               0.000000000               0.000000000               0.001302564               0.004824090               0.000593395              -0.000114550               0.001646197               0.001531647               0.000000000               0.000000000               0.000000000               0.000000000               0.001869655               0.004944699               0.000501602               0.000083032               0.001620539               0.001703571               0.000000000               0.000000000               0.000000000               0.000000000               0.002506037               0.005009217               0.000385014               0.000313609               0.001565186               0.001878795               0.000000000               0.000000000               0.000000000               0.000000000               0.003233783               0.005021161               0.000220260               0.000585018               0.001478698               0.002063715               0.000000000               0.000000000               0.000000000               0.000000000               0.003793303               0.005074859               0.000133340               0.000788123               0.001428895               0.002217018               0.000000000               0.000000000               0.000000000               0.000000000              -0.013263758              -0.001210321              -0.000000000              -0.004822616               0.001204090              -0.003618526               0.000000000               0.000000000               0.000000000               0.000000000              -0.008914505              -0.000654469              -0.000000000              -0.003261128               0.000868880              -0.002392248               0.000000000               0.000000000               0.000000000               0.000000000              -0.005499744              -0.000331371              -0.000000000              -0.002020981               0.000563199              -0.001457782               0.000000000               0.000000000               0.000000000               0.000000000              -0.003684703               0.000482448              -0.000000000              -0.001442068               0.000641501              -0.000800567               0.000000000               0.000000000               0.000000000               0.000000000              -0.002595828               0.001320566               0.000000000              -0.001138504               0.000819684              -0.000318820               0.000000000               0.000000000               0.000000000               0.000000000              -0.001862337               0.002056390               0.000000000              -0.000955423               0.001003930               0.000048508               0.000000000               0.000000000               0.000000000               0.000000000              -0.001310655               0.002680232              -0.000000000              -0.000826523               0.001168909               0.000342386               0.000000000               0.000000000               0.000000000               0.000000000              -0.000845678               0.003199056              -0.000000000              -0.000717010               0.001305345               0.000588335               0.000000000               0.000000000               0.000000000               0.000000000              -0.000412591               0.003625485              -0.000000000              -0.000607906               0.001411118               0.000803212               0.000000000               0.000000000               0.000000000               0.000000000               0.000016225               0.003987228              -0.000000000              -0.000492318               0.001493169               0.001000851               0.000000000               0.000000000               0.000000000               0.000000000               0.000450731               0.004291784               0.000000000              -0.000367448               0.001553063               0.001185615               0.000000000               0.000000000               0.000000000               0.000000000               0.000916042               0.004532391               0.000000000              -0.000223033               0.001585126               0.001362093               0.000000000               0.000000000               0.000000000               0.000000000               0.001437732               0.004725693              -0.000000000              -0.000051562               0.001592402               0.001540840               0.000000000               0.000000000               0.000000000               0.000000000               0.002031275               0.004874865               0.000000000               0.000152368               0.001574149               0.001726518               0.000000000               0.000000000               0.000000000               0.000000000               0.002712689               0.004967827               0.000000000               0.000396276               0.001523834               0.001920110               0.000000000               0.000000000               0.000000000               0.000000000               0.003513236               0.005002831               0.000000000               0.000692103               0.001436893               0.002128996               0.000000000               0.000000000               0.000000000               0.000000000               0.004147017               0.005074810               0.000000000               0.000920771               0.001384663               0.002305434               0.000000000               0.000000000               0.000000000               0.000000000               0.002256020               0.024353864               0.000000000              -0.002198220               0.008850614               0.006652394               0.000000000               0.000000000               0.000000000               0.000000000               0.002187679               0.018856442              -0.000000000              -0.001536672               0.006797642               0.005260970               0.000000000               0.000000000               0.000000000               0.000000000               0.002834227               0.014382571               0.000000000              -0.000734985               0.005039137               0.004304153               0.000000000               0.000000000               0.000000000               0.000000000               0.002658738               0.011843953               0.000000000              -0.000483466               0.004109100               0.003625634               0.000000000               0.000000000               0.000000000               0.000000000               0.002247652               0.010234433               0.000000000              -0.000436433               0.003556921               0.003120488               0.000000000               0.000000000               0.000000000               0.000000000               0.001803352               0.009104072              -0.000000000              -0.000461751               0.003188577               0.002726826               0.000000000               0.000000000               0.000000000               0.000000000               0.001394937               0.008255469              -0.000000000              -0.000508831               0.002921406               0.002412575               0.000000000               0.000000000               0.000000000               0.000000000               0.001027041               0.007569683              -0.000000000              -0.000561069               0.002710225               0.002149157               0.000000000               0.000000000               0.000000000               0.000000000               0.000707673               0.006988840              -0.000000000              -0.000608226               0.002532332               0.001924106               0.000000000               0.000000000               0.000000000               0.000000000               0.000441751               0.006461558               0.000000000              -0.000642036               0.002367843               0.001725807               0.000000000               0.000000000               0.000000000               0.000000000               0.000224243               0.005954561               0.000000000              -0.000660227               0.002204910               0.001544682               0.000000000               0.000000000               0.000000000               0.000000000               0.000050965               0.005445771               0.000000000              -0.000661608               0.002035775               0.001374167               0.000000000               0.000000000               0.000000000               0.000000000              -0.000069248               0.004915483              -0.000000000              -0.000640402               0.001851945               0.001211543               0.000000000               0.000000000               0.000000000               0.000000000              -0.000134180               0.004346215              -0.000000000              -0.000593593               0.001646588               0.001052995               0.000000000               0.000000000               0.000000000               0.000000000              -0.000144323               0.003710859               0.000000000              -0.000517977               0.001409600               0.000891622               0.000000000               0.000000000               0.000000000               0.000000000              -0.000090575               0.002983145              -0.000000000              -0.000406858               0.001129991               0.000723133               0.000000000               0.000000000               0.000000000               0.000000000              -0.000108114               0.002419172               0.000000000              -0.000342938               0.000920696               0.000577757               0.000000000               0.000000000               0.000000000               0.000000000               0.002323924               0.023839982              -0.001643367              -0.002108521               0.008649421               0.006540900               0.000000000               0.000000000               0.000000000               0.000000000               0.002130804               0.018531093              -0.000786213              -0.001517332               0.006682747               0.005165415               0.000000000               0.000000000               0.000000000               0.000000000               0.002641177               0.014248646               0.000060707              -0.000790637               0.005013047               0.004222410               0.000000000               0.000000000               0.000000000               0.000000000               0.002416080               0.011811884               0.000410277              -0.000570454               0.004127407               0.003556952               0.000000000               0.000000000               0.000000000               0.000000000               0.001996785               0.010251049               0.000546611              -0.000532586               0.003594511               0.003061925               0.000000000               0.000000000               0.000000000               0.000000000               0.001559354               0.009151885               0.000591456              -0.000559227               0.003237007               0.002677780               0.000000000               0.000000000               0.000000000               0.000000000               0.001165861               0.008318560               0.000594626              -0.000602621               0.002973699               0.002371078               0.000000000               0.000000000               0.000000000               0.000000000               0.000821575               0.007643090               0.000580271              -0.000647294               0.002763436               0.002116142               0.000000000               0.000000000               0.000000000               0.000000000               0.000525558               0.007062315               0.000556388              -0.000685704               0.002582649               0.001896946               0.000000000               0.000000000               0.000000000               0.000000000               0.000287029               0.006531159               0.000524210              -0.000708757               0.002413283               0.001704526               0.000000000               0.000000000               0.000000000               0.000000000               0.000101772               0.006020453               0.000491020              -0.000714390               0.002244928               0.001530537               0.000000000               0.000000000               0.000000000               0.000000000              -0.000036246               0.005510770               0.000454204              -0.000702437               0.002071051               0.001368614               0.000000000               0.000000000               0.000000000               0.000000000              -0.000124008               0.004985749               0.000410269              -0.000669720               0.001885140               0.001215420               0.000000000               0.000000000               0.000000000               0.000000000              -0.000162036               0.004430071               0.000352129              -0.000614521               0.001681516               0.001066995               0.000000000               0.000000000               0.000000000               0.000000000              -0.000151688               0.003826270               0.000267199              -0.000535165               0.001453799               0.000918634               0.000000000               0.000000000               0.000000000               0.000000000              -0.000090052               0.003157505               0.000148342              -0.000428457               0.001195310               0.000766853               0.000000000               0.000000000               0.000000000               0.000000000              -0.000101011               0.002652499               0.000091084              -0.000369441               0.001007304               0.000637864               0.000000000               0.000000000               0.000000000               0.000000000               0.002498206               0.022379227              -0.003048774              -0.001860573               0.008079858               0.006219286               0.000000000               0.000000000               0.000000000               0.000000000               0.001953480               0.017605290              -0.001454168              -0.001468103               0.006357739               0.004889636               0.000000000               0.000000000               0.000000000               0.000000000               0.002085113               0.013870273               0.000107490              -0.000951864               0.004940666               0.003988802               0.000000000               0.000000000               0.000000000               0.000000000               0.001725672               0.011712697               0.000727296              -0.000816958               0.004176513               0.003359554               0.000000000               0.000000000               0.000000000               0.000000000               0.001291136               0.010293512               0.000959058              -0.000802511               0.003698640               0.002896129               0.000000000               0.000000000               0.000000000               0.000000000               0.000888725               0.009271368               0.001028291              -0.000825647               0.003365641               0.002539994               0.000000000               0.000000000               0.000000000               0.000000000               0.000545728               0.008477062               0.001027809              -0.000854983               0.003110653               0.002255670               0.000000000               0.000000000               0.000000000               0.000000000               0.000270982               0.007821884               0.000998441              -0.000876115               0.002899307               0.002023192               0.000000000               0.000000000               0.000000000               0.000000000               0.000057535               0.007241890               0.000952710              -0.000883659               0.002708492               0.001824833               0.000000000               0.000000000               0.000000000               0.000000000              -0.000100506               0.006700628               0.000895063              -0.000875266               0.002525276               0.001650009               0.000000000               0.000000000               0.000000000               0.000000000              -0.000205338               0.006180367               0.000835389              -0.000849546               0.002343284               0.001493738               0.000000000               0.000000000               0.000000000               0.000000000              -0.000261619               0.005668744               0.000768786              -0.000806698               0.002158462               0.001351764               0.000000000               0.000000000               0.000000000               0.000000000              -0.000275114               0.005156871               0.000687782              -0.000747775               0.001968198               0.001220423               0.000000000               0.000000000               0.000000000               0.000000000              -0.000244912               0.004642698               0.000583125              -0.000672178               0.001771610               0.001099432               0.000000000               0.000000000               0.000000000               0.000000000              -0.000182244               0.004124219               0.000437491              -0.000583868               0.001569348               0.000985481               0.000000000               0.000000000               0.000000000               0.000000000              -0.000099284               0.003602374               0.000240763              -0.000487527               0.001363288               0.000875761               0.000000000               0.000000000               0.000000000               0.000000000              -0.000092003               0.003239618               0.000144398              -0.000439452               0.001226346               0.000786894               0.000000000               0.000000000               0.000000000               0.000000000               0.002665094               0.020171513              -0.004030556              -0.001522027               0.007231112               0.005709085               0.000000000               0.000000000               0.000000000               0.000000000               0.001625840               0.016216919              -0.001924099              -0.001417422               0.005878059               0.004460637               0.000000000               0.000000000               0.000000000               0.000000000               0.001235295               0.013302839               0.000109603              -0.001199616               0.004834107               0.003634491               0.000000000               0.000000000               0.000000000               0.000000000               0.000723388               0.011539335               0.000873526              -0.001171144               0.004236788               0.003065644               0.000000000               0.000000000               0.000000000               0.000000000               0.000292592               0.010317381               0.001139553              -0.001179948               0.003832408               0.002652460               0.000000000               0.000000000               0.000000000               0.000000000              -0.000037176               0.009392246               0.001209444              -0.001187969               0.003526707               0.002338738               0.000000000               0.000000000               0.000000000               0.000000000              -0.000278898               0.008644195               0.001201495              -0.001185109               0.003276406               0.002091297               0.000000000               0.000000000               0.000000000               0.000000000              -0.000444519               0.008000820               0.001160557              -0.001166795               0.003055845               0.001889050               0.000000000               0.000000000               0.000000000               0.000000000              -0.000542417               0.007415612               0.001098491              -0.001130355               0.002848631               0.001718276               0.000000000               0.000000000               0.000000000               0.000000000              -0.000584614               0.006861917               0.001024804              -0.001076967               0.002646272               0.001569304               0.000000000               0.000000000               0.000000000               0.000000000              -0.000577301               0.006333888               0.000949665              -0.001008222               0.002447349               0.001439127               0.000000000               0.000000000               0.000000000               0.000000000              -0.000528759               0.005828560               0.000864303              -0.000926852               0.002251785               0.001324932               0.000000000               0.000000000               0.000000000               0.000000000              -0.000446156               0.005346350               0.000760513              -0.000835600               0.002060632               0.001225032               0.000000000               0.000000000               0.000000000               0.000000000              -0.000337241               0.004892080               0.000631285              -0.000737974               0.001876668               0.001138695               0.000000000               0.000000000               0.000000000               0.000000000              -0.000220078               0.004477000               0.000462453              -0.000642153               0.001706369               0.001064217               0.000000000               0.000000000               0.000000000               0.000000000              -0.000110081               0.004119824               0.000248964              -0.000556257               0.001558680               0.001002423               0.000000000               0.000000000               0.000000000               0.000000000              -0.000079652               0.003908602               0.000143420              -0.000518443               0.001475669               0.000957225               0.000000000               0.000000000               0.000000000               0.000000000               0.002666723               0.017471880              -0.004509616              -0.001183964               0.006218556               0.005034591               0.000000000               0.000000000               0.000000000               0.000000000               0.001116236               0.014553689              -0.002181111              -0.001400620               0.005318054               0.003917434               0.000000000               0.000000000               0.000000000               0.000000000               0.000190394               0.012619034               0.000029415              -0.001505978               0.004708295               0.003202317               0.000000000               0.000000000               0.000000000               0.000000000              -0.000414649               0.011283292               0.000802743              -0.001565901               0.004283027               0.002717126               0.000000000               0.000000000               0.000000000               0.000000000              -0.000785270               0.010258794               0.001052183              -0.001576822               0.003945171               0.002368349               0.000000000               0.000000000               0.000000000               0.000000000              -0.000996654               0.009428133               0.001110526              -0.001552258               0.003660099               0.002107840               0.000000000               0.000000000               0.000000000               0.000000000              -0.001098980               0.008713914               0.001098757              -0.001501353               0.003405060               0.001903707               0.000000000               0.000000000               0.000000000               0.000000000              -0.001126215               0.008074898               0.001058295              -0.001431690               0.003168836               0.001737146               0.000000000               0.000000000               0.000000000               0.000000000              -0.001091917               0.007478738               0.000996563              -0.001344308               0.002940990               0.001596682               0.000000000               0.000000000               0.000000000               0.000000000              -0.001007474               0.006916397               0.000921426              -0.001242349               0.002719559               0.001477210               0.000000000               0.000000000               0.000000000               0.000000000              -0.000885015               0.006389441               0.000843847              -0.001130558               0.002506645               0.001376087               0.000000000               0.000000000               0.000000000               0.000000000              -0.000736693               0.005901067               0.000754662              -0.001013891               0.002304966               0.001291075               0.000000000               0.000000000               0.000000000               0.000000000              -0.000572192               0.005459184               0.000644339              -0.000896968               0.002118699               0.001221731               0.000000000               0.000000000               0.000000000               0.000000000              -0.000403121               0.005070170               0.000512190              -0.000784940               0.001951686               0.001166747               0.000000000               0.000000000               0.000000000               0.000000000              -0.000246960               0.004747062               0.000358505              -0.000685991               0.001811002               0.001125011               0.000000000               0.000000000               0.000000000               0.000000000              -0.000114993               0.004514464               0.000185657              -0.000607429               0.001707283               0.001099854               0.000000000               0.000000000               0.000000000               0.000000000              -0.000067076               0.004404447               0.000102460              -0.000575708               0.001660037               0.001084329               0.000000000               0.000000000               0.000000000               0.000000000               0.002374991               0.014561500              -0.004492210              -0.000929567               0.005163639               0.004234072               0.000000000               0.000000000               0.000000000               0.000000000               0.000428045               0.012800309              -0.002254448              -0.001439520               0.004746566               0.003307047               0.000000000               0.000000000               0.000000000               0.000000000              -0.000931252               0.011873874              -0.000160025              -0.001833449               0.004569068               0.002735619               0.000000000               0.000000000               0.000000000               0.000000000              -0.001525153               0.010933509               0.000524472              -0.001938616               0.004290672               0.002352056               0.000000000               0.000000000               0.000000000               0.000000000              -0.001756814               0.010077853               0.000737901              -0.001918532               0.003998762               0.002080229               0.000000000               0.000000000               0.000000000               0.000000000              -0.001810427               0.009314275               0.000791453              -0.001843190               0.003719124               0.001875934               0.000000000               0.000000000               0.000000000               0.000000000              -0.001756703               0.008621774               0.000793524              -0.001736481               0.003452723               0.001716242               0.000000000               0.000000000               0.000000000               0.000000000              -0.001632343               0.007985753               0.000770773              -0.001610344               0.003198672               0.001588328               0.000000000               0.000000000               0.000000000               0.000000000              -0.001467011               0.007384474               0.000722900              -0.001473185               0.002952528               0.001479344               0.000000000               0.000000000               0.000000000               0.000000000              -0.001271186               0.006824153               0.000661563              -0.001329711               0.002717932               0.001388221               0.000000000               0.000000000               0.000000000               0.000000000              -0.001055353               0.006314790               0.000595565              -0.001185103               0.002499943               0.001314840               0.000000000               0.000000000               0.000000000               0.000000000              -0.000832032               0.005860834               0.000520046              -0.001044614               0.002301796               0.001257183               0.000000000               0.000000000               0.000000000               0.000000000              -0.000609557               0.005471715               0.000428689              -0.000912546               0.002128069               0.001215523               0.000000000               0.000000000               0.000000000               0.000000000              -0.000407357               0.005153045               0.000320712              -0.000796888               0.001983294               0.001186406               0.000000000               0.000000000               0.000000000               0.000000000              -0.000238799               0.004910686               0.000208836              -0.000703384               0.001871340               0.001167956               0.000000000               0.000000000               0.000000000               0.000000000              -0.000104967               0.004758247               0.000102909              -0.000634142               0.001797447               0.001163305               0.000000000               0.000000000               0.000000000               0.000000000              -0.000054310               0.004698025               0.000055569              -0.000607618               0.001768532               0.001160914               0.000000000               0.000000000               0.000000000               0.000000000               0.001712985               0.011681266              -0.004065407              -0.000817790               0.004166312               0.003348522               0.000000000               0.000000000               0.000000000               0.000000000              -0.000407708               0.011086065              -0.002205174              -0.001538646               0.004208200               0.002669553               0.000000000               0.000000000               0.000000000               0.000000000              -0.002002371               0.011087593              -0.000465427              -0.002136833               0.004408105               0.002271272               0.000000000               0.000000000               0.000000000               0.000000000              -0.002466039               0.010470876               0.000087759              -0.002233619               0.004234797               0.002001178               0.000000000               0.000000000               0.000000000               0.000000000              -0.002505331               0.009747665               0.000275917              -0.002157952               0.003968506               0.001810555               0.000000000               0.000000000               0.000000000               0.000000000              -0.002374721               0.009037506               0.000347676              -0.002020204               0.003685873               0.001665669               0.000000000               0.000000000               0.000000000               0.000000000              -0.002162739               0.008363882               0.000382079              -0.001856508               0.003406769               0.001550261               0.000000000               0.000000000               0.000000000               0.000000000              -0.001905990               0.007730930               0.000392497              -0.001681108               0.003137320               0.001456212               0.000000000               0.000000000               0.000000000               0.000000000              -0.001623079               0.007142936               0.000372964              -0.001501518               0.002881461               0.001379943               0.000000000               0.000000000               0.000000000               0.000000000              -0.001332462               0.006607843               0.000341941              -0.001325650               0.002644476               0.001318825               0.000000000               0.000000000               0.000000000               0.000000000              -0.001045392               0.006139420               0.000308658              -0.001159447               0.002432935               0.001273488               0.000000000               0.000000000               0.000000000               0.000000000              -0.000774999               0.005741386               0.000266996              -0.001008295               0.002249875               0.001241579               0.000000000               0.000000000               0.000000000               0.000000000              -0.000531270               0.005415710               0.000213644              -0.000876188               0.002097281               0.001221093               0.000000000               0.000000000               0.000000000               0.000000000              -0.000329944               0.005167394               0.000148049              -0.000769651               0.001978998               0.001209346               0.000000000               0.000000000               0.000000000               0.000000000              -0.000177519               0.004998823               0.000083666              -0.000691421               0.001896731               0.001205310               0.000000000               0.000000000               0.000000000               0.000000000              -0.000071308               0.004904269               0.000036257              -0.000639772               0.001847997               0.001208225               0.000000000               0.000000000               0.000000000               0.000000000              -0.000033364               0.004872027               0.000019171              -0.000621513               0.001831164               0.001209651               0.000000000               0.000000000               0.000000000               0.000000000               0.000721394               0.009009734              -0.003346444              -0.000855695               0.003288445               0.002432751               0.000000000               0.000000000               0.000000000               0.000000000              -0.001338372               0.009506901              -0.002086527              -0.001690249               0.003732351               0.002042102               0.000000000               0.000000000               0.000000000               0.000000000              -0.002919543               0.010261887              -0.000870749              -0.002377559               0.004213114               0.001835556               0.000000000               0.000000000               0.000000000               0.000000000              -0.003149105               0.009890687              -0.000437074              -0.002417244               0.004102611               0.001685366               0.000000000               0.000000000               0.000000000               0.000000000              -0.002969850               0.009278171              -0.000238354              -0.002273459               0.003850512               0.001577053               0.000000000               0.000000000               0.000000000               0.000000000              -0.002665305               0.008622078              -0.000127370              -0.002077244               0.003566412               0.001489168               0.000000000               0.000000000               0.000000000               0.000000000              -0.002314433               0.007977599              -0.000050197              -0.001865108               0.003280876               0.001415768               0.000000000               0.000000000               0.000000000               0.000000000              -0.001945430               0.007368572               0.000005723              -0.001650604               0.003006367               0.001355764               0.000000000               0.000000000               0.000000000               0.000000000              -0.001565709               0.006811233               0.000033329              -0.001438541               0.002749902               0.001311361               0.000000000               0.000000000               0.000000000               0.000000000              -0.001198356               0.006323264               0.000048494              -0.001239788               0.002520996               0.001281208               0.000000000               0.000000000               0.000000000               0.000000000              -0.000864893               0.005911665               0.000061865              -0.001063290               0.002324966               0.001261675               0.000000000               0.000000000               0.000000000               0.000000000              -0.000580838               0.005574466               0.000063673              -0.000914620               0.002163010               0.001248390               0.000000000               0.000000000               0.000000000               0.000000000              -0.000355265               0.005312225               0.000051951              -0.000797250               0.002036474               0.001239224               0.000000000               0.000000000               0.000000000               0.000000000              -0.000190468               0.005128271               0.000032019              -0.000712457               0.001946893               0.001234435               0.000000000               0.000000000               0.000000000               0.000000000              -0.000082200               0.005021590               0.000011031              -0.000658522               0.001893354               0.001234832               0.000000000               0.000000000               0.000000000               0.000000000              -0.000024550               0.004973353               0.000000617              -0.000630874               0.001868059               0.001237185               0.000000000               0.000000000               0.000000000               0.000000000              -0.000010782               0.004959298               0.000000155              -0.000623954               0.001861067               0.001237114               0.000000000               0.000000000               0.000000000               0.000000000              -0.000461993               0.006746763              -0.002455978              -0.001016592               0.002587762               0.001571170               0.000000000               0.000000000               0.000000000               0.000000000              -0.002248588               0.008090596              -0.001946928              -0.001854541               0.003315018               0.001460477               0.000000000               0.000000000               0.000000000               0.000000000              -0.003632692               0.009432697              -0.001350261              -0.002541341               0.003991314               0.001449974               0.000000000               0.000000000               0.000000000               0.000000000              -0.003610934               0.009320458              -0.000991969              -0.002519151               0.003946505               0.001427354               0.000000000               0.000000000               0.000000000               0.000000000              -0.003249775               0.008844997              -0.000758318              -0.002324284               0.003723064               0.001398780               0.000000000               0.000000000               0.000000000               0.000000000              -0.002807676               0.008269872              -0.000595148              -0.002086608               0.003452132               0.001365525               0.000000000               0.000000000               0.000000000               0.000000000              -0.002348184               0.007686724              -0.000469415              -0.001841405               0.003176017               0.001334612               0.000000000               0.000000000               0.000000000               0.000000000              -0.001889132               0.007127625              -0.000366400              -0.001599374               0.002908976               0.001309602               0.000000000               0.000000000               0.000000000               0.000000000              -0.001437655               0.006613322              -0.000285418              -0.001365783               0.002659680               0.001293897               0.000000000               0.000000000               0.000000000               0.000000000              -0.001014259               0.006171354              -0.000214820              -0.001151763               0.002441019               0.001289255               0.000000000               0.000000000               0.000000000               0.000000000              -0.000652279               0.005802203              -0.000149919              -0.000969878               0.002257341               0.001287463               0.000000000               0.000000000               0.000000000               0.000000000              -0.000370348               0.005497904              -0.000098568              -0.000826116               0.002107988               0.001281872               0.000000000               0.000000000               0.000000000               0.000000000              -0.000174314               0.005263592              -0.000061567              -0.000723315               0.001995618               0.001272303               0.000000000               0.000000000               0.000000000               0.000000000              -0.000050758               0.005108739              -0.000035421              -0.000657625               0.001922104               0.001264479               0.000000000               0.000000000               0.000000000               0.000000000               0.000011523               0.005026273              -0.000016920              -0.000623961               0.001883395               0.001259433               0.000000000               0.000000000               0.000000000               0.000000000               0.000025446               0.004996168              -0.000005377              -0.000614977               0.001870365               0.001255388               0.000000000               0.000000000               0.000000000               0.000000000               0.000020013               0.004989068              -0.000000232              -0.000616127               0.001868382               0.001252255               0.000000000               0.000000000               0.000000000               0.000000000              -0.001855471               0.004644334              -0.001509574              -0.001276341               0.001973542               0.000697202               0.000000000               0.000000000               0.000000000               0.000000000              -0.003012155               0.006457779              -0.001788873              -0.001936776               0.002798163               0.000861387               0.000000000               0.000000000               0.000000000               0.000000000              -0.004054164               0.008222310              -0.001851729              -0.002548094               0.003590107               0.001042013               0.000000000               0.000000000               0.000000000               0.000000000              -0.003893355               0.008494552              -0.001580613              -0.002521821               0.003672096               0.001150275               0.000000000               0.000000000               0.000000000               0.000000000              -0.003454470               0.008284951              -0.001315624              -0.002331039               0.003538636               0.001207596               0.000000000               0.000000000               0.000000000               0.000000000              -0.002962359               0.007903901              -0.001097458              -0.002098867               0.003334230               0.001235362               0.000000000               0.000000000               0.000000000               0.000000000              -0.002467647               0.007468926              -0.000924304              -0.001858979               0.003109277               0.001250298               0.000000000               0.000000000               0.000000000               0.000000000              -0.001984017               0.007033784              -0.000779234              -0.001623226               0.002885646               0.001262421               0.000000000               0.000000000               0.000000000               0.000000000              -0.001513432               0.006621159              -0.000649895              -0.001395178               0.002672090               0.001276912               0.000000000               0.000000000               0.000000000               0.000000000              -0.001071455               0.006242583              -0.000526451              -0.001182116               0.002474879               0.001292763               0.000000000               0.000000000               0.000000000               0.000000000              -0.000682607               0.005909336              -0.000409564              -0.000994642               0.002301306               0.001306664               0.000000000               0.000000000               0.000000000               0.000000000              -0.000370965               0.005619086              -0.000301079              -0.000841496               0.002153508               0.001312013               0.000000000               0.000000000               0.000000000               0.000000000              -0.000148988               0.005378402              -0.000204164              -0.000728169               0.002035506               0.001307337               0.000000000               0.000000000               0.000000000               0.000000000              -0.000010591               0.005197243              -0.000125469              -0.000653625               0.001950272               0.001296647               0.000000000               0.000000000               0.000000000               0.000000000               0.000060912               0.005079730              -0.000062083              -0.000612123               0.001897267               0.001285145               0.000000000               0.000000000               0.000000000               0.000000000               0.000079041               0.005021420              -0.000017954              -0.000598036               0.001873135               0.001275100               0.000000000               0.000000000               0.000000000               0.000000000               0.000072003               0.005001816              -0.000001571              -0.000598224               0.001866663               0.001268439               0.000000000               0.000000000               0.000000000               0.000000000              -0.003643229               0.002742434              -0.000579094              -0.001709012               0.001483805              -0.000225207               0.000000000               0.000000000               0.000000000               0.000000000              -0.003875188               0.004813623              -0.001556933              -0.002054894               0.002289489               0.000234595               0.000000000               0.000000000               0.000000000               0.000000000              -0.004382388               0.006799310              -0.002248419              -0.002493304               0.003097514               0.000604211               0.000000000               0.000000000               0.000000000               0.000000000              -0.004092800               0.007440762              -0.002139949              -0.002464890               0.003301858               0.000836969               0.000000000               0.000000000               0.000000000               0.000000000              -0.003606902               0.007543307              -0.001884193              -0.002295496               0.003279576               0.000984079               0.000000000               0.000000000               0.000000000               0.000000000              -0.003089215               0.007405180              -0.001634686              -0.002084098               0.003163068               0.001078969               0.000000000               0.000000000               0.000000000               0.000000000              -0.002578739               0.007163302              -0.001420563              -0.001862436               0.003008555               0.001146119               0.000000000               0.000000000               0.000000000               0.000000000              -0.002085148               0.006883235              -0.001237098              -0.001642331               0.002841832               0.001199501               0.000000000               0.000000000               0.000000000               0.000000000              -0.001613711               0.006591190              -0.001070758              -0.001429037               0.002673387               0.001244350               0.000000000               0.000000000               0.000000000               0.000000000              -0.001163618               0.006295947              -0.000909891              -0.001223347               0.002506410               0.001283063               0.000000000               0.000000000               0.000000000               0.000000000              -0.000747322               0.006013933              -0.000751637              -0.001031985               0.002348619               0.001316634               0.000000000               0.000000000               0.000000000               0.000000000              -0.000390434               0.005751374              -0.000591497              -0.000865333               0.002205549               0.001340217               0.000000000               0.000000000               0.000000000               0.000000000              -0.000111930               0.005515687              -0.000436094              -0.000731433               0.002082355               0.001350922               0.000000000               0.000000000               0.000000000               0.000000000               0.000077830               0.005314131              -0.000295813              -0.000635079               0.001983052               0.001347973               0.000000000               0.000000000               0.000000000               0.000000000               0.000180215               0.005154527              -0.000170128              -0.000576734               0.001910403               0.001333669               0.000000000               0.000000000               0.000000000               0.000000000               0.000211312               0.005053435              -0.000068115              -0.000552436               0.001868607               0.001316171               0.000000000               0.000000000               0.000000000               0.000000000               0.000201238               0.005014181              -0.000023271              -0.000551307               0.001855146               0.001303839               0.000000000               0.000000000               0.000000000               0.000000000              -0.005692249               0.001189037               0.000247358              -0.002283220               0.001157411              -0.001125809               0.000000000               0.000000000               0.000000000               0.000000000              -0.004886716               0.003255411              -0.001234175              -0.002239441               0.001831605              -0.000407836               0.000000000               0.000000000               0.000000000               0.000000000              -0.004653114               0.005184386              -0.002421141              -0.002392961               0.002525764               0.000132803               0.000000000               0.000000000               0.000000000               0.000000000              -0.004151985               0.006087187              -0.002519029              -0.002317888               0.002801670               0.000483782               0.000000000               0.000000000               0.000000000               0.000000000              -0.003600958               0.006474151              -0.002331270              -0.002159623               0.002877902               0.000718279               0.000000000               0.000000000               0.000000000               0.000000000              -0.003059118               0.006591088              -0.002089703              -0.001971051               0.002854024               0.000882973               0.000000000               0.000000000               0.000000000               0.000000000              -0.002546108               0.006567609              -0.001859711              -0.001775738               0.002781093               0.001005356               0.000000000               0.000000000               0.000000000               0.000000000              -0.002052095               0.006473536              -0.001653701              -0.001578724               0.002684065               0.001105340               0.000000000               0.000000000               0.000000000               0.000000000              -0.001581954               0.006333171              -0.001464503              -0.001384876               0.002572661               0.001187785               0.000000000               0.000000000               0.000000000               0.000000000              -0.001132288               0.006156620              -0.001284756              -0.001194183               0.002450247               0.001256064               0.000000000               0.000000000               0.000000000               0.000000000              -0.000706675               0.005958691              -0.001104307              -0.001009837               0.002322823               0.001312985               0.000000000               0.000000000               0.000000000               0.000000000              -0.000318832               0.005752759              -0.000916184              -0.000838655               0.002197119               0.001358464               0.000000000               0.000000000               0.000000000               0.000000000               0.000015000               0.005550940              -0.000723036              -0.000688241               0.002079708               0.001391467               0.000000000               0.000000000               0.000000000               0.000000000               0.000270398               0.005359155              -0.000529151              -0.000568494               0.001975865               0.001407371               0.000000000               0.000000000               0.000000000               0.000000000               0.000430042               0.005193964              -0.000337020              -0.000487979               0.001893964               0.001405985               0.000000000               0.000000000               0.000000000               0.000000000               0.000493519               0.005077821              -0.000158550              -0.000449657               0.001842476               0.001392819               0.000000000               0.000000000               0.000000000               0.000000000               0.000486387               0.005024640              -0.000070614              -0.000445684               0.001823425               0.001377741               0.000000000               0.000000000               0.000000000               0.000000000              -0.007856479               0.000069614               0.000850219              -0.002954879               0.001008157              -0.001946721               0.000000000               0.000000000               0.000000000               0.000000000              -0.005988289               0.001882342              -0.000870679              -0.002480898               0.001454403              -0.001026495               0.000000000               0.000000000               0.000000000               0.000000000              -0.004895042               0.003530358              -0.002341465              -0.002276931               0.001935749              -0.000341182               0.000000000               0.000000000               0.000000000               0.000000000              -0.004096003               0.004552136              -0.002625513              -0.002105014               0.002219033               0.000114020               0.000000000               0.000000000               0.000000000               0.000000000              -0.003445126               0.005159684              -0.002540205              -0.001936879               0.002365503               0.000428624               0.000000000               0.000000000               0.000000000               0.000000000              -0.002875515               0.005514150              -0.002346067              -0.001767583               0.002427225               0.000659642               0.000000000               0.000000000               0.000000000               0.000000000              -0.002358786               0.005714274              -0.002131770              -0.001598826               0.002437680               0.000838854               0.000000000               0.000000000               0.000000000               0.000000000              -0.001879806               0.005809680              -0.001927159              -0.001431134               0.002413585               0.000982450               0.000000000               0.000000000               0.000000000               0.000000000              -0.001420641               0.005829253              -0.001737167              -0.001261395               0.002363529               0.001102135               0.000000000               0.000000000               0.000000000               0.000000000              -0.000975618               0.005791904              -0.001557147              -0.001089843               0.002293896               0.001204053               0.000000000               0.000000000               0.000000000               0.000000000              -0.000542444               0.005713299              -0.001375323              -0.000917577               0.002210273               0.001292695               0.000000000               0.000000000               0.000000000               0.000000000              -0.000129364               0.005600317              -0.001186229              -0.000748550               0.002116270               0.001367720               0.000000000               0.000000000               0.000000000               0.000000000               0.000254575               0.005465886              -0.000984763              -0.000587769               0.002017867               0.001430098               0.000000000               0.000000000               0.000000000               0.000000000               0.000587637               0.005328412              -0.000763299              -0.000445687               0.001924682               0.001478995               0.000000000               0.000000000               0.000000000               0.000000000               0.000843160               0.005202384              -0.000521195              -0.000334112               0.001845481               0.001511369               0.000000000               0.000000000               0.000000000               0.000000000               0.000992807               0.005094950              -0.000264184              -0.000264565               0.001786488               0.001521923               0.000000000               0.000000000               0.000000000               0.000000000               0.001031009               0.005040571              -0.000131983              -0.000243442               0.001761321               0.001517879               0.000000000               0.000000000               0.000000000               0.000000000              -0.009935090              -0.000632852               0.001126506              -0.003646550               0.001004559              -0.002641991               0.000000000               0.000000000               0.000000000               0.000000000              -0.007081990               0.000776640              -0.000530700              -0.002752823               0.001176479              -0.001576344               0.000000000               0.000000000               0.000000000               0.000000000              -0.005115097               0.001997542              -0.002011500              -0.002167851               0.001388454              -0.000779397               0.000000000               0.000000000               0.000000000               0.000000000              -0.003970139               0.003013915              -0.002400069              -0.001865538               0.001626472              -0.000239066               0.000000000               0.000000000               0.000000000               0.000000000              -0.003184228               0.003769476              -0.002407443              -0.001665267               0.001811567               0.000146300               0.000000000               0.000000000               0.000000000               0.000000000              -0.002572301               0.004309102              -0.002282926              -0.001503248               0.001937435               0.000434187               0.000000000               0.000000000               0.000000000               0.000000000              -0.002050209               0.004689769              -0.002115406              -0.001355047               0.002014922               0.000659875               0.000000000               0.000000000               0.000000000               0.000000000              -0.001582211               0.004955365              -0.001940582              -0.001212748               0.002056020               0.000843273               0.000000000               0.000000000               0.000000000               0.000000000              -0.001141064               0.005134923              -0.001773908              -0.001069762               0.002068211               0.000998448               0.000000000               0.000000000               0.000000000               0.000000000              -0.000707684               0.005249073              -0.001616352              -0.000921514               0.002056844               0.001135330               0.000000000               0.000000000               0.000000000               0.000000000              -0.000270496               0.005309622              -0.001458755              -0.000765138               0.002024902               0.001259764               0.000000000               0.000000000               0.000000000               0.000000000               0.000165501               0.005315556              -0.001292931              -0.000602381               0.001972628               0.001370247               0.000000000               0.000000000               0.000000000               0.000000000               0.000593026               0.005283981              -0.001110666              -0.000438113               0.001907347               0.001469234               0.000000000               0.000000000               0.000000000               0.000000000               0.001005535               0.005233095              -0.000898929              -0.000277061               0.001836701               0.001559640               0.000000000               0.000000000               0.000000000               0.000000000               0.001386674               0.005165865              -0.000647635              -0.000125730               0.001763848               0.001638117               0.000000000               0.000000000               0.000000000               0.000000000               0.001703247               0.005086016              -0.000345637               0.000002965               0.001694334               0.001697298               0.000000000               0.000000000               0.000000000               0.000000000               0.001872493               0.005054613              -0.000187533               0.000070357               0.001661402               0.001731759               0.000000000               0.000000000               0.000000000               0.000000000              -0.011682306              -0.001008729               0.001030906              -0.004254771               0.001082006              -0.003172764               0.000000000               0.000000000               0.000000000               0.000000000              -0.008030120              -0.000020884              -0.000269382              -0.003008682               0.000995926              -0.002012756               0.000000000               0.000000000               0.000000000               0.000000000              -0.005307129               0.000757892              -0.001465703              -0.002084908               0.000947593              -0.001137315               0.000000000               0.000000000               0.000000000               0.000000000              -0.003830002               0.001692392              -0.001835143              -0.001647797               0.001113388              -0.000534409               0.000000000               0.000000000               0.000000000               0.000000000              -0.002898632               0.002513761              -0.001893477              -0.001401205               0.001304979              -0.000096226               0.000000000               0.000000000               0.000000000               0.000000000              -0.002233141               0.003176157              -0.001831525              -0.001234445               0.001470189               0.000235744               0.000000000               0.000000000               0.000000000               0.000000000              -0.001700205               0.003688910              -0.001724206              -0.001098689               0.001595853               0.000497165               0.000000000               0.000000000               0.000000000               0.000000000              -0.001234135               0.004084976              -0.001602800              -0.000973421               0.001686118               0.000712697               0.000000000               0.000000000               0.000000000               0.000000000              -0.000801564               0.004398659              -0.001483270              -0.000850418               0.001749677               0.000899259               0.000000000               0.000000000               0.000000000               0.000000000              -0.000376606               0.004649227              -0.001371477              -0.000722380               0.001790520               0.001068140               0.000000000               0.000000000               0.000000000               0.000000000               0.000058278               0.004837669              -0.001258651              -0.000582853               0.001806824               0.001223971               0.000000000               0.000000000               0.000000000               0.000000000               0.000506858               0.004963019              -0.001133361              -0.000430305               0.001797758               0.001367453               0.000000000               0.000000000               0.000000000               0.000000000               0.000976186               0.005047571              -0.000991011              -0.000264877               0.001770799               0.001505922               0.000000000               0.000000000               0.000000000               0.000000000               0.001472426               0.005095551              -0.000825510              -0.000084784               0.001726761               0.001641977               0.000000000               0.000000000               0.000000000               0.000000000               0.001992732               0.005096480              -0.000619523               0.000110213               0.001662072               0.001772285               0.000000000               0.000000000               0.000000000               0.000000000               0.002529902               0.005058942              -0.000345014               0.000316342               0.001580850               0.001897192               0.000000000               0.000000000               0.000000000               0.000000000               0.002902197               0.005069291              -0.000200966               0.000454658               0.001538194               0.001992852               0.000000000               0.000000000               0.000000000               0.000000000              -0.012852022              -0.001169672               0.000608862              -0.004673296               0.001167867              -0.003505430               0.000000000               0.000000000               0.000000000               0.000000000              -0.008681797              -0.000496768              -0.000104449              -0.003193576               0.000898930              -0.002294646               0.000000000               0.000000000               0.000000000               0.000000000              -0.005447542              -0.000049806              -0.000770830              -0.002036601               0.000662260              -0.001374341               0.000000000               0.000000000               0.000000000               0.000000000              -0.003723505               0.000798447              -0.000994528              -0.001496119               0.000764850              -0.000731269               0.000000000               0.000000000               0.000000000               0.000000000              -0.002677523               0.001636459              -0.001044869              -0.001208626               0.000948355              -0.000260271               0.000000000               0.000000000               0.000000000               0.000000000              -0.001965710               0.002357580              -0.001023166              -0.001031836               0.001129797               0.000097961               0.000000000               0.000000000               0.000000000               0.000000000              -0.001420760               0.002951284              -0.000973455              -0.000901694               0.001284316               0.000382622               0.000000000               0.000000000               0.000000000               0.000000000              -0.000953974               0.003436436              -0.000914020              -0.000787293               0.001407898               0.000620605               0.000000000               0.000000000               0.000000000               0.000000000              -0.000520235               0.003836246              -0.000853469              -0.000674618               0.001503608               0.000828991               0.000000000               0.000000000               0.000000000               0.000000000              -0.000095156               0.004170330              -0.000798046              -0.000556974               0.001575754               0.001018780               0.000000000               0.000000000               0.000000000               0.000000000               0.000337785               0.004445055              -0.000740230              -0.000428962               0.001624657               0.001195696               0.000000000               0.000000000               0.000000000               0.000000000               0.000796441               0.004658173              -0.000671538              -0.000283606               0.001647244               0.001363638               0.000000000               0.000000000               0.000000000               0.000000000               0.001302564               0.004824090              -0.000593395              -0.000114550               0.001646197               0.001531647               0.000000000               0.000000000               0.000000000               0.000000000               0.001869655               0.004944699              -0.000501602               0.000083032               0.001620539               0.001703571               0.000000000               0.000000000               0.000000000               0.000000000               0.002506037               0.005009217              -0.000385014               0.000313609               0.001565186               0.001878795               0.000000000               0.000000000               0.000000000               0.000000000               0.003233783               0.005021161              -0.000220260               0.000585018               0.001478698               0.002063715               0.000000000               0.000000000               0.000000000               0.000000000               0.003793303               0.005074859              -0.000133340               0.000788123               0.001428895               0.002217018               0.000000000               0.000000000               0.000000000               0.000000000               0.000000000               0.000000000               0.000000000               0.000000000               0.000000000               0.000000000               0.000000000               0.000000000               0.000000000               0.000000000               0.000000000               0.000000000               0.000000000               0.000000000               0.000000000               0.000000000               0.000000000               0.000000000               0.000000000               0.000000000               0.000000000               0.000000000               0.000000000               0.000000000               0.000000000               0.000000000               0.000000000               0.000000000               0.000000000               0.000000000               0.000000000               0.000000000               0.000000000               0.000000000               0.000000000               0.000000000               0.000000000               0.000000000               0.000000000               0.000000000               0.000000000               0.000000000               0.000000000               0.000000000               0.000000000               0.000000000               0.000000000               0.000000000               0.000000000               0.000000000               0.000000000               0.000000000               0.000000000               0.000000000               0.000000000               0.000000000               0.000000000               0.000000000               0.000000000               0.000000000               0.000000000               0.000000000               0.000000000               0.000000000               0.000000000               0.000000000               0.000000000               0.000000000               0.000000000               0.000000000               0.000000000               0.000000000               0.000000000               0.000000000               0.000000000               0.000000000               0.000000000               0.000000000               0.000000000               0.000000000               0.000000000               0.000000000               0.000000000               0.000000000               0.000000000               0.000000000               0.000000000               0.000000000               0.000000000               0.000000000               0.000000000               0.000000000               0.000000000               0.000000000               0.000000000               0.000000000               0.000000000               0.000000000               0.000000000               0.000000000               0.000000000               0.000000000               0.000000000               0.000000000               0.000000000               0.000000000               0.000000000               0.000000000               0.000000000               0.000000000               0.000000000               0.000000000               0.000000000               0.000000000               0.000000000               0.000000000               0.000000000               0.000000000               0.000000000               0.000000000               0.000000000               0.000000000               0.000000000               0.000000000               0.000000000               0.000000000               0.000000000               0.000000000               0.000000000               0.000000000               0.000000000               0.000000000               0.000000000               0.000000000               0.000000000               0.000000000               0.000000000               0.000000000               0.000000000               0.000000000               0.000000000               0.000000000               0.000000000               0.000000000               0.000000000               0.000000000               0.000000000               0.000000000               0.000000000               0.000000000               0.000000000               0.000000000               0.000000000               0.000000000               0.000000000               0.000000000               0.000000000               0.000000000               0.000000000               0.000000000               0.000000000               0.000000000               0.000000000               0.000000000               0.000000000               0.000000000               0.000000000               0.000000000               0.000000000               0.000000000               0.000000000               0.000000000               0.000000000               0.000000000               0.000000000               0.000000000               0.000000000               0.000000000               0.000000000               0.000000000               0.000000000               0.000000000               0.000000000               0.000000000               0.000000000               0.000000000               0.000000000               0.000000000               0.000000000               0.000000000               0.000000000               0.000000000               0.000000000               0.000000000               0.000000000               0.000000000               0.000000000               0.000000000               0.000000000               0.000000000               0.000000000               0.000000000               0.000000000               0.000000000               0.000000000               0.000000000               0.000000000               0.000000000               0.000000000               0.000000000               0.000000000               0.000000000               0.000000000               0.000000000               0.000000000               0.000000000               0.000000000               0.000000000               0.000000000               0.000000000               0.000000000               0.000000000               0.000000000               0.000000000               0.000000000               0.000000000               0.000000000               0.000000000               0.000000000               0.000000000               0.000000000               0.000000000               0.000000000               0.000000000               0.000000000               0.000000000               0.000000000               0.000000000               0.000000000               0.000000000               0.000000000               0.000000000               0.000000000               0.000000000               0.000000000               0.000000000               0.000000000               0.000000000               0.000000000               0.000000000               0.000000000               0.000000000               0.000000000               0.000000000               0.000000000               0.000000000               0.000000000               0.000000000               0.000000000               0.000000000               0.000000000               0.000000000               0.000000000               0.000000000               0.000000000               0.000000000               0.000000000               0.000000000               0.000000000               0.000000000               0.000000000               0.000000000               0.000000000               0.000000000               0.000000000               0.000000000               0.000000000               0.000000000               0.000000000               0.000000000               0.000000000               0.000000000               0.000000000               0.000000000               0.000000000               0.000000000               0.000000000               0.000000000               0.000000000               0.000000000               0.000000000               0.000000000               0.000000000               0.000000000               0.000000000               0.000000000               0.000000000               0.000000000               0.000000000               0.000000000               0.000000000               0.000000000               0.000000000               0.000000000               0.000000000               0.000000000               0.000000000               0.000000000               0.000000000               0.000000000               0.000000000               0.000000000               0.000000000               0.000000000               0.000000000               0.000000000               0.000000000               0.000000000               0.000000000               0.000000000               0.000000000               0.000000000               0.000000000               0.000000000               0.000000000               0.000000000               0.000000000               0.000000000               0.000000000               0.000000000               0.000000000               0.000000000               0.000000000               0.000000000               0.000000000               0.000000000               0.000000000               0.000000000               0.000000000               0.000000000               0.002323924               0.023839982               0.001643367              -0.002108521               0.008649421               0.006540900               0.000000000               0.000000000               0.000000000               0.000000000               0.002130804               0.018531093               0.000786213              -0.001517332               0.006682747               0.005165415               0.000000000               0.000000000               0.000000000               0.000000000               0.002641177               0.014248646              -0.000060707              -0.000790637               0.005013047               0.004222410               0.000000000               0.000000000               0.000000000               0.000000000               0.002416080               0.011811884              -0.000410277              -0.000570454               0.004127407               0.003556952               0.000000000               0.000000000               0.000000000               0.000000000               0.001996785               0.010251049              -0.000546611              -0.000532586               0.003594511               0.003061925               0.000000000               0.000000000               0.000000000               0.000000000               0.001559354               0.009151885              -0.000591456              -0.000559227               0.003237007               0.002677780               0.000000000               0.000000000               0.000000000               0.000000000               0.001165861               0.008318560              -0.000594626              -0.000602621               0.002973699               0.002371078               0.000000000               0.000000000               0.000000000               0.000000000               0.000821575               0.007643090              -0.000580271              -0.000647294               0.002763436               0.002116142               0.000000000               0.000000000               0.000000000               0.000000000               0.000525558               0.007062315              -0.000556388              -0.000685704               0.002582649               0.001896946               0.000000000               0.000000000               0.000000000               0.000000000               0.000287029               0.006531159              -0.000524210              -0.000708757               0.002413283               0.001704526               0.000000000               0.000000000               0.000000000               0.000000000               0.000101772               0.006020453              -0.000491020              -0.000714390               0.002244928               0.001530537               0.000000000               0.000000000               0.000000000               0.000000000              -0.000036246               0.005510770              -0.000454204              -0.000702437               0.002071051               0.001368614               0.000000000               0.000000000               0.000000000               0.000000000              -0.000124008               0.004985749              -0.000410269              -0.000669720               0.001885140               0.001215420               0.000000000               0.000000000               0.000000000               0.000000000              -0.000162036               0.004430071              -0.000352129              -0.000614521               0.001681516               0.001066995               0.000000000               0.000000000               0.000000000               0.000000000              -0.000151688               0.003826270              -0.000267199              -0.000535165               0.001453799               0.000918634               0.000000000               0.000000000               0.000000000               0.000000000              -0.000090052               0.003157505              -0.000148342              -0.000428457               0.001195310               0.000766853               0.000000000               0.000000000               0.000000000               0.000000000              -0.000101011               0.002652499              -0.000091084              -0.000369441               0.001007304               0.000637864               0.000000000               0.000000000               0.000000000               0.000000000               0.002498206               0.022379227               0.003048774              -0.001860573               0.008079858               0.006219286               0.000000000               0.000000000               0.000000000               0.000000000               0.001953480               0.017605290               0.001454168              -0.001468103               0.006357739               0.004889636               0.000000000               0.000000000               0.000000000               0.000000000               0.002085113               0.013870273              -0.000107490              -0.000951864               0.004940666               0.003988802               0.000000000               0.000000000               0.000000000               0.000000000               0.001725672               0.011712697              -0.000727296              -0.000816958               0.004176513               0.003359554               0.000000000               0.000000000               0.000000000               0.000000000               0.001291136               0.010293512              -0.000959058              -0.000802511               0.003698640               0.002896129               0.000000000               0.000000000               0.000000000               0.000000000               0.000888725               0.009271368              -0.001028291              -0.000825647               0.003365641               0.002539994               0.000000000               0.000000000               0.000000000               0.000000000               0.000545728               0.008477062              -0.001027809              -0.000854983               0.003110653               0.002255670               0.000000000               0.000000000               0.000000000               0.000000000               0.000270982               0.007821884              -0.000998441              -0.000876115               0.002899307               0.002023192               0.000000000               0.000000000               0.000000000               0.000000000               0.000057535               0.007241890              -0.000952710              -0.000883659               0.002708492               0.001824833               0.000000000               0.000000000               0.000000000               0.000000000              -0.000100506               0.006700628              -0.000895063              -0.000875266               0.002525276               0.001650009               0.000000000               0.000000000               0.000000000               0.000000000              -0.000205338               0.006180367              -0.000835389              -0.000849546               0.002343284               0.001493738               0.000000000               0.000000000               0.000000000               0.000000000              -0.000261619               0.005668744              -0.000768786              -0.000806698               0.002158462               0.001351764               0.000000000               0.000000000               0.000000000               0.000000000              -0.000275114               0.005156871              -0.000687782              -0.000747775               0.001968198               0.001220423               0.000000000               0.000000000               0.000000000               0.000000000              -0.000244912               0.004642698              -0.000583125              -0.000672178               0.001771610               0.001099432               0.000000000               0.000000000               0.000000000               0.000000000              -0.000182244               0.004124219              -0.000437491              -0.000583868               0.001569348               0.000985481               0.000000000               0.000000000               0.000000000               0.000000000              -0.000099284               0.003602374              -0.000240763              -0.000487527               0.001363288               0.000875761               0.000000000               0.000000000               0.000000000               0.000000000              -0.000092003               0.003239618              -0.000144398              -0.000439452               0.001226346               0.000786894               0.000000000               0.000000000               0.000000000               0.000000000               0.002665094               0.020171513               0.004030556              -0.001522027               0.007231112               0.005709085               0.000000000               0.000000000               0.000000000               0.000000000               0.001625840               0.016216919               0.001924099              -0.001417422               0.005878059               0.004460637               0.000000000               0.000000000               0.000000000               0.000000000               0.001235295               0.013302839              -0.000109603              -0.001199616               0.004834107               0.003634491               0.000000000               0.000000000               0.000000000               0.000000000               0.000723388               0.011539335              -0.000873526              -0.001171144               0.004236788               0.003065644               0.000000000               0.000000000               0.000000000               0.000000000               0.000292592               0.010317381              -0.001139553              -0.001179948               0.003832408               0.002652460               0.000000000               0.000000000               0.000000000               0.000000000              -0.000037176               0.009392246              -0.001209444              -0.001187969               0.003526707               0.002338738               0.000000000               0.000000000               0.000000000               0.000000000              -0.000278898               0.008644195              -0.001201495              -0.001185109               0.003276406               0.002091297               0.000000000               0.000000000               0.000000000               0.000000000              -0.000444519               0.008000820              -0.001160557              -0.001166795               0.003055845               0.001889050               0.000000000               0.000000000               0.000000000               0.000000000              -0.000542417               0.007415612              -0.001098491              -0.001130355               0.002848631               0.001718276               0.000000000               0.000000000               0.000000000               0.000000000              -0.000584614               0.006861917              -0.001024804              -0.001076967               0.002646272               0.001569304               0.000000000               0.000000000               0.000000000               0.000000000              -0.000577301               0.006333888              -0.000949665              -0.001008222               0.002447349               0.001439127               0.000000000               0.000000000               0.000000000               0.000000000              -0.000528759               0.005828560              -0.000864303              -0.000926852               0.002251785               0.001324932               0.000000000               0.000000000               0.000000000               0.000000000              -0.000446156               0.005346350              -0.000760513              -0.000835600               0.002060632               0.001225032               0.000000000               0.000000000               0.000000000               0.000000000              -0.000337241               0.004892080              -0.000631285              -0.000737974               0.001876668               0.001138695               0.000000000               0.000000000               0.000000000               0.000000000              -0.000220078               0.004477000              -0.000462453              -0.000642153               0.001706369               0.001064217               0.000000000               0.000000000               0.000000000               0.000000000              -0.000110081               0.004119824              -0.000248964              -0.000556257               0.001558680               0.001002423               0.000000000               0.000000000               0.000000000               0.000000000              -0.000079652               0.003908602              -0.000143420              -0.000518443               0.001475669               0.000957225               0.000000000               0.000000000               0.000000000               0.000000000               0.002666723               0.017471880               0.004509616              -0.001183964               0.006218556               0.005034591               0.000000000               0.000000000               0.000000000               0.000000000               0.001116236               0.014553689               0.002181111              -0.001400620               0.005318054               0.003917434               0.000000000               0.000000000               0.000000000               0.000000000               0.000190394               0.012619034              -0.000029415              -0.001505978               0.004708295               0.003202317               0.000000000               0.000000000               0.000000000               0.000000000              -0.000414649               0.011283292              -0.000802743              -0.001565901               0.004283027               0.002717126               0.000000000               0.000000000               0.000000000               0.000000000              -0.000785270               0.010258794              -0.001052183              -0.001576822               0.003945171               0.002368349               0.000000000               0.000000000               0.000000000               0.000000000              -0.000996654               0.009428133              -0.001110526              -0.001552258               0.003660099               0.002107840               0.000000000               0.000000000               0.000000000               0.000000000              -0.001098980               0.008713914              -0.001098757              -0.001501353               0.003405060               0.001903707               0.000000000               0.000000000               0.000000000               0.000000000              -0.001126215               0.008074898              -0.001058295              -0.001431690               0.003168836               0.001737146               0.000000000               0.000000000               0.000000000               0.000000000              -0.001091917               0.007478738              -0.000996563              -0.001344308               0.002940990               0.001596682               0.000000000               0.000000000               0.000000000               0.000000000              -0.001007474               0.006916397              -0.000921426              -0.001242349               0.002719559               0.001477210               0.000000000               0.000000000               0.000000000               0.000000000              -0.000885015               0.006389441              -0.000843847              -0.001130558               0.002506645               0.001376087               0.000000000               0.000000000               0.000000000               0.000000000              -0.000736693               0.005901067              -0.000754662              -0.001013891               0.002304966               0.001291075               0.000000000               0.000000000               0.000000000               0.000000000              -0.000572192               0.005459184              -0.000644339              -0.000896968               0.002118699               0.001221731               0.000000000               0.000000000               0.000000000               0.000000000              -0.000403121               0.005070170              -0.000512190              -0.000784940               0.001951686               0.001166747               0.000000000               0.000000000               0.000000000               0.000000000              -0.000246960               0.004747062              -0.000358505              -0.000685991               0.001811002               0.001125011               0.000000000               0.000000000               0.000000000               0.000000000              -0.000114993               0.004514464              -0.000185657              -0.000607429               0.001707283               0.001099854               0.000000000               0.000000000               0.000000000               0.000000000              -0.000067076               0.004404447              -0.000102460              -0.000575708               0.001660037               0.001084329               0.000000000               0.000000000               0.000000000               0.000000000               0.002374991               0.014561500               0.004492210              -0.000929567               0.005163639               0.004234072               0.000000000               0.000000000               0.000000000               0.000000000               0.000428045               0.012800309               0.002254448              -0.001439520               0.004746566               0.003307047               0.000000000               0.000000000               0.000000000               0.000000000              -0.000931252               0.011873874               0.000160025              -0.001833449               0.004569068               0.002735619               0.000000000               0.000000000               0.000000000               0.000000000              -0.001525153               0.010933509              -0.000524472              -0.001938616               0.004290672               0.002352056               0.000000000               0.000000000               0.000000000               0.000000000              -0.001756814               0.010077853              -0.000737901              -0.001918532               0.003998762               0.002080229               0.000000000               0.000000000               0.000000000               0.000000000              -0.001810427               0.009314275              -0.000791453              -0.001843190               0.003719124               0.001875934               0.000000000               0.000000000               0.000000000               0.000000000              -0.001756703               0.008621774              -0.000793524              -0.001736481               0.003452723               0.001716242               0.000000000               0.000000000               0.000000000               0.000000000              -0.001632343               0.007985753              -0.000770773              -0.001610344               0.003198672               0.001588328               0.000000000               0.000000000               0.000000000               0.000000000              -0.001467011               0.007384474              -0.000722900              -0.001473185               0.002952528               0.001479344               0.000000000               0.000000000               0.000000000               0.000000000              -0.001271186               0.006824153              -0.000661563              -0.001329711               0.002717932               0.001388221               0.000000000               0.000000000               0.000000000               0.000000000              -0.001055353               0.006314790              -0.000595565              -0.001185103               0.002499943               0.001314840               0.000000000               0.000000000               0.000000000               0.000000000              -0.000832032               0.005860834              -0.000520046              -0.001044614               0.002301796               0.001257183               0.000000000               0.000000000               0.000000000               0.000000000              -0.000609557               0.005471715              -0.000428689              -0.000912546               0.002128069               0.001215523               0.000000000               0.000000000               0.000000000               0.000000000              -0.000407357               0.005153045              -0.000320712              -0.000796888               0.001983294               0.001186406               0.000000000               0.000000000               0.000000000               0.000000000              -0.000238799               0.004910686              -0.000208836              -0.000703384               0.001871340               0.001167956               0.000000000               0.000000000               0.000000000               0.000000000              -0.000104967               0.004758247              -0.000102909              -0.000634142               0.001797447               0.001163305               0.000000000               0.000000000               0.000000000               0.000000000              -0.000054310               0.004698025              -0.000055569              -0.000607618               0.001768532               0.001160914               0.000000000               0.000000000               0.000000000               0.000000000               0.001712985               0.011681266               0.004065407              -0.000817790               0.004166312               0.003348522               0.000000000               0.000000000               0.000000000               0.000000000              -0.000407708               0.011086065               0.002205174              -0.001538646               0.004208200               0.002669553               0.000000000               0.000000000               0.000000000               0.000000000              -0.002002371               0.011087593               0.000465427              -0.002136833               0.004408105               0.002271272               0.000000000               0.000000000               0.000000000               0.000000000              -0.002466039               0.010470876              -0.000087759              -0.002233619               0.004234797               0.002001178               0.000000000               0.000000000               0.000000000               0.000000000              -0.002505331               0.009747665              -0.000275917              -0.002157952               0.003968506               0.001810555               0.000000000               0.000000000               0.000000000               0.000000000              -0.002374721               0.009037506              -0.000347676              -0.002020204               0.003685873               0.001665669               0.000000000               0.000000000               0.000000000               0.000000000              -0.002162739               0.008363882              -0.000382079              -0.001856508               0.003406769               0.001550261               0.000000000               0.000000000               0.000000000               0.000000000              -0.001905990               0.007730930              -0.000392497              -0.001681108               0.003137320               0.001456212               0.000000000               0.000000000               0.000000000               0.000000000              -0.001623079               0.007142936              -0.000372964              -0.001501518               0.002881461               0.001379943               0.000000000               0.000000000               0.000000000               0.000000000              -0.001332462               0.006607843              -0.000341941              -0.001325650               0.002644476               0.001318825               0.000000000               0.000000000               0.000000000               0.000000000              -0.001045392               0.006139420              -0.000308658              -0.001159447               0.002432935               0.001273488               0.000000000               0.000000000               0.000000000               0.000000000              -0.000774999               0.005741386              -0.000266996              -0.001008295               0.002249875               0.001241579               0.000000000               0.000000000               0.000000000               0.000000000              -0.000531270               0.005415710              -0.000213644              -0.000876188               0.002097281               0.001221093               0.000000000               0.000000000               0.000000000               0.000000000              -0.000329944               0.005167394              -0.000148049              -0.000769651               0.001978998               0.001209346               0.000000000               0.000000000               0.000000000               0.000000000              -0.000177519               0.004998823              -0.000083666              -0.000691421               0.001896731               0.001205310               0.000000000               0.000000000               0.000000000               0.000000000              -0.000071308               0.004904269              -0.000036257              -0.000639772               0.001847997               0.001208225               0.000000000               0.000000000               0.000000000               0.000000000              -0.000033364               0.004872027              -0.000019171              -0.000621513               0.001831164               0.001209651               0.000000000               0.000000000               0.000000000               0.000000000               0.000721394               0.009009734               0.003346444              -0.000855695               0.003288445               0.002432751               0.000000000               0.000000000               0.000000000               0.000000000              -0.001338372               0.009506901               0.002086527              -0.001690249               0.003732351               0.002042102               0.000000000               0.000000000               0.000000000               0.000000000              -0.002919543               0.010261887               0.000870749              -0.002377559               0.004213114               0.001835556               0.000000000               0.000000000               0.000000000               0.000000000              -0.003149105               0.009890687               0.000437074              -0.002417244               0.004102611               0.001685366               0.000000000               0.000000000               0.000000000               0.000000000              -0.002969850               0.009278171               0.000238354              -0.002273459               0.003850512               0.001577053               0.000000000               0.000000000               0.000000000               0.000000000              -0.002665305               0.008622078               0.000127370              -0.002077244               0.003566412               0.001489168               0.000000000               0.000000000               0.000000000               0.000000000              -0.002314433               0.007977599               0.000050197              -0.001865108               0.003280876               0.001415768               0.000000000               0.000000000               0.000000000               0.000000000              -0.001945430               0.007368572              -0.000005723              -0.001650604               0.003006367               0.001355764               0.000000000               0.000000000               0.000000000               0.000000000              -0.001565709               0.006811233              -0.000033329              -0.001438541               0.002749902               0.001311361               0.000000000               0.000000000               0.000000000               0.000000000              -0.001198356               0.006323264              -0.000048494              -0.001239788               0.002520996               0.001281208               0.000000000               0.000000000               0.000000000               0.000000000              -0.000864893               0.005911665              -0.000061865              -0.001063290               0.002324966               0.001261675               0.000000000               0.000000000               0.000000000               0.000000000              -0.000580838               0.005574466              -0.000063673              -0.000914620               0.002163010               0.001248390               0.000000000               0.000000000               0.000000000               0.000000000              -0.000355265               0.005312225              -0.000051951              -0.000797250               0.002036474               0.001239224               0.000000000               0.000000000               0.000000000               0.000000000              -0.000190468               0.005128271              -0.000032019              -0.000712457               0.001946893               0.001234435               0.000000000               0.000000000               0.000000000               0.000000000              -0.000082200               0.005021590              -0.000011031              -0.000658522               0.001893354               0.001234832               0.000000000               0.000000000               0.000000000               0.000000000              -0.000024550               0.004973353              -0.000000617              -0.000630874               0.001868059               0.001237185               0.000000000               0.000000000               0.000000000               0.000000000              -0.000010782               0.004959298              -0.000000155              -0.000623954               0.001861067               0.001237114               0.000000000               0.000000000               0.000000000               0.000000000              -0.000461993               0.006746763               0.002455978              -0.001016592               0.002587762               0.001571170               0.000000000               0.000000000               0.000000000               0.000000000              -0.002248588               0.008090596               0.001946928              -0.001854541               0.003315018               0.001460477               0.000000000               0.000000000               0.000000000               0.000000000              -0.003632692               0.009432697               0.001350261              -0.002541341               0.003991314               0.001449974               0.000000000               0.000000000               0.000000000               0.000000000              -0.003610934               0.009320458               0.000991969              -0.002519151               0.003946505               0.001427354               0.000000000               0.000000000               0.000000000               0.000000000              -0.003249775               0.008844997               0.000758318              -0.002324284               0.003723064               0.001398780               0.000000000               0.000000000               0.000000000               0.000000000              -0.002807676               0.008269872               0.000595148              -0.002086608               0.003452132               0.001365525               0.000000000               0.000000000               0.000000000               0.000000000              -0.002348184               0.007686724               0.000469415              -0.001841405               0.003176017               0.001334612               0.000000000               0.000000000               0.000000000               0.000000000              -0.001889132               0.007127625               0.000366400              -0.001599374               0.002908976               0.001309602               0.000000000               0.000000000               0.000000000               0.000000000              -0.001437655               0.006613322               0.000285418              -0.001365783               0.002659680               0.001293897               0.000000000               0.000000000               0.000000000               0.000000000              -0.001014259               0.006171354               0.000214820              -0.001151763               0.002441019               0.001289255               0.000000000               0.000000000               0.000000000               0.000000000              -0.000652279               0.005802203               0.000149919              -0.000969878               0.002257341               0.001287463               0.000000000               0.000000000               0.000000000               0.000000000              -0.000370348               0.005497904               0.000098568              -0.000826116               0.002107988               0.001281872               0.000000000               0.000000000               0.000000000               0.000000000              -0.000174314               0.005263592               0.000061567              -0.000723315               0.001995618               0.001272303               0.000000000               0.000000000               0.000000000               0.000000000              -0.000050758               0.005108739               0.000035421              -0.000657625               0.001922104               0.001264479               0.000000000               0.000000000               0.000000000               0.000000000               0.000011523               0.005026273               0.000016920              -0.000623961               0.001883395               0.001259433               0.000000000               0.000000000               0.000000000               0.000000000               0.000025446               0.004996168               0.000005377              -0.000614977               0.001870365               0.001255388               0.000000000               0.000000000               0.000000000               0.000000000               0.000020013               0.004989068               0.000000232              -0.000616127               0.001868382               0.001252255               0.000000000               0.000000000               0.000000000               0.000000000              -0.001855471               0.004644334               0.001509574              -0.001276341               0.001973542               0.000697202               0.000000000               0.000000000               0.000000000               0.000000000              -0.003012155               0.006457779               0.001788873              -0.001936776               0.002798163               0.000861387               0.000000000               0.000000000               0.000000000               0.000000000              -0.004054164               0.008222310               0.001851729              -0.002548094               0.003590107               0.001042013               0.000000000               0.000000000               0.000000000               0.000000000              -0.003893355               0.008494552               0.001580613              -0.002521821               0.003672096               0.001150275               0.000000000               0.000000000               0.000000000               0.000000000              -0.003454470               0.008284951               0.001315624              -0.002331039               0.003538636               0.001207596               0.000000000               0.000000000               0.000000000               0.000000000              -0.002962359               0.007903901               0.001097458              -0.002098867               0.003334230               0.001235362               0.000000000               0.000000000               0.000000000               0.000000000              -0.002467647               0.007468926               0.000924304              -0.001858979               0.003109277               0.001250298               0.000000000               0.000000000               0.000000000               0.000000000              -0.001984017               0.007033784               0.000779234              -0.001623226               0.002885646               0.001262421               0.000000000               0.000000000               0.000000000               0.000000000              -0.001513432               0.006621159               0.000649895              -0.001395178               0.002672090               0.001276912               0.000000000               0.000000000               0.000000000               0.000000000              -0.001071455               0.006242583               0.000526451              -0.001182116               0.002474879               0.001292763               0.000000000               0.000000000               0.000000000               0.000000000              -0.000682607               0.005909336               0.000409564              -0.000994642               0.002301306               0.001306664               0.000000000               0.000000000               0.000000000               0.000000000              -0.000370965               0.005619086               0.000301079              -0.000841496               0.002153508               0.001312013               0.000000000               0.000000000               0.000000000               0.000000000              -0.000148988               0.005378402               0.000204164              -0.000728169               0.002035506               0.001307337               0.000000000               0.000000000               0.000000000               0.000000000              -0.000010591               0.005197243               0.000125469              -0.000653625               0.001950272               0.001296647               0.000000000               0.000000000               0.000000000               0.000000000               0.000060912               0.005079730               0.000062083              -0.000612123               0.001897267               0.001285145               0.000000000               0.000000000               0.000000000               0.000000000               0.000079041               0.005021420               0.000017954              -0.000598036               0.001873135               0.001275100               0.000000000               0.000000000               0.000000000               0.000000000               0.000072003               0.005001816               0.000001571              -0.000598224               0.001866663               0.001268439               0.000000000               0.000000000               0.000000000               0.000000000              -0.003643229               0.002742434               0.000579094              -0.001709012               0.001483805              -0.000225207               0.000000000               0.000000000               0.000000000               0.000000000              -0.003875188               0.004813623               0.001556933              -0.002054894               0.002289489               0.000234595               0.000000000               0.000000000               0.000000000               0.000000000              -0.004382388               0.006799310               0.002248419              -0.002493304               0.003097514               0.000604211               0.000000000               0.000000000               0.000000000               0.000000000              -0.004092800               0.007440762               0.002139949              -0.002464890               0.003301858               0.000836969               0.000000000               0.000000000               0.000000000               0.000000000              -0.003606902               0.007543307               0.001884193              -0.002295496               0.003279576               0.000984079               0.000000000               0.000000000               0.000000000               0.000000000              -0.003089215               0.007405180               0.001634686              -0.002084098               0.003163068               0.001078969               0.000000000               0.000000000               0.000000000               0.000000000              -0.002578739               0.007163302               0.001420563              -0.001862436               0.003008555               0.001146119               0.000000000               0.000000000               0.000000000               0.000000000              -0.002085148               0.006883235               0.001237098              -0.001642331               0.002841832               0.001199501               0.000000000               0.000000000               0.000000000               0.000000000              -0.001613711               0.006591190               0.001070758              -0.001429037               0.002673387               0.001244350               0.000000000               0.000000000               0.000000000               0.000000000              -0.001163618               0.006295947               0.000909891              -0.001223347               0.002506410               0.001283063               0.000000000               0.000000000               0.000000000               0.000000000              -0.000747322               0.006013933               0.000751637              -0.001031985               0.002348619               0.001316634               0.000000000               0.000000000               0.000000000               0.000000000              -0.000390434               0.005751374               0.000591497              -0.000865333               0.002205549               0.001340217               0.000000000               0.000000000               0.000000000               0.000000000              -0.000111930               0.005515687               0.000436094              -0.000731433               0.002082355               0.001350922               0.000000000               0.000000000               0.000000000               0.000000000               0.000077830               0.005314131               0.000295813              -0.000635079               0.001983052               0.001347973               0.000000000               0.000000000               0.000000000               0.000000000               0.000180215               0.005154527               0.000170128              -0.000576734               0.001910403               0.001333669               0.000000000               0.000000000               0.000000000               0.000000000               0.000211312               0.005053435               0.000068115              -0.000552436               0.001868607               0.001316171               0.000000000               0.000000000               0.000000000               0.000000000               0.000201238               0.005014181               0.000023271              -0.000551307               0.001855146               0.001303839               0.000000000               0.000000000               0.000000000               0.000000000              -0.005692249               0.001189037              -0.000247358              -0.002283220               0.001157411              -0.001125809               0.000000000               0.000000000               0.000000000               0.000000000              -0.004886716               0.003255411               0.001234175              -0.002239441               0.001831605              -0.000407836               0.000000000               0.000000000               0.000000000               0.000000000              -0.004653114               0.005184386               0.002421141              -0.002392961               0.002525764               0.000132803               0.000000000               0.000000000               0.000000000               0.000000000              -0.004151985               0.006087187               0.002519029              -0.002317888               0.002801670               0.000483782               0.000000000               0.000000000               0.000000000               0.000000000              -0.003600958               0.006474151               0.002331270              -0.002159623               0.002877902               0.000718279               0.000000000               0.000000000               0.000000000               0.000000000              -0.003059118               0.006591088               0.002089703              -0.001971051               0.002854024               0.000882973               0.000000000               0.000000000               0.000000000               0.000000000              -0.002546108               0.006567609               0.001859711              -0.001775738               0.002781093               0.001005356               0.000000000               0.000000000               0.000000000               0.000000000              -0.002052095               0.006473536               0.001653701              -0.001578724               0.002684065               0.001105340               0.000000000               0.000000000               0.000000000               0.000000000              -0.001581954               0.006333171               0.001464503              -0.001384876               0.002572661               0.001187785               0.000000000               0.000000000               0.000000000               0.000000000              -0.001132288               0.006156620               0.001284756              -0.001194183               0.002450247               0.001256064               0.000000000               0.000000000               0.000000000               0.000000000              -0.000706675               0.005958691               0.001104307              -0.001009837               0.002322823               0.001312985               0.000000000               0.000000000               0.000000000               0.000000000              -0.000318832               0.005752759               0.000916184              -0.000838655               0.002197119               0.001358464               0.000000000               0.000000000               0.000000000               0.000000000               0.000015000               0.005550940               0.000723036              -0.000688241               0.002079708               0.001391467               0.000000000               0.000000000               0.000000000               0.000000000               0.000270398               0.005359155               0.000529151              -0.000568494               0.001975865               0.001407371               0.000000000               0.000000000               0.000000000               0.000000000               0.000430042               0.005193964               0.000337020              -0.000487979               0.001893964               0.001405985               0.000000000               0.000000000               0.000000000               0.000000000               0.000493519               0.005077821               0.000158550              -0.000449657               0.001842476               0.001392819               0.000000000               0.000000000               0.000000000               0.000000000               0.000486387               0.005024640               0.000070614              -0.000445684               0.001823425               0.001377741               0.000000000               0.000000000               0.000000000               0.000000000              -0.007856479               0.000069614              -0.000850219              -0.002954879               0.001008157              -0.001946721               0.000000000               0.000000000               0.000000000               0.000000000              -0.005988289               0.001882342               0.000870679              -0.002480898               0.001454403              -0.001026495               0.000000000               0.000000000               0.000000000               0.000000000              -0.004895042               0.003530358               0.002341465              -0.002276931               0.001935749              -0.000341182               0.000000000               0.000000000               0.000000000               0.000000000              -0.004096003               0.004552136               0.002625513              -0.002105014               0.002219033               0.000114020               0.000000000               0.000000000               0.000000000               0.000000000              -0.003445126               0.005159684               0.002540205              -0.001936879               0.002365503               0.000428624               0.000000000               0.000000000               0.000000000               0.000000000              -0.002875515               0.005514150               0.002346067              -0.001767583               0.002427225               0.000659642               0.000000000               0.000000000               0.000000000               0.000000000              -0.002358786               0.005714274               0.002131770              -0.001598826               0.002437680               0.000838854               0.000000000               0.000000000               0.000000000               0.000000000              -0.001879806               0.005809680               0.001927159              -0.001431134               0.002413585               0.000982450               0.000000000               0.000000000               0.000000000               0.000000000              -0.001420641               0.005829253               0.001737167              -0.001261395               0.002363529               0.001102135               0.000000000               0.000000000               0.000000000               0.000000000              -0.000975618               0.005791904               0.001557147              -0.001089843               0.002293896               0.001204053               0.000000000               0.000000000               0.000000000               0.000000000              -0.000542444               0.005713299               0.001375323              -0.000917577               0.002210273               0.001292695               0.000000000               0.000000000               0.000000000               0.000000000              -0.000129364               0.005600317               0.001186229              -0.000748550               0.002116270               0.001367720               0.000000000               0.000000000               0.000000000               0.000000000               0.000254575               0.005465886               0.000984763              -0.000587769               0.002017867               0.001430098               0.000000000               0.000000000               0.000000000               0.000000000               0.000587637               0.005328412               0.000763299              -0.000445687               0.001924682               0.001478995               0.000000000               0.000000000               0.000000000               0.000000000               0.000843160               0.005202384               0.000521195              -0.000334112               0.001845481               0.001511369               0.000000000               0.000000000               0.000000000               0.000000000               0.000992807               0.005094950               0.000264184              -0.000264565               0.001786488               0.001521923               0.000000000               0.000000000               0.000000000               0.000000000               0.001031009               0.005040571               0.000131983              -0.000243442               0.001761321               0.001517879               0.000000000               0.000000000               0.000000000               0.000000000              -0.009935090              -0.000632852              -0.001126506              -0.003646550               0.001004559              -0.002641991               0.000000000               0.000000000               0.000000000               0.000000000              -0.007081990               0.000776640               0.000530700              -0.002752823               0.001176479              -0.001576344               0.000000000               0.000000000               0.000000000               0.000000000              -0.005115097               0.001997542               0.002011500              -0.002167851               0.001388454              -0.000779397               0.000000000               0.000000000               0.000000000               0.000000000              -0.003970139               0.003013915               0.002400069              -0.001865538               0.001626472              -0.000239066               0.000000000               0.000000000               0.000000000               0.000000000              -0.003184228               0.003769476               0.002407443              -0.001665267               0.001811567               0.000146300               0.000000000               0.000000000               0.000000000               0.000000000              -0.002572301               0.004309102               0.002282926              -0.001503248               0.001937435               0.000434187               0.000000000               0.000000000               0.000000000               0.000000000              -0.002050209               0.004689769               0.002115406              -0.001355047               0.002014922               0.000659875               0.000000000               0.000000000               0.000000000               0.000000000              -0.001582211               0.004955365               0.001940582              -0.001212748               0.002056020               0.000843273               0.000000000               0.000000000               0.000000000               0.000000000              -0.001141064               0.005134923               0.001773908              -0.001069762               0.002068211               0.000998448               0.000000000               0.000000000               0.000000000               0.000000000              -0.000707684               0.005249073               0.001616352              -0.000921514               0.002056844               0.001135330               0.000000000               0.000000000               0.000000000               0.000000000              -0.000270496               0.005309622               0.001458755              -0.000765138               0.002024902               0.001259764               0.000000000               0.000000000               0.000000000               0.000000000               0.000165501               0.005315556               0.001292931              -0.000602381               0.001972628               0.001370247               0.000000000               0.000000000               0.000000000               0.000000000               0.000593026               0.005283981               0.001110666              -0.000438113               0.001907347               0.001469234               0.000000000               0.000000000               0.000000000               0.000000000               0.001005535               0.005233095               0.000898929              -0.000277061               0.001836701               0.001559640               0.000000000               0.000000000               0.000000000               0.000000000               0.001386674               0.005165865               0.000647635              -0.000125730               0.001763848               0.001638117               0.000000000               0.000000000               0.000000000               0.000000000               0.001703247               0.005086016               0.000345637               0.000002965               0.001694334               0.001697298               0.000000000               0.000000000               0.000000000               0.000000000               0.001872493               0.005054613               0.000187533               0.000070357               0.001661402               0.001731759               0.000000000               0.000000000               0.000000000               0.000000000              -0.011682306              -0.001008729              -0.001030906              -0.004254771               0.001082006              -0.003172764               0.000000000               0.000000000               0.000000000               0.000000000              -0.008030120              -0.000020884               0.000269382              -0.003008682               0.000995926              -0.002012756               0.000000000               0.000000000               0.000000000               0.000000000              -0.005307129               0.000757892               0.001465703              -0.002084908               0.000947593              -0.001137315               0.000000000               0.000000000               0.000000000               0.000000000              -0.003830002               0.001692392               0.001835143              -0.001647797               0.001113388              -0.000534409               0.000000000               0.000000000               0.000000000               0.000000000              -0.002898632               0.002513761               0.001893477              -0.001401205               0.001304979              -0.000096226               0.000000000               0.000000000               0.000000000               0.000000000              -0.002233141               0.003176157               0.001831525              -0.001234445               0.001470189               0.000235744               0.000000000               0.000000000               0.000000000               0.000000000              -0.001700205               0.003688910               0.001724206              -0.001098689               0.001595853               0.000497165               0.000000000               0.000000000               0.000000000               0.000000000              -0.001234135               0.004084976               0.001602800              -0.000973421               0.001686118               0.000712697               0.000000000               0.000000000               0.000000000               0.000000000              -0.000801564               0.004398659               0.001483270              -0.000850418               0.001749677               0.000899259               0.000000000               0.000000000               0.000000000               0.000000000              -0.000376606               0.004649227               0.001371477              -0.000722380               0.001790520               0.001068140               0.000000000               0.000000000               0.000000000               0.000000000               0.000058278               0.004837669               0.001258651              -0.000582853               0.001806824               0.001223971               0.000000000               0.000000000               0.000000000               0.000000000               0.000506858               0.004963019               0.001133361              -0.000430305               0.001797758               0.001367453               0.000000000               0.000000000               0.000000000               0.000000000               0.000976186               0.005047571               0.000991011              -0.000264877               0.001770799               0.001505922               0.000000000               0.000000000               0.000000000               0.000000000               0.001472426               0.005095551               0.000825510              -0.000084784               0.001726761               0.001641977               0.000000000               0.000000000               0.000000000               0.000000000               0.001992732               0.005096480               0.000619523               0.000110213               0.001662072               0.001772285               0.000000000               0.000000000               0.000000000               0.000000000               0.002529902               0.005058942               0.000345014               0.000316342               0.001580850               0.001897192               0.000000000               0.000000000               0.000000000               0.000000000               0.002902197               0.005069291               0.000200966               0.000454658               0.001538194               0.001992852               0.000000000               0.000000000               0.000000000               0.000000000              -0.012852022              -0.001169672              -0.000608862              -0.004673296               0.001167867              -0.003505430               0.000000000               0.000000000               0.000000000               0.000000000              -0.008681797              -0.000496768               0.000104449              -0.003193576               0.000898930              -0.002294646               0.000000000               0.000000000               0.000000000               0.000000000              -0.005447542              -0.000049806               0.000770830              -0.002036601               0.000662260              -0.001374341               0.000000000               0.000000000               0.000000000               0.000000000              -0.003723505               0.000798447               0.000994528              -0.001496119               0.000764850              -0.000731269               0.000000000               0.000000000               0.000000000               0.000000000              -0.002677523               0.001636459               0.001044869              -0.001208626               0.000948355              -0.000260271               0.000000000               0.000000000               0.000000000               0.000000000              -0.001965710               0.002357580               0.001023166              -0.001031836               0.001129797               0.000097961               0.000000000               0.000000000               0.000000000               0.000000000              -0.001420760               0.002951284               0.000973455              -0.000901694               0.001284316               0.000382622               0.000000000               0.000000000               0.000000000               0.000000000              -0.000953974               0.003436436               0.000914020              -0.000787293               0.001407898               0.000620605               0.000000000               0.000000000               0.000000000               0.000000000              -0.000520235               0.003836246               0.000853469              -0.000674618               0.001503608               0.000828991               0.000000000               0.000000000               0.000000000               0.000000000              -0.000095156               0.004170330               0.000798046              -0.000556974               0.001575754               0.001018780               0.000000000               0.000000000               0.000000000               0.000000000               0.000337785               0.004445055               0.000740230              -0.000428962               0.001624657               0.001195696               0.000000000               0.000000000               0.000000000               0.000000000               0.000796441               0.004658173               0.000671538              -0.000283606               0.001647244               0.001363638               0.000000000               0.000000000               0.000000000               0.000000000               0.001302564               0.004824090               0.000593395              -0.000114550               0.001646197               0.001531647               0.000000000               0.000000000               0.000000000               0.000000000               0.001869655               0.004944699               0.000501602               0.000083032               0.001620539               0.001703571               0.000000000               0.000000000               0.000000000               0.000000000               0.002506037               0.005009217               0.000385014               0.000313609               0.001565186               0.001878795               0.000000000               0.000000000               0.000000000               0.000000000               0.003233783               0.005021161               0.000220260               0.000585018               0.001478698               0.002063715               0.000000000               0.000000000               0.000000000               0.000000000               0.003793303               0.005074859               0.000133340               0.000788123               0.001428895               0.002217018               0.000000000               0.000000000               0.000000000               0.000000000               0.000000000               0.000000000               0.000000000               0.000000000               0.000000000               0.000000000               0.000000000               0.000000000               0.000000000               0.000000000               0.000000000               0.000000000               0.000000000               0.000000000               0.000000000               0.000000000               0.000000000               0.000000000               0.000000000               0.000000000               0.000000000               0.000000000               0.000000000               0.000000000               0.000000000               0.000000000               0.000000000               0.000000000               0.000000000               0.000000000               0.000000000               0.000000000               0.000000000               0.000000000               0.000000000               0.000000000               0.000000000               0.000000000               0.000000000               0.000000000               0.000000000               0.000000000               0.000000000               0.000000000               0.000000000               0.000000000               0.000000000               0.000000000               0.000000000               0.000000000               0.000000000               0.000000000               0.000000000               0.000000000               0.000000000               0.000000000               0.000000000               0.000000000               0.000000000               0.000000000               0.000000000               0.000000000               0.000000000               0.000000000               0.000000000               0.000000000               0.000000000               0.000000000               0.000000000               0.000000000               0.000000000               0.000000000               0.000000000               0.000000000               0.000000000               0.000000000               0.000000000               0.000000000               0.000000000               0.000000000               0.000000000               0.000000000               0.000000000               0.000000000               0.000000000               0.000000000               0.000000000               0.000000000               0.000000000               0.000000000               0.000000000               0.000000000               0.000000000               0.000000000               0.000000000               0.000000000               0.000000000               0.000000000               0.000000000               0.000000000               0.000000000               0.000000000               0.000000000               0.000000000               0.000000000               0.000000000               0.000000000               0.000000000               0.000000000               0.000000000               0.000000000               0.000000000               0.000000000               0.000000000               0.000000000               0.000000000               0.000000000               0.000000000               0.000000000               0.000000000               0.000000000               0.000000000               0.000000000               0.000000000               0.000000000               0.000000000               0.000000000               0.000000000               0.000000000               0.000000000               0.000000000               0.000000000               0.000000000               0.000000000               0.000000000               0.000000000               0.000000000               0.000000000               0.000000000               0.000000000               0.000000000               0.000000000               0.000000000               0.000000000               0.000000000               0.000000000               0.000000000               0.000000000               0.000000000               0.000000000               0.000000000               0.000000000               0.000000000               0.000000000               0.000000000               0.000000000               0.000000000               0.000000000               0.000000000               0.000000000               0.000000000               0.000000000               0.000000000               0.000000000               0.000000000               0.000000000               0.000000000               0.000000000               0.000000000               0.000000000 </DataArray>
</PointData>
</Piece>
</UnstructuredGrid> </VTKFile>
