<?xml version="1.0"?>
<VTKFile type="UnstructuredGrid" version="0.1">
<UnstructuredGrid>
<Piece NumberOfPoints="      1156" NumberOfCells="      1024">
<Points>
<DataArray type="Float64"                                    Name="coordinates"                                                      NumberOfComponents=" 3" format="ascii">
              0.133000000               0.000000000               0.000000000               0.155937500               0.000000000               0.000000000               0.178875000               0.000000000               0.000000000               0.201812500               0.000000000               0.000000000               0.224750000               0.000000000               0.000000000               0.247687500               0.000000000               0.000000000               0.270625000               0.000000000               0.000000000               0.293562500               0.000000000               0.000000000               0.316500000               0.000000000               0.000000000               0.339437500               0.000000000               0.000000000               0.362375000               0.000000000               0.000000000               0.385312500               0.000000000               0.000000000               0.408250000               0.000000000               0.000000000               0.431187500               0.000000000               0.000000000               0.454125000               0.000000000               0.000000000               0.477062500               0.000000000               0.000000000               0.500000000               0.000000000               0.000000000               0.132359569               0.013036280               0.000000000               0.155337096               0.016127762               0.000000000               0.178314623               0.019219245               0.000000000               0.201292150               0.022310727               0.000000000               0.224269676               0.025402210               0.000000000               0.247247203               0.028493692               0.000000000               0.270224730               0.031585175               0.000000000               0.293202257               0.034676657               0.000000000               0.316179784               0.037768140               0.000000000               0.339157311               0.040859622               0.000000000               0.362134838               0.043951105               0.000000000               0.385112365               0.047042587               0.000000000               0.408089892               0.050134070               0.000000000               0.431067419               0.053225552               0.000000000               0.454044946               0.056317035               0.000000000               0.477022473               0.059408517               0.000000000               0.500000000               0.062500000               0.000000000               0.130444442               0.025947013               0.000000000               0.153541665               0.032137825               0.000000000               0.176638887               0.038328636               0.000000000               0.199736109               0.044519448               0.000000000               0.222833332               0.050710260               0.000000000               0.245930554               0.056901071               0.000000000               0.269027776               0.063091883               0.000000000               0.292124999               0.069282695               0.000000000               0.315222221               0.075473506               0.000000000               0.338319444               0.081664318               0.000000000               0.361416666               0.087855130               0.000000000               0.384513888               0.094045942               0.000000000               0.407611111               0.100236753               0.000000000               0.430708333               0.106427565               0.000000000               0.453805555               0.112618377               0.000000000               0.476902778               0.118809188               0.000000000               0.500000000               0.125000000               0.000000000               0.127273065               0.038607862               0.000000000               0.150568498               0.047913621               0.000000000               0.173863932               0.057219379               0.000000000               0.197159365               0.066525138               0.000000000               0.220454798               0.075830897               0.000000000               0.243750232               0.085136655               0.000000000               0.267045665               0.094442414               0.000000000               0.290341099               0.103748172               0.000000000               0.313636532               0.113053931               0.000000000               0.336931966               0.122359690               0.000000000               0.360227399               0.131665448               0.000000000               0.383522833               0.140971207               0.000000000               0.406818266               0.150276966               0.000000000               0.430113700               0.159582724               0.000000000               0.453409133               0.168888483               0.000000000               0.476704567               0.178194241               0.000000000               0.500000000               0.187500000               0.000000000               0.122875978               0.050896897               0.000000000               0.146446229               0.063340840               0.000000000               0.170016481               0.075784784               0.000000000               0.193586732               0.088228728               0.000000000               0.217156983               0.100672672               0.000000000               0.240727235               0.113116616               0.000000000               0.264297486               0.125560560               0.000000000               0.287867738               0.138004504               0.000000000               0.311437989               0.150448448               0.000000000               0.335008240               0.162892392               0.000000000               0.358578492               0.175336336               0.000000000               0.382148743               0.187780280               0.000000000               0.405718994               0.200224224               0.000000000               0.429289246               0.212668168               0.000000000               0.452859497               0.225112112               0.000000000               0.476429749               0.237556056               0.000000000               0.500000000               0.250000000               0.000000000               0.117295528               0.062695766               0.000000000               0.141214558               0.078308531               0.000000000               0.165133587               0.093921295               0.000000000               0.189052617               0.109534060               0.000000000               0.212971646               0.125146824               0.000000000               0.236890676               0.140759589               0.000000000               0.260809705               0.156372354               0.000000000               0.284728735               0.171985118               0.000000000               0.308647764               0.187597883               0.000000000               0.332566794               0.203210648               0.000000000               0.356485823               0.218823412               0.000000000               0.380404853               0.234436177               0.000000000               0.404323882               0.250048941               0.000000000               0.428242912               0.265661706               0.000000000               0.452161941               0.281274471               0.000000000               0.476080971               0.296887235               0.000000000               0.500000000               0.312500000               0.000000000               0.110585458               0.073890841               0.000000000               0.134923867               0.092710163               0.000000000               0.159262276               0.111529486               0.000000000               0.183600685               0.130348808               0.000000000               0.207939094               0.149168131               0.000000000               0.232277503               0.167987453               0.000000000               0.256615912               0.186806776               0.000000000               0.280954320               0.205626098               0.000000000               0.305292729               0.224445420               0.000000000               0.329631138               0.243264743               0.000000000               0.353969547               0.262084065               0.000000000               0.378307956               0.280903388               0.000000000               0.402646365               0.299722710               0.000000000               0.426984773               0.318542033               0.000000000               0.451323182               0.337361355               0.000000000               0.475661591               0.356180678               0.000000000               0.500000000               0.375000000               0.000000000               0.102810390               0.084374307               0.000000000               0.127634741               0.106444663               0.000000000               0.152459092               0.128515018               0.000000000               0.177283442               0.150585374               0.000000000               0.202107793               0.172655730               0.000000000               0.226932143               0.194726086               0.000000000               0.251756494               0.216796442               0.000000000               0.276580845               0.238866798               0.000000000               0.301405195               0.260937153               0.000000000               0.326229546               0.283007509               0.000000000               0.351053896               0.305077865               0.000000000               0.375878247               0.327148221               0.000000000               0.400702598               0.349218577               0.000000000               0.425526948               0.371288933               0.000000000               0.450351299               0.393359288               0.000000000               0.475175649               0.415429644               0.000000000               0.500000000               0.437500000               0.000000000               0.094045202               0.094045202               0.000000000               0.119417377               0.119417377               0.000000000               0.144789552               0.144789552               0.000000000               0.170161727               0.170161727               0.000000000               0.195533901               0.195533901               0.000000000               0.220906076               0.220906076               0.000000000               0.246278251               0.246278251               0.000000000               0.271650426               0.271650426               0.000000000               0.297022601               0.297022601               0.000000000               0.322394776               0.322394776               0.000000000               0.347766951               0.347766951               0.000000000               0.373139126               0.373139126               0.000000000               0.398511300               0.398511300               0.000000000               0.423883475               0.423883475               0.000000000               0.449255650               0.449255650               0.000000000               0.474627825               0.474627825               0.000000000               0.500000000               0.500000000               0.000000000               0.084374307               0.102810390               0.000000000               0.106444663               0.127634741               0.000000000               0.128515018               0.152459092               0.000000000               0.150585374               0.177283442               0.000000000               0.172655730               0.202107793               0.000000000               0.194726086               0.226932143               0.000000000               0.216796442               0.251756494               0.000000000               0.238866798               0.276580845               0.000000000               0.260937153               0.301405195               0.000000000               0.283007509               0.326229546               0.000000000               0.305077865               0.351053896               0.000000000               0.327148221               0.375878247               0.000000000               0.349218577               0.400702598               0.000000000               0.371288933               0.425526948               0.000000000               0.393359288               0.450351299               0.000000000               0.415429644               0.475175649               0.000000000               0.437500000               0.500000000               0.000000000               0.073890841               0.110585458               0.000000000               0.092710163               0.134923867               0.000000000               0.111529486               0.159262276               0.000000000               0.130348808               0.183600685               0.000000000               0.149168131               0.207939094               0.000000000               0.167987453               0.232277503               0.000000000               0.186806776               0.256615912               0.000000000               0.205626098               0.280954320               0.000000000               0.224445420               0.305292729               0.000000000               0.243264743               0.329631138               0.000000000               0.262084065               0.353969547               0.000000000               0.280903388               0.378307956               0.000000000               0.299722710               0.402646365               0.000000000               0.318542033               0.426984773               0.000000000               0.337361355               0.451323182               0.000000000               0.356180678               0.475661591               0.000000000               0.375000000               0.500000000               0.000000000               0.062695766               0.117295528               0.000000000               0.078308531               0.141214558               0.000000000               0.093921295               0.165133587               0.000000000               0.109534060               0.189052617               0.000000000               0.125146824               0.212971646               0.000000000               0.140759589               0.236890676               0.000000000               0.156372354               0.260809705               0.000000000               0.171985118               0.284728735               0.000000000               0.187597883               0.308647764               0.000000000               0.203210648               0.332566794               0.000000000               0.218823412               0.356485823               0.000000000               0.234436177               0.380404853               0.000000000               0.250048941               0.404323882               0.000000000               0.265661706               0.428242912               0.000000000               0.281274471               0.452161941               0.000000000               0.296887235               0.476080971               0.000000000               0.312500000               0.500000000               0.000000000               0.050896897               0.122875978               0.000000000               0.063340840               0.146446229               0.000000000               0.075784784               0.170016481               0.000000000               0.088228728               0.193586732               0.000000000               0.100672672               0.217156983               0.000000000               0.113116616               0.240727235               0.000000000               0.125560560               0.264297486               0.000000000               0.138004504               0.287867738               0.000000000               0.150448448               0.311437989               0.000000000               0.162892392               0.335008240               0.000000000               0.175336336               0.358578492               0.000000000               0.187780280               0.382148743               0.000000000               0.200224224               0.405718994               0.000000000               0.212668168               0.429289246               0.000000000               0.225112112               0.452859497               0.000000000               0.237556056               0.476429749               0.000000000               0.250000000               0.500000000               0.000000000               0.038607862               0.127273065               0.000000000               0.047913621               0.150568498               0.000000000               0.057219379               0.173863932               0.000000000               0.066525138               0.197159365               0.000000000               0.075830897               0.220454798               0.000000000               0.085136655               0.243750232               0.000000000               0.094442414               0.267045665               0.000000000               0.103748172               0.290341099               0.000000000               0.113053931               0.313636532               0.000000000               0.122359690               0.336931966               0.000000000               0.131665448               0.360227399               0.000000000               0.140971207               0.383522833               0.000000000               0.150276966               0.406818266               0.000000000               0.159582724               0.430113700               0.000000000               0.168888483               0.453409133               0.000000000               0.178194241               0.476704567               0.000000000               0.187500000               0.500000000               0.000000000               0.025947013               0.130444442               0.000000000               0.032137825               0.153541665               0.000000000               0.038328636               0.176638887               0.000000000               0.044519448               0.199736109               0.000000000               0.050710260               0.222833332               0.000000000               0.056901071               0.245930554               0.000000000               0.063091883               0.269027776               0.000000000               0.069282695               0.292124999               0.000000000               0.075473506               0.315222221               0.000000000               0.081664318               0.338319444               0.000000000               0.087855130               0.361416666               0.000000000               0.094045942               0.384513888               0.000000000               0.100236753               0.407611111               0.000000000               0.106427565               0.430708333               0.000000000               0.112618377               0.453805555               0.000000000               0.118809188               0.476902778               0.000000000               0.125000000               0.500000000               0.000000000               0.013036280               0.132359569               0.000000000               0.016127762               0.155337096               0.000000000               0.019219245               0.178314623               0.000000000               0.022310727               0.201292150               0.000000000               0.025402210               0.224269676               0.000000000               0.028493692               0.247247203               0.000000000               0.031585175               0.270224730               0.000000000               0.034676657               0.293202257               0.000000000               0.037768140               0.316179784               0.000000000               0.040859622               0.339157311               0.000000000               0.043951105               0.362134838               0.000000000               0.047042587               0.385112365               0.000000000               0.050134070               0.408089892               0.000000000               0.053225552               0.431067419               0.000000000               0.056317035               0.454044946               0.000000000               0.059408517               0.477022473               0.000000000               0.062500000               0.500000000               0.000000000               0.000000000               0.133000000               0.000000000               0.000000000               0.155937500               0.000000000               0.000000000               0.178875000               0.000000000               0.000000000               0.201812500               0.000000000               0.000000000               0.224750000               0.000000000               0.000000000               0.247687500               0.000000000               0.000000000               0.270625000               0.000000000               0.000000000               0.293562500               0.000000000               0.000000000               0.316500000               0.000000000               0.000000000               0.339437500               0.000000000               0.000000000               0.362375000               0.000000000               0.000000000               0.385312500               0.000000000               0.000000000               0.408250000               0.000000000               0.000000000               0.431187500               0.000000000               0.000000000               0.454125000               0.000000000               0.000000000               0.477062500               0.000000000               0.000000000               0.500000000               0.000000000               0.133000000               0.000000000               0.000000000               0.155937500               0.000000000               0.000000000               0.178875000               0.000000000               0.000000000               0.201812500               0.000000000               0.000000000               0.224750000               0.000000000               0.000000000               0.247687500               0.000000000               0.000000000               0.270625000               0.000000000               0.000000000               0.293562500               0.000000000               0.000000000               0.316500000               0.000000000               0.000000000               0.339437500               0.000000000               0.000000000               0.362375000               0.000000000               0.000000000               0.385312500               0.000000000               0.000000000               0.408250000               0.000000000               0.000000000               0.431187500               0.000000000               0.000000000               0.454125000               0.000000000               0.000000000               0.477062500               0.000000000               0.000000000               0.500000000               0.000000000               0.000000000               0.132359569              -0.013036280               0.000000000               0.155337096              -0.016127762               0.000000000               0.178314623              -0.019219245               0.000000000               0.201292150              -0.022310727               0.000000000               0.224269676              -0.025402210               0.000000000               0.247247203              -0.028493692               0.000000000               0.270224730              -0.031585175               0.000000000               0.293202257              -0.034676657               0.000000000               0.316179784              -0.037768140               0.000000000               0.339157311              -0.040859622               0.000000000               0.362134838              -0.043951105               0.000000000               0.385112365              -0.047042587               0.000000000               0.408089892              -0.050134070               0.000000000               0.431067419              -0.053225552               0.000000000               0.454044946              -0.056317035               0.000000000               0.477022473              -0.059408517               0.000000000               0.500000000              -0.062500000               0.000000000               0.130444442              -0.025947013               0.000000000               0.153541665              -0.032137825               0.000000000               0.176638887              -0.038328636               0.000000000               0.199736109              -0.044519448               0.000000000               0.222833332              -0.050710260               0.000000000               0.245930554              -0.056901071               0.000000000               0.269027776              -0.063091883               0.000000000               0.292124999              -0.069282695               0.000000000               0.315222221              -0.075473506               0.000000000               0.338319444              -0.081664318               0.000000000               0.361416666              -0.087855130               0.000000000               0.384513888              -0.094045942               0.000000000               0.407611111              -0.100236753               0.000000000               0.430708333              -0.106427565               0.000000000               0.453805555              -0.112618377               0.000000000               0.476902778              -0.118809188               0.000000000               0.500000000              -0.125000000               0.000000000               0.127273065              -0.038607862               0.000000000               0.150568498              -0.047913621               0.000000000               0.173863932              -0.057219379               0.000000000               0.197159365              -0.066525138               0.000000000               0.220454798              -0.075830897               0.000000000               0.243750232              -0.085136655               0.000000000               0.267045665              -0.094442414               0.000000000               0.290341099              -0.103748172               0.000000000               0.313636532              -0.113053931               0.000000000               0.336931966              -0.122359690               0.000000000               0.360227399              -0.131665448               0.000000000               0.383522833              -0.140971207               0.000000000               0.406818266              -0.150276966               0.000000000               0.430113700              -0.159582724               0.000000000               0.453409133              -0.168888483               0.000000000               0.476704567              -0.178194241               0.000000000               0.500000000              -0.187500000               0.000000000               0.122875978              -0.050896897               0.000000000               0.146446229              -0.063340840               0.000000000               0.170016481              -0.075784784               0.000000000               0.193586732              -0.088228728               0.000000000               0.217156983              -0.100672672               0.000000000               0.240727235              -0.113116616               0.000000000               0.264297486              -0.125560560               0.000000000               0.287867738              -0.138004504               0.000000000               0.311437989              -0.150448448               0.000000000               0.335008240              -0.162892392               0.000000000               0.358578492              -0.175336336               0.000000000               0.382148743              -0.187780280               0.000000000               0.405718994              -0.200224224               0.000000000               0.429289246              -0.212668168               0.000000000               0.452859497              -0.225112112               0.000000000               0.476429749              -0.237556056               0.000000000               0.500000000              -0.250000000               0.000000000               0.117295528              -0.062695766               0.000000000               0.141214558              -0.078308531               0.000000000               0.165133587              -0.093921295               0.000000000               0.189052617              -0.109534060               0.000000000               0.212971646              -0.125146824               0.000000000               0.236890676              -0.140759589               0.000000000               0.260809705              -0.156372354               0.000000000               0.284728735              -0.171985118               0.000000000               0.308647764              -0.187597883               0.000000000               0.332566794              -0.203210648               0.000000000               0.356485823              -0.218823412               0.000000000               0.380404853              -0.234436177               0.000000000               0.404323882              -0.250048941               0.000000000               0.428242912              -0.265661706               0.000000000               0.452161941              -0.281274471               0.000000000               0.476080971              -0.296887235               0.000000000               0.500000000              -0.312500000               0.000000000               0.110585458              -0.073890841               0.000000000               0.134923867              -0.092710163               0.000000000               0.159262276              -0.111529486               0.000000000               0.183600685              -0.130348808               0.000000000               0.207939094              -0.149168131               0.000000000               0.232277503              -0.167987453               0.000000000               0.256615912              -0.186806776               0.000000000               0.280954320              -0.205626098               0.000000000               0.305292729              -0.224445420               0.000000000               0.329631138              -0.243264743               0.000000000               0.353969547              -0.262084065               0.000000000               0.378307956              -0.280903388               0.000000000               0.402646365              -0.299722710               0.000000000               0.426984773              -0.318542033               0.000000000               0.451323182              -0.337361355               0.000000000               0.475661591              -0.356180678               0.000000000               0.500000000              -0.375000000               0.000000000               0.102810390              -0.084374307               0.000000000               0.127634741              -0.106444663               0.000000000               0.152459092              -0.128515018               0.000000000               0.177283442              -0.150585374               0.000000000               0.202107793              -0.172655730               0.000000000               0.226932143              -0.194726086               0.000000000               0.251756494              -0.216796442               0.000000000               0.276580845              -0.238866798               0.000000000               0.301405195              -0.260937153               0.000000000               0.326229546              -0.283007509               0.000000000               0.351053896              -0.305077865               0.000000000               0.375878247              -0.327148221               0.000000000               0.400702598              -0.349218577               0.000000000               0.425526948              -0.371288933               0.000000000               0.450351299              -0.393359288               0.000000000               0.475175649              -0.415429644               0.000000000               0.500000000              -0.437500000               0.000000000               0.094045202              -0.094045202               0.000000000               0.119417377              -0.119417377               0.000000000               0.144789552              -0.144789552               0.000000000               0.170161727              -0.170161727               0.000000000               0.195533901              -0.195533901               0.000000000               0.220906076              -0.220906076               0.000000000               0.246278251              -0.246278251               0.000000000               0.271650426              -0.271650426               0.000000000               0.297022601              -0.297022601               0.000000000               0.322394776              -0.322394776               0.000000000               0.347766951              -0.347766951               0.000000000               0.373139126              -0.373139126               0.000000000               0.398511300              -0.398511300               0.000000000               0.423883475              -0.423883475               0.000000000               0.449255650              -0.449255650               0.000000000               0.474627825              -0.474627825               0.000000000               0.500000000              -0.500000000               0.000000000               0.084374307              -0.102810390               0.000000000               0.106444663              -0.127634741               0.000000000               0.128515018              -0.152459092               0.000000000               0.150585374              -0.177283442               0.000000000               0.172655730              -0.202107793               0.000000000               0.194726086              -0.226932143               0.000000000               0.216796442              -0.251756494               0.000000000               0.238866798              -0.276580845               0.000000000               0.260937153              -0.301405195               0.000000000               0.283007509              -0.326229546               0.000000000               0.305077865              -0.351053896               0.000000000               0.327148221              -0.375878247               0.000000000               0.349218577              -0.400702598               0.000000000               0.371288933              -0.425526948               0.000000000               0.393359288              -0.450351299               0.000000000               0.415429644              -0.475175649               0.000000000               0.437500000              -0.500000000               0.000000000               0.073890841              -0.110585458               0.000000000               0.092710163              -0.134923867               0.000000000               0.111529486              -0.159262276               0.000000000               0.130348808              -0.183600685               0.000000000               0.149168131              -0.207939094               0.000000000               0.167987453              -0.232277503               0.000000000               0.186806776              -0.256615912               0.000000000               0.205626098              -0.280954320               0.000000000               0.224445420              -0.305292729               0.000000000               0.243264743              -0.329631138               0.000000000               0.262084065              -0.353969547               0.000000000               0.280903388              -0.378307956               0.000000000               0.299722710              -0.402646365               0.000000000               0.318542033              -0.426984773               0.000000000               0.337361355              -0.451323182               0.000000000               0.356180678              -0.475661591               0.000000000               0.375000000              -0.500000000               0.000000000               0.062695766              -0.117295528               0.000000000               0.078308531              -0.141214558               0.000000000               0.093921295              -0.165133587               0.000000000               0.109534060              -0.189052617               0.000000000               0.125146824              -0.212971646               0.000000000               0.140759589              -0.236890676               0.000000000               0.156372354              -0.260809705               0.000000000               0.171985118              -0.284728735               0.000000000               0.187597883              -0.308647764               0.000000000               0.203210648              -0.332566794               0.000000000               0.218823412              -0.356485823               0.000000000               0.234436177              -0.380404853               0.000000000               0.250048941              -0.404323882               0.000000000               0.265661706              -0.428242912               0.000000000               0.281274471              -0.452161941               0.000000000               0.296887235              -0.476080971               0.000000000               0.312500000              -0.500000000               0.000000000               0.050896897              -0.122875978               0.000000000               0.063340840              -0.146446229               0.000000000               0.075784784              -0.170016481               0.000000000               0.088228728              -0.193586732               0.000000000               0.100672672              -0.217156983               0.000000000               0.113116616              -0.240727235               0.000000000               0.125560560              -0.264297486               0.000000000               0.138004504              -0.287867738               0.000000000               0.150448448              -0.311437989               0.000000000               0.162892392              -0.335008240               0.000000000               0.175336336              -0.358578492               0.000000000               0.187780280              -0.382148743               0.000000000               0.200224224              -0.405718994               0.000000000               0.212668168              -0.429289246               0.000000000               0.225112112              -0.452859497               0.000000000               0.237556056              -0.476429749               0.000000000               0.250000000              -0.500000000               0.000000000               0.038607862              -0.127273065               0.000000000               0.047913621              -0.150568498               0.000000000               0.057219379              -0.173863932               0.000000000               0.066525138              -0.197159365               0.000000000               0.075830897              -0.220454798               0.000000000               0.085136655              -0.243750232               0.000000000               0.094442414              -0.267045665               0.000000000               0.103748172              -0.290341099               0.000000000               0.113053931              -0.313636532               0.000000000               0.122359690              -0.336931966               0.000000000               0.131665448              -0.360227399               0.000000000               0.140971207              -0.383522833               0.000000000               0.150276966              -0.406818266               0.000000000               0.159582724              -0.430113700               0.000000000               0.168888483              -0.453409133               0.000000000               0.178194241              -0.476704567               0.000000000               0.187500000              -0.500000000               0.000000000               0.025947013              -0.130444442               0.000000000               0.032137825              -0.153541665               0.000000000               0.038328636              -0.176638887               0.000000000               0.044519448              -0.199736109               0.000000000               0.050710260              -0.222833332               0.000000000               0.056901071              -0.245930554               0.000000000               0.063091883              -0.269027776               0.000000000               0.069282695              -0.292124999               0.000000000               0.075473506              -0.315222221               0.000000000               0.081664318              -0.338319444               0.000000000               0.087855130              -0.361416666               0.000000000               0.094045942              -0.384513888               0.000000000               0.100236753              -0.407611111               0.000000000               0.106427565              -0.430708333               0.000000000               0.112618377              -0.453805555               0.000000000               0.118809188              -0.476902778               0.000000000               0.125000000              -0.500000000               0.000000000               0.013036280              -0.132359569               0.000000000               0.016127762              -0.155337096               0.000000000               0.019219245              -0.178314623               0.000000000               0.022310727              -0.201292150               0.000000000               0.025402210              -0.224269676               0.000000000               0.028493692              -0.247247203               0.000000000               0.031585175              -0.270224730               0.000000000               0.034676657              -0.293202257               0.000000000               0.037768140              -0.316179784               0.000000000               0.040859622              -0.339157311               0.000000000               0.043951105              -0.362134838               0.000000000               0.047042587              -0.385112365               0.000000000               0.050134070              -0.408089892               0.000000000               0.053225552              -0.431067419               0.000000000               0.056317035              -0.454044946               0.000000000               0.059408517              -0.477022473               0.000000000               0.062500000              -0.500000000               0.000000000               0.000000000              -0.133000000               0.000000000               0.000000000              -0.155937500               0.000000000               0.000000000              -0.178875000               0.000000000               0.000000000              -0.201812500               0.000000000               0.000000000              -0.224750000               0.000000000               0.000000000              -0.247687500               0.000000000               0.000000000              -0.270625000               0.000000000               0.000000000              -0.293562500               0.000000000               0.000000000              -0.316500000               0.000000000               0.000000000              -0.339437500               0.000000000               0.000000000              -0.362375000               0.000000000               0.000000000              -0.385312500               0.000000000               0.000000000              -0.408250000               0.000000000               0.000000000              -0.431187500               0.000000000               0.000000000              -0.454125000               0.000000000               0.000000000              -0.477062500               0.000000000               0.000000000              -0.500000000               0.000000000              -0.133000000               0.000000000               0.000000000              -0.155937500               0.000000000               0.000000000              -0.178875000               0.000000000               0.000000000              -0.201812500               0.000000000               0.000000000              -0.224750000               0.000000000               0.000000000              -0.247687500               0.000000000               0.000000000              -0.270625000               0.000000000               0.000000000              -0.293562500               0.000000000               0.000000000              -0.316500000               0.000000000               0.000000000              -0.339437500               0.000000000               0.000000000              -0.362375000               0.000000000               0.000000000              -0.385312500               0.000000000               0.000000000              -0.408250000               0.000000000               0.000000000              -0.431187500               0.000000000               0.000000000              -0.454125000               0.000000000               0.000000000              -0.477062500               0.000000000               0.000000000              -0.500000000               0.000000000               0.000000000              -0.132359569              -0.013036280               0.000000000              -0.155337096              -0.016127762               0.000000000              -0.178314623              -0.019219245               0.000000000              -0.201292150              -0.022310727               0.000000000              -0.224269676              -0.025402210               0.000000000              -0.247247203              -0.028493692               0.000000000              -0.270224730              -0.031585175               0.000000000              -0.293202257              -0.034676657               0.000000000              -0.316179784              -0.037768140               0.000000000              -0.339157311              -0.040859622               0.000000000              -0.362134838              -0.043951105               0.000000000              -0.385112365              -0.047042587               0.000000000              -0.408089892              -0.050134070               0.000000000              -0.431067419              -0.053225552               0.000000000              -0.454044946              -0.056317035               0.000000000              -0.477022473              -0.059408517               0.000000000              -0.500000000              -0.062500000               0.000000000              -0.130444442              -0.025947013               0.000000000              -0.153541665              -0.032137825               0.000000000              -0.176638887              -0.038328636               0.000000000              -0.199736109              -0.044519448               0.000000000              -0.222833332              -0.050710260               0.000000000              -0.245930554              -0.056901071               0.000000000              -0.269027776              -0.063091883               0.000000000              -0.292124999              -0.069282695               0.000000000              -0.315222221              -0.075473506               0.000000000              -0.338319444              -0.081664318               0.000000000              -0.361416666              -0.087855130               0.000000000              -0.384513888              -0.094045942               0.000000000              -0.407611111              -0.100236753               0.000000000              -0.430708333              -0.106427565               0.000000000              -0.453805555              -0.112618377               0.000000000              -0.476902778              -0.118809188               0.000000000              -0.500000000              -0.125000000               0.000000000              -0.127273065              -0.038607862               0.000000000              -0.150568498              -0.047913621               0.000000000              -0.173863932              -0.057219379               0.000000000              -0.197159365              -0.066525138               0.000000000              -0.220454798              -0.075830897               0.000000000              -0.243750232              -0.085136655               0.000000000              -0.267045665              -0.094442414               0.000000000              -0.290341099              -0.103748172               0.000000000              -0.313636532              -0.113053931               0.000000000              -0.336931966              -0.122359690               0.000000000              -0.360227399              -0.131665448               0.000000000              -0.383522833              -0.140971207               0.000000000              -0.406818266              -0.150276966               0.000000000              -0.430113700              -0.159582724               0.000000000              -0.453409133              -0.168888483               0.000000000              -0.476704567              -0.178194241               0.000000000              -0.500000000              -0.187500000               0.000000000              -0.122875978              -0.050896897               0.000000000              -0.146446229              -0.063340840               0.000000000              -0.170016481              -0.075784784               0.000000000              -0.193586732              -0.088228728               0.000000000              -0.217156983              -0.100672672               0.000000000              -0.240727235              -0.113116616               0.000000000              -0.264297486              -0.125560560               0.000000000              -0.287867738              -0.138004504               0.000000000              -0.311437989              -0.150448448               0.000000000              -0.335008240              -0.162892392               0.000000000              -0.358578492              -0.175336336               0.000000000              -0.382148743              -0.187780280               0.000000000              -0.405718994              -0.200224224               0.000000000              -0.429289246              -0.212668168               0.000000000              -0.452859497              -0.225112112               0.000000000              -0.476429749              -0.237556056               0.000000000              -0.500000000              -0.250000000               0.000000000              -0.117295528              -0.062695766               0.000000000              -0.141214558              -0.078308531               0.000000000              -0.165133587              -0.093921295               0.000000000              -0.189052617              -0.109534060               0.000000000              -0.212971646              -0.125146824               0.000000000              -0.236890676              -0.140759589               0.000000000              -0.260809705              -0.156372354               0.000000000              -0.284728735              -0.171985118               0.000000000              -0.308647764              -0.187597883               0.000000000              -0.332566794              -0.203210648               0.000000000              -0.356485823              -0.218823412               0.000000000              -0.380404853              -0.234436177               0.000000000              -0.404323882              -0.250048941               0.000000000              -0.428242912              -0.265661706               0.000000000              -0.452161941              -0.281274471               0.000000000              -0.476080971              -0.296887235               0.000000000              -0.500000000              -0.312500000               0.000000000              -0.110585458              -0.073890841               0.000000000              -0.134923867              -0.092710163               0.000000000              -0.159262276              -0.111529486               0.000000000              -0.183600685              -0.130348808               0.000000000              -0.207939094              -0.149168131               0.000000000              -0.232277503              -0.167987453               0.000000000              -0.256615912              -0.186806776               0.000000000              -0.280954320              -0.205626098               0.000000000              -0.305292729              -0.224445420               0.000000000              -0.329631138              -0.243264743               0.000000000              -0.353969547              -0.262084065               0.000000000              -0.378307956              -0.280903388               0.000000000              -0.402646365              -0.299722710               0.000000000              -0.426984773              -0.318542033               0.000000000              -0.451323182              -0.337361355               0.000000000              -0.475661591              -0.356180678               0.000000000              -0.500000000              -0.375000000               0.000000000              -0.102810390              -0.084374307               0.000000000              -0.127634741              -0.106444663               0.000000000              -0.152459092              -0.128515018               0.000000000              -0.177283442              -0.150585374               0.000000000              -0.202107793              -0.172655730               0.000000000              -0.226932143              -0.194726086               0.000000000              -0.251756494              -0.216796442               0.000000000              -0.276580845              -0.238866798               0.000000000              -0.301405195              -0.260937153               0.000000000              -0.326229546              -0.283007509               0.000000000              -0.351053896              -0.305077865               0.000000000              -0.375878247              -0.327148221               0.000000000              -0.400702598              -0.349218577               0.000000000              -0.425526948              -0.371288933               0.000000000              -0.450351299              -0.393359288               0.000000000              -0.475175649              -0.415429644               0.000000000              -0.500000000              -0.437500000               0.000000000              -0.094045202              -0.094045202               0.000000000              -0.119417377              -0.119417377               0.000000000              -0.144789552              -0.144789552               0.000000000              -0.170161727              -0.170161727               0.000000000              -0.195533901              -0.195533901               0.000000000              -0.220906076              -0.220906076               0.000000000              -0.246278251              -0.246278251               0.000000000              -0.271650426              -0.271650426               0.000000000              -0.297022601              -0.297022601               0.000000000              -0.322394776              -0.322394776               0.000000000              -0.347766951              -0.347766951               0.000000000              -0.373139126              -0.373139126               0.000000000              -0.398511300              -0.398511300               0.000000000              -0.423883475              -0.423883475               0.000000000              -0.449255650              -0.449255650               0.000000000              -0.474627825              -0.474627825               0.000000000              -0.500000000              -0.500000000               0.000000000              -0.084374307              -0.102810390               0.000000000              -0.106444663              -0.127634741               0.000000000              -0.128515018              -0.152459092               0.000000000              -0.150585374              -0.177283442               0.000000000              -0.172655730              -0.202107793               0.000000000              -0.194726086              -0.226932143               0.000000000              -0.216796442              -0.251756494               0.000000000              -0.238866798              -0.276580845               0.000000000              -0.260937153              -0.301405195               0.000000000              -0.283007509              -0.326229546               0.000000000              -0.305077865              -0.351053896               0.000000000              -0.327148221              -0.375878247               0.000000000              -0.349218577              -0.400702598               0.000000000              -0.371288933              -0.425526948               0.000000000              -0.393359288              -0.450351299               0.000000000              -0.415429644              -0.475175649               0.000000000              -0.437500000              -0.500000000               0.000000000              -0.073890841              -0.110585458               0.000000000              -0.092710163              -0.134923867               0.000000000              -0.111529486              -0.159262276               0.000000000              -0.130348808              -0.183600685               0.000000000              -0.149168131              -0.207939094               0.000000000              -0.167987453              -0.232277503               0.000000000              -0.186806776              -0.256615912               0.000000000              -0.205626098              -0.280954320               0.000000000              -0.224445420              -0.305292729               0.000000000              -0.243264743              -0.329631138               0.000000000              -0.262084065              -0.353969547               0.000000000              -0.280903388              -0.378307956               0.000000000              -0.299722710              -0.402646365               0.000000000              -0.318542033              -0.426984773               0.000000000              -0.337361355              -0.451323182               0.000000000              -0.356180678              -0.475661591               0.000000000              -0.375000000              -0.500000000               0.000000000              -0.062695766              -0.117295528               0.000000000              -0.078308531              -0.141214558               0.000000000              -0.093921295              -0.165133587               0.000000000              -0.109534060              -0.189052617               0.000000000              -0.125146824              -0.212971646               0.000000000              -0.140759589              -0.236890676               0.000000000              -0.156372354              -0.260809705               0.000000000              -0.171985118              -0.284728735               0.000000000              -0.187597883              -0.308647764               0.000000000              -0.203210648              -0.332566794               0.000000000              -0.218823412              -0.356485823               0.000000000              -0.234436177              -0.380404853               0.000000000              -0.250048941              -0.404323882               0.000000000              -0.265661706              -0.428242912               0.000000000              -0.281274471              -0.452161941               0.000000000              -0.296887235              -0.476080971               0.000000000              -0.312500000              -0.500000000               0.000000000              -0.050896897              -0.122875978               0.000000000              -0.063340840              -0.146446229               0.000000000              -0.075784784              -0.170016481               0.000000000              -0.088228728              -0.193586732               0.000000000              -0.100672672              -0.217156983               0.000000000              -0.113116616              -0.240727235               0.000000000              -0.125560560              -0.264297486               0.000000000              -0.138004504              -0.287867738               0.000000000              -0.150448448              -0.311437989               0.000000000              -0.162892392              -0.335008240               0.000000000              -0.175336336              -0.358578492               0.000000000              -0.187780280              -0.382148743               0.000000000              -0.200224224              -0.405718994               0.000000000              -0.212668168              -0.429289246               0.000000000              -0.225112112              -0.452859497               0.000000000              -0.237556056              -0.476429749               0.000000000              -0.250000000              -0.500000000               0.000000000              -0.038607862              -0.127273065               0.000000000              -0.047913621              -0.150568498               0.000000000              -0.057219379              -0.173863932               0.000000000              -0.066525138              -0.197159365               0.000000000              -0.075830897              -0.220454798               0.000000000              -0.085136655              -0.243750232               0.000000000              -0.094442414              -0.267045665               0.000000000              -0.103748172              -0.290341099               0.000000000              -0.113053931              -0.313636532               0.000000000              -0.122359690              -0.336931966               0.000000000              -0.131665448              -0.360227399               0.000000000              -0.140971207              -0.383522833               0.000000000              -0.150276966              -0.406818266               0.000000000              -0.159582724              -0.430113700               0.000000000              -0.168888483              -0.453409133               0.000000000              -0.178194241              -0.476704567               0.000000000              -0.187500000              -0.500000000               0.000000000              -0.025947013              -0.130444442               0.000000000              -0.032137825              -0.153541665               0.000000000              -0.038328636              -0.176638887               0.000000000              -0.044519448              -0.199736109               0.000000000              -0.050710260              -0.222833332               0.000000000              -0.056901071              -0.245930554               0.000000000              -0.063091883              -0.269027776               0.000000000              -0.069282695              -0.292124999               0.000000000              -0.075473506              -0.315222221               0.000000000              -0.081664318              -0.338319444               0.000000000              -0.087855130              -0.361416666               0.000000000              -0.094045942              -0.384513888               0.000000000              -0.100236753              -0.407611111               0.000000000              -0.106427565              -0.430708333               0.000000000              -0.112618377              -0.453805555               0.000000000              -0.118809188              -0.476902778               0.000000000              -0.125000000              -0.500000000               0.000000000              -0.013036280              -0.132359569               0.000000000              -0.016127762              -0.155337096               0.000000000              -0.019219245              -0.178314623               0.000000000              -0.022310727              -0.201292150               0.000000000              -0.025402210              -0.224269676               0.000000000              -0.028493692              -0.247247203               0.000000000              -0.031585175              -0.270224730               0.000000000              -0.034676657              -0.293202257               0.000000000              -0.037768140              -0.316179784               0.000000000              -0.040859622              -0.339157311               0.000000000              -0.043951105              -0.362134838               0.000000000              -0.047042587              -0.385112365               0.000000000              -0.050134070              -0.408089892               0.000000000              -0.053225552              -0.431067419               0.000000000              -0.056317035              -0.454044946               0.000000000              -0.059408517              -0.477022473               0.000000000              -0.062500000              -0.500000000               0.000000000               0.000000000              -0.133000000               0.000000000               0.000000000              -0.155937500               0.000000000               0.000000000              -0.178875000               0.000000000               0.000000000              -0.201812500               0.000000000               0.000000000              -0.224750000               0.000000000               0.000000000              -0.247687500               0.000000000               0.000000000              -0.270625000               0.000000000               0.000000000              -0.293562500               0.000000000               0.000000000              -0.316500000               0.000000000               0.000000000              -0.339437500               0.000000000               0.000000000              -0.362375000               0.000000000               0.000000000              -0.385312500               0.000000000               0.000000000              -0.408250000               0.000000000               0.000000000              -0.431187500               0.000000000               0.000000000              -0.454125000               0.000000000               0.000000000              -0.477062500               0.000000000               0.000000000              -0.500000000               0.000000000              -0.133000000               0.000000000               0.000000000              -0.155937500               0.000000000               0.000000000              -0.178875000               0.000000000               0.000000000              -0.201812500               0.000000000               0.000000000              -0.224750000               0.000000000               0.000000000              -0.247687500               0.000000000               0.000000000              -0.270625000               0.000000000               0.000000000              -0.293562500               0.000000000               0.000000000              -0.316500000               0.000000000               0.000000000              -0.339437500               0.000000000               0.000000000              -0.362375000               0.000000000               0.000000000              -0.385312500               0.000000000               0.000000000              -0.408250000               0.000000000               0.000000000              -0.431187500               0.000000000               0.000000000              -0.454125000               0.000000000               0.000000000              -0.477062500               0.000000000               0.000000000              -0.500000000               0.000000000               0.000000000              -0.132359569               0.013036280               0.000000000              -0.155337096               0.016127762               0.000000000              -0.178314623               0.019219245               0.000000000              -0.201292150               0.022310727               0.000000000              -0.224269676               0.025402210               0.000000000              -0.247247203               0.028493692               0.000000000              -0.270224730               0.031585175               0.000000000              -0.293202257               0.034676657               0.000000000              -0.316179784               0.037768140               0.000000000              -0.339157311               0.040859622               0.000000000              -0.362134838               0.043951105               0.000000000              -0.385112365               0.047042587               0.000000000              -0.408089892               0.050134070               0.000000000              -0.431067419               0.053225552               0.000000000              -0.454044946               0.056317035               0.000000000              -0.477022473               0.059408517               0.000000000              -0.500000000               0.062500000               0.000000000              -0.130444442               0.025947013               0.000000000              -0.153541665               0.032137825               0.000000000              -0.176638887               0.038328636               0.000000000              -0.199736109               0.044519448               0.000000000              -0.222833332               0.050710260               0.000000000              -0.245930554               0.056901071               0.000000000              -0.269027776               0.063091883               0.000000000              -0.292124999               0.069282695               0.000000000              -0.315222221               0.075473506               0.000000000              -0.338319444               0.081664318               0.000000000              -0.361416666               0.087855130               0.000000000              -0.384513888               0.094045942               0.000000000              -0.407611111               0.100236753               0.000000000              -0.430708333               0.106427565               0.000000000              -0.453805555               0.112618377               0.000000000              -0.476902778               0.118809188               0.000000000              -0.500000000               0.125000000               0.000000000              -0.127273065               0.038607862               0.000000000              -0.150568498               0.047913621               0.000000000              -0.173863932               0.057219379               0.000000000              -0.197159365               0.066525138               0.000000000              -0.220454798               0.075830897               0.000000000              -0.243750232               0.085136655               0.000000000              -0.267045665               0.094442414               0.000000000              -0.290341099               0.103748172               0.000000000              -0.313636532               0.113053931               0.000000000              -0.336931966               0.122359690               0.000000000              -0.360227399               0.131665448               0.000000000              -0.383522833               0.140971207               0.000000000              -0.406818266               0.150276966               0.000000000              -0.430113700               0.159582724               0.000000000              -0.453409133               0.168888483               0.000000000              -0.476704567               0.178194241               0.000000000              -0.500000000               0.187500000               0.000000000              -0.122875978               0.050896897               0.000000000              -0.146446229               0.063340840               0.000000000              -0.170016481               0.075784784               0.000000000              -0.193586732               0.088228728               0.000000000              -0.217156983               0.100672672               0.000000000              -0.240727235               0.113116616               0.000000000              -0.264297486               0.125560560               0.000000000              -0.287867738               0.138004504               0.000000000              -0.311437989               0.150448448               0.000000000              -0.335008240               0.162892392               0.000000000              -0.358578492               0.175336336               0.000000000              -0.382148743               0.187780280               0.000000000              -0.405718994               0.200224224               0.000000000              -0.429289246               0.212668168               0.000000000              -0.452859497               0.225112112               0.000000000              -0.476429749               0.237556056               0.000000000              -0.500000000               0.250000000               0.000000000              -0.117295528               0.062695766               0.000000000              -0.141214558               0.078308531               0.000000000              -0.165133587               0.093921295               0.000000000              -0.189052617               0.109534060               0.000000000              -0.212971646               0.125146824               0.000000000              -0.236890676               0.140759589               0.000000000              -0.260809705               0.156372354               0.000000000              -0.284728735               0.171985118               0.000000000              -0.308647764               0.187597883               0.000000000              -0.332566794               0.203210648               0.000000000              -0.356485823               0.218823412               0.000000000              -0.380404853               0.234436177               0.000000000              -0.404323882               0.250048941               0.000000000              -0.428242912               0.265661706               0.000000000              -0.452161941               0.281274471               0.000000000              -0.476080971               0.296887235               0.000000000              -0.500000000               0.312500000               0.000000000              -0.110585458               0.073890841               0.000000000              -0.134923867               0.092710163               0.000000000              -0.159262276               0.111529486               0.000000000              -0.183600685               0.130348808               0.000000000              -0.207939094               0.149168131               0.000000000              -0.232277503               0.167987453               0.000000000              -0.256615912               0.186806776               0.000000000              -0.280954320               0.205626098               0.000000000              -0.305292729               0.224445420               0.000000000              -0.329631138               0.243264743               0.000000000              -0.353969547               0.262084065               0.000000000              -0.378307956               0.280903388               0.000000000              -0.402646365               0.299722710               0.000000000              -0.426984773               0.318542033               0.000000000              -0.451323182               0.337361355               0.000000000              -0.475661591               0.356180678               0.000000000              -0.500000000               0.375000000               0.000000000              -0.102810390               0.084374307               0.000000000              -0.127634741               0.106444663               0.000000000              -0.152459092               0.128515018               0.000000000              -0.177283442               0.150585374               0.000000000              -0.202107793               0.172655730               0.000000000              -0.226932143               0.194726086               0.000000000              -0.251756494               0.216796442               0.000000000              -0.276580845               0.238866798               0.000000000              -0.301405195               0.260937153               0.000000000              -0.326229546               0.283007509               0.000000000              -0.351053896               0.305077865               0.000000000              -0.375878247               0.327148221               0.000000000              -0.400702598               0.349218577               0.000000000              -0.425526948               0.371288933               0.000000000              -0.450351299               0.393359288               0.000000000              -0.475175649               0.415429644               0.000000000              -0.500000000               0.437500000               0.000000000              -0.094045202               0.094045202               0.000000000              -0.119417377               0.119417377               0.000000000              -0.144789552               0.144789552               0.000000000              -0.170161727               0.170161727               0.000000000              -0.195533901               0.195533901               0.000000000              -0.220906076               0.220906076               0.000000000              -0.246278251               0.246278251               0.000000000              -0.271650426               0.271650426               0.000000000              -0.297022601               0.297022601               0.000000000              -0.322394776               0.322394776               0.000000000              -0.347766951               0.347766951               0.000000000              -0.373139126               0.373139126               0.000000000              -0.398511300               0.398511300               0.000000000              -0.423883475               0.423883475               0.000000000              -0.449255650               0.449255650               0.000000000              -0.474627825               0.474627825               0.000000000              -0.500000000               0.500000000               0.000000000              -0.084374307               0.102810390               0.000000000              -0.106444663               0.127634741               0.000000000              -0.128515018               0.152459092               0.000000000              -0.150585374               0.177283442               0.000000000              -0.172655730               0.202107793               0.000000000              -0.194726086               0.226932143               0.000000000              -0.216796442               0.251756494               0.000000000              -0.238866798               0.276580845               0.000000000              -0.260937153               0.301405195               0.000000000              -0.283007509               0.326229546               0.000000000              -0.305077865               0.351053896               0.000000000              -0.327148221               0.375878247               0.000000000              -0.349218577               0.400702598               0.000000000              -0.371288933               0.425526948               0.000000000              -0.393359288               0.450351299               0.000000000              -0.415429644               0.475175649               0.000000000              -0.437500000               0.500000000               0.000000000              -0.073890841               0.110585458               0.000000000              -0.092710163               0.134923867               0.000000000              -0.111529486               0.159262276               0.000000000              -0.130348808               0.183600685               0.000000000              -0.149168131               0.207939094               0.000000000              -0.167987453               0.232277503               0.000000000              -0.186806776               0.256615912               0.000000000              -0.205626098               0.280954320               0.000000000              -0.224445420               0.305292729               0.000000000              -0.243264743               0.329631138               0.000000000              -0.262084065               0.353969547               0.000000000              -0.280903388               0.378307956               0.000000000              -0.299722710               0.402646365               0.000000000              -0.318542033               0.426984773               0.000000000              -0.337361355               0.451323182               0.000000000              -0.356180678               0.475661591               0.000000000              -0.375000000               0.500000000               0.000000000              -0.062695766               0.117295528               0.000000000              -0.078308531               0.141214558               0.000000000              -0.093921295               0.165133587               0.000000000              -0.109534060               0.189052617               0.000000000              -0.125146824               0.212971646               0.000000000              -0.140759589               0.236890676               0.000000000              -0.156372354               0.260809705               0.000000000              -0.171985118               0.284728735               0.000000000              -0.187597883               0.308647764               0.000000000              -0.203210648               0.332566794               0.000000000              -0.218823412               0.356485823               0.000000000              -0.234436177               0.380404853               0.000000000              -0.250048941               0.404323882               0.000000000              -0.265661706               0.428242912               0.000000000              -0.281274471               0.452161941               0.000000000              -0.296887235               0.476080971               0.000000000              -0.312500000               0.500000000               0.000000000              -0.050896897               0.122875978               0.000000000              -0.063340840               0.146446229               0.000000000              -0.075784784               0.170016481               0.000000000              -0.088228728               0.193586732               0.000000000              -0.100672672               0.217156983               0.000000000              -0.113116616               0.240727235               0.000000000              -0.125560560               0.264297486               0.000000000              -0.138004504               0.287867738               0.000000000              -0.150448448               0.311437989               0.000000000              -0.162892392               0.335008240               0.000000000              -0.175336336               0.358578492               0.000000000              -0.187780280               0.382148743               0.000000000              -0.200224224               0.405718994               0.000000000              -0.212668168               0.429289246               0.000000000              -0.225112112               0.452859497               0.000000000              -0.237556056               0.476429749               0.000000000              -0.250000000               0.500000000               0.000000000              -0.038607862               0.127273065               0.000000000              -0.047913621               0.150568498               0.000000000              -0.057219379               0.173863932               0.000000000              -0.066525138               0.197159365               0.000000000              -0.075830897               0.220454798               0.000000000              -0.085136655               0.243750232               0.000000000              -0.094442414               0.267045665               0.000000000              -0.103748172               0.290341099               0.000000000              -0.113053931               0.313636532               0.000000000              -0.122359690               0.336931966               0.000000000              -0.131665448               0.360227399               0.000000000              -0.140971207               0.383522833               0.000000000              -0.150276966               0.406818266               0.000000000              -0.159582724               0.430113700               0.000000000              -0.168888483               0.453409133               0.000000000              -0.178194241               0.476704567               0.000000000              -0.187500000               0.500000000               0.000000000              -0.025947013               0.130444442               0.000000000              -0.032137825               0.153541665               0.000000000              -0.038328636               0.176638887               0.000000000              -0.044519448               0.199736109               0.000000000              -0.050710260               0.222833332               0.000000000              -0.056901071               0.245930554               0.000000000              -0.063091883               0.269027776               0.000000000              -0.069282695               0.292124999               0.000000000              -0.075473506               0.315222221               0.000000000              -0.081664318               0.338319444               0.000000000              -0.087855130               0.361416666               0.000000000              -0.094045942               0.384513888               0.000000000              -0.100236753               0.407611111               0.000000000              -0.106427565               0.430708333               0.000000000              -0.112618377               0.453805555               0.000000000              -0.118809188               0.476902778               0.000000000              -0.125000000               0.500000000               0.000000000              -0.013036280               0.132359569               0.000000000              -0.016127762               0.155337096               0.000000000              -0.019219245               0.178314623               0.000000000              -0.022310727               0.201292150               0.000000000              -0.025402210               0.224269676               0.000000000              -0.028493692               0.247247203               0.000000000              -0.031585175               0.270224730               0.000000000              -0.034676657               0.293202257               0.000000000              -0.037768140               0.316179784               0.000000000              -0.040859622               0.339157311               0.000000000              -0.043951105               0.362134838               0.000000000              -0.047042587               0.385112365               0.000000000              -0.050134070               0.408089892               0.000000000              -0.053225552               0.431067419               0.000000000              -0.056317035               0.454044946               0.000000000              -0.059408517               0.477022473               0.000000000              -0.062500000               0.500000000               0.000000000               0.000000000               0.133000000               0.000000000               0.000000000               0.155937500               0.000000000               0.000000000               0.178875000               0.000000000               0.000000000               0.201812500               0.000000000               0.000000000               0.224750000               0.000000000               0.000000000               0.247687500               0.000000000               0.000000000               0.270625000               0.000000000               0.000000000               0.293562500               0.000000000               0.000000000               0.316500000               0.000000000               0.000000000               0.339437500               0.000000000               0.000000000               0.362375000               0.000000000               0.000000000               0.385312500               0.000000000               0.000000000               0.408250000               0.000000000               0.000000000               0.431187500               0.000000000               0.000000000               0.454125000               0.000000000               0.000000000               0.477062500               0.000000000               0.000000000               0.500000000               0.000000000 </DataArray>
</Points>
<Cells>
<DataArray type="Int32"                                    Name="connectivity"                                                      NumberOfComponents=" 1" format="ascii">
         0          1         18         17          1          2         19         18          2          3         20         19          3          4         21         20          4          5         22         21          5          6         23         22          6          7         24         23          7          8         25         24          8          9         26         25          9         10         27         26         10         11         28         27         11         12         29         28         12         13         30         29         13         14         31         30         14         15         32         31         15         16         33         32         17         18         35         34         18         19         36         35         19         20         37         36         20         21         38         37         21         22         39         38         22         23         40         39         23         24         41         40         24         25         42         41         25         26         43         42         26         27         44         43         27         28         45         44         28         29         46         45         29         30         47         46         30         31         48         47         31         32         49         48         32         33         50         49         34         35         52         51         35         36         53         52         36         37         54         53         37         38         55         54         38         39         56         55         39         40         57         56         40         41         58         57         41         42         59         58         42         43         60         59         43         44         61         60         44         45         62         61         45         46         63         62         46         47         64         63         47         48         65         64         48         49         66         65         49         50         67         66         51         52         69         68         52         53         70         69         53         54         71         70         54         55         72         71         55         56         73         72         56         57         74         73         57         58         75         74         58         59         76         75         59         60         77         76         60         61         78         77         61         62         79         78         62         63         80         79         63         64         81         80         64         65         82         81         65         66         83         82         66         67         84         83         68         69         86         85         69         70         87         86         70         71         88         87         71         72         89         88         72         73         90         89         73         74         91         90         74         75         92         91         75         76         93         92         76         77         94         93         77         78         95         94         78         79         96         95         79         80         97         96         80         81         98         97         81         82         99         98         82         83        100         99         83         84        101        100         85         86        103        102         86         87        104        103         87         88        105        104         88         89        106        105         89         90        107        106         90         91        108        107         91         92        109        108         92         93        110        109         93         94        111        110         94         95        112        111         95         96        113        112         96         97        114        113         97         98        115        114         98         99        116        115         99        100        117        116        100        101        118        117        102        103        120        119        103        104        121        120        104        105        122        121        105        106        123        122        106        107        124        123        107        108        125        124        108        109        126        125        109        110        127        126        110        111        128        127        111        112        129        128        112        113        130        129        113        114        131        130        114        115        132        131        115        116        133        132        116        117        134        133        117        118        135        134        119        120        137        136        120        121        138        137        121        122        139        138        122        123        140        139        123        124        141        140        124        125        142        141        125        126        143        142        126        127        144        143        127        128        145        144        128        129        146        145        129        130        147        146        130        131        148        147        131        132        149        148        132        133        150        149        133        134        151        150        134        135        152        151        136        137        154        153        137        138        155        154        138        139        156        155        139        140        157        156        140        141        158        157        141        142        159        158        142        143        160        159        143        144        161        160        144        145        162        161        145        146        163        162        146        147        164        163        147        148        165        164        148        149        166        165        149        150        167        166        150        151        168        167        151        152        169        168        153        154        171        170        154        155        172        171        155        156        173        172        156        157        174        173        157        158        175        174        158        159        176        175        159        160        177        176        160        161        178        177        161        162        179        178        162        163        180        179        163        164        181        180        164        165        182        181        165        166        183        182        166        167        184        183        167        168        185        184        168        169        186        185        170        171        188        187        171        172        189        188        172        173        190        189        173        174        191        190        174        175        192        191        175        176        193        192        176        177        194        193        177        178        195        194        178        179        196        195        179        180        197        196        180        181        198        197        181        182        199        198        182        183        200        199        183        184        201        200        184        185        202        201        185        186        203        202        187        188        205        204        188        189        206        205        189        190        207        206        190        191        208        207        191        192        209        208        192        193        210        209        193        194        211        210        194        195        212        211        195        196        213        212        196        197        214        213        197        198        215        214        198        199        216        215        199        200        217        216        200        201        218        217        201        202        219        218        202        203        220        219        204        205        222        221        205        206        223        222        206        207        224        223        207        208        225        224        208        209        226        225        209        210        227        226        210        211        228        227        211        212        229        228        212        213        230        229        213        214        231        230        214        215        232        231        215        216        233        232        216        217        234        233        217        218        235        234        218        219        236        235        219        220        237        236        221        222        239        238        222        223        240        239        223        224        241        240        224        225        242        241        225        226        243        242        226        227        244        243        227        228        245        244        228        229        246        245        229        230        247        246        230        231        248        247        231        232        249        248        232        233        250        249        233        234        251        250        234        235        252        251        235        236        253        252        236        237        254        253        238        239        256        255        239        240        257        256        240        241        258        257        241        242        259        258        242        243        260        259        243        244        261        260        244        245        262        261        245        246        263        262        246        247        264        263        247        248        265        264        248        249        266        265        249        250        267        266        250        251        268        267        251        252        269        268        252        253        270        269        253        254        271        270        255        256        273        272        256        257        274        273        257        258        275        274        258        259        276        275        259        260        277        276        260        261        278        277        261        262        279        278        262        263        280        279        263        264        281        280        264        265        282        281        265        266        283        282        266        267        284        283        267        268        285        284        268        269        286        285        269        270        287        286        270        271        288        287        306        307          1          0        307        308          2          1        308        309          3          2        309        310          4          3        310        311          5          4        311        312          6          5        312        313          7          6        313        314          8          7        314        315          9          8        315        316         10          9        316        317         11         10        317        318         12         11        318        319         13         12        319        320         14         13        320        321         15         14        321        322         16         15        323        324        307        306        324        325        308        307        325        326        309        308        326        327        310        309        327        328        311        310        328        329        312        311        329        330        313        312        330        331        314        313        331        332        315        314        332        333        316        315        333        334        317        316        334        335        318        317        335        336        319        318        336        337        320        319        337        338        321        320        338        339        322        321        340        341        324        323        341        342        325        324        342        343        326        325        343        344        327        326        344        345        328        327        345        346        329        328        346        347        330        329        347        348        331        330        348        349        332        331        349        350        333        332        350        351        334        333        351        352        335        334        352        353        336        335        353        354        337        336        354        355        338        337        355        356        339        338        357        358        341        340        358        359        342        341        359        360        343        342        360        361        344        343        361        362        345        344        362        363        346        345        363        364        347        346        364        365        348        347        365        366        349        348        366        367        350        349        367        368        351        350        368        369        352        351        369        370        353        352        370        371        354        353        371        372        355        354        372        373        356        355        374        375        358        357        375        376        359        358        376        377        360        359        377        378        361        360        378        379        362        361        379        380        363        362        380        381        364        363        381        382        365        364        382        383        366        365        383        384        367        366        384        385        368        367        385        386        369        368        386        387        370        369        387        388        371        370        388        389        372        371        389        390        373        372        391        392        375        374        392        393        376        375        393        394        377        376        394        395        378        377        395        396        379        378        396        397        380        379        397        398        381        380        398        399        382        381        399        400        383        382        400        401        384        383        401        402        385        384        402        403        386        385        403        404        387        386        404        405        388        387        405        406        389        388        406        407        390        389        408        409        392        391        409        410        393        392        410        411        394        393        411        412        395        394        412        413        396        395        413        414        397        396        414        415        398        397        415        416        399        398        416        417        400        399        417        418        401        400        418        419        402        401        419        420        403        402        420        421        404        403        421        422        405        404        422        423        406        405        423        424        407        406        425        426        409        408        426        427        410        409        427        428        411        410        428        429        412        411        429        430        413        412        430        431        414        413        431        432        415        414        432        433        416        415        433        434        417        416        434        435        418        417        435        436        419        418        436        437        420        419        437        438        421        420        438        439        422        421        439        440        423        422        440        441        424        423        442        443        426        425        443        444        427        426        444        445        428        427        445        446        429        428        446        447        430        429        447        448        431        430        448        449        432        431        449        450        433        432        450        451        434        433        451        452        435        434        452        453        436        435        453        454        437        436        454        455        438        437        455        456        439        438        456        457        440        439        457        458        441        440        459        460        443        442        460        461        444        443        461        462        445        444        462        463        446        445        463        464        447        446        464        465        448        447        465        466        449        448        466        467        450        449        467        468        451        450        468        469        452        451        469        470        453        452        470        471        454        453        471        472        455        454        472        473        456        455        473        474        457        456        474        475        458        457        476        477        460        459        477        478        461        460        478        479        462        461        479        480        463        462        480        481        464        463        481        482        465        464        482        483        466        465        483        484        467        466        484        485        468        467        485        486        469        468        486        487        470        469        487        488        471        470        488        489        472        471        489        490        473        472        490        491        474        473        491        492        475        474        493        494        477        476        494        495        478        477        495        496        479        478        496        497        480        479        497        498        481        480        498        499        482        481        499        500        483        482        500        501        484        483        501        502        485        484        502        503        486        485        503        504        487        486        504        505        488        487        505        506        489        488        506        507        490        489        507        508        491        490        508        509        492        491        510        511        494        493        511        512        495        494        512        513        496        495        513        514        497        496        514        515        498        497        515        516        499        498        516        517        500        499        517        518        501        500        518        519        502        501        519        520        503        502        520        521        504        503        521        522        505        504        522        523        506        505        523        524        507        506        524        525        508        507        525        526        509        508        527        528        511        510        528        529        512        511        529        530        513        512        530        531        514        513        531        532        515        514        532        533        516        515        533        534        517        516        534        535        518        517        535        536        519        518        536        537        520        519        537        538        521        520        538        539        522        521        539        540        523        522        540        541        524        523        541        542        525        524        542        543        526        525        544        545        528        527        545        546        529        528        546        547        530        529        547        548        531        530        548        549        532        531        549        550        533        532        550        551        534        533        551        552        535        534        552        553        536        535        553        554        537        536        554        555        538        537        555        556        539        538        556        557        540        539        557        558        541        540        558        559        542        541        559        560        543        542        561        562        545        544        562        563        546        545        563        564        547        546        564        565        548        547        565        566        549        548        566        567        550        549        567        568        551        550        568        569        552        551        569        570        553        552        570        571        554        553        571        572        555        554        572        573        556        555        573        574        557        556        574        575        558        557        575        576        559        558        576        577        560        559        578        579        596        595        579        580        597        596        580        581        598        597        581        582        599        598        582        583        600        599        583        584        601        600        584        585        602        601        585        586        603        602        586        587        604        603        587        588        605        604        588        589        606        605        589        590        607        606        590        591        608        607        591        592        609        608        592        593        610        609        593        594        611        610        595        596        613        612        596        597        614        613        597        598        615        614        598        599        616        615        599        600        617        616        600        601        618        617        601        602        619        618        602        603        620        619        603        604        621        620        604        605        622        621        605        606        623        622        606        607        624        623        607        608        625        624        608        609        626        625        609        610        627        626        610        611        628        627        612        613        630        629        613        614        631        630        614        615        632        631        615        616        633        632        616        617        634        633        617        618        635        634        618        619        636        635        619        620        637        636        620        621        638        637        621        622        639        638        622        623        640        639        623        624        641        640        624        625        642        641        625        626        643        642        626        627        644        643        627        628        645        644        629        630        647        646        630        631        648        647        631        632        649        648        632        633        650        649        633        634        651        650        634        635        652        651        635        636        653        652        636        637        654        653        637        638        655        654        638        639        656        655        639        640        657        656        640        641        658        657        641        642        659        658        642        643        660        659        643        644        661        660        644        645        662        661        646        647        664        663        647        648        665        664        648        649        666        665        649        650        667        666        650        651        668        667        651        652        669        668        652        653        670        669        653        654        671        670        654        655        672        671        655        656        673        672        656        657        674        673        657        658        675        674        658        659        676        675        659        660        677        676        660        661        678        677        661        662        679        678        663        664        681        680        664        665        682        681        665        666        683        682        666        667        684        683        667        668        685        684        668        669        686        685        669        670        687        686        670        671        688        687        671        672        689        688        672        673        690        689        673        674        691        690        674        675        692        691        675        676        693        692        676        677        694        693        677        678        695        694        678        679        696        695        680        681        698        697        681        682        699        698        682        683        700        699        683        684        701        700        684        685        702        701        685        686        703        702        686        687        704        703        687        688        705        704        688        689        706        705        689        690        707        706        690        691        708        707        691        692        709        708        692        693        710        709        693        694        711        710        694        695        712        711        695        696        713        712        697        698        715        714        698        699        716        715        699        700        717        716        700        701        718        717        701        702        719        718        702        703        720        719        703        704        721        720        704        705        722        721        705        706        723        722        706        707        724        723        707        708        725        724        708        709        726        725        709        710        727        726        710        711        728        727        711        712        729        728        712        713        730        729        714        715        732        731        715        716        733        732        716        717        734        733        717        718        735        734        718        719        736        735        719        720        737        736        720        721        738        737        721        722        739        738        722        723        740        739        723        724        741        740        724        725        742        741        725        726        743        742        726        727        744        743        727        728        745        744        728        729        746        745        729        730        747        746        731        732        749        748        732        733        750        749        733        734        751        750        734        735        752        751        735        736        753        752        736        737        754        753        737        738        755        754        738        739        756        755        739        740        757        756        740        741        758        757        741        742        759        758        742        743        760        759        743        744        761        760        744        745        762        761        745        746        763        762        746        747        764        763        748        749        766        765        749        750        767        766        750        751        768        767        751        752        769        768        752        753        770        769        753        754        771        770        754        755        772        771        755        756        773        772        756        757        774        773        757        758        775        774        758        759        776        775        759        760        777        776        760        761        778        777        761        762        779        778        762        763        780        779        763        764        781        780        765        766        783        782        766        767        784        783        767        768        785        784        768        769        786        785        769        770        787        786        770        771        788        787        771        772        789        788        772        773        790        789        773        774        791        790        774        775        792        791        775        776        793        792        776        777        794        793        777        778        795        794        778        779        796        795        779        780        797        796        780        781        798        797        782        783        800        799        783        784        801        800        784        785        802        801        785        786        803        802        786        787        804        803        787        788        805        804        788        789        806        805        789        790        807        806        790        791        808        807        791        792        809        808        792        793        810        809        793        794        811        810        794        795        812        811        795        796        813        812        796        797        814        813        797        798        815        814        799        800        817        816        800        801        818        817        801        802        819        818        802        803        820        819        803        804        821        820        804        805        822        821        805        806        823        822        806        807        824        823        807        808        825        824        808        809        826        825        809        810        827        826        810        811        828        827        811        812        829        828        812        813        830        829        813        814        831        830        814        815        832        831        816        817        834        833        817        818        835        834        818        819        836        835        819        820        837        836        820        821        838        837        821        822        839        838        822        823        840        839        823        824        841        840        824        825        842        841        825        826        843        842        826        827        844        843        827        828        845        844        828        829        846        845        829        830        847        846        830        831        848        847        831        832        849        848        833        834        562        561        834        835        563        562        835        836        564        563        836        837        565        564        837        838        566        565        838        839        567        566        839        840        568        567        840        841        569        568        841        842        570        569        842        843        571        570        843        844        572        571        844        845        573        572        845        846        574        573        846        847        575        574        847        848        576        575        848        849        577        576        884        885        579        578        885        886        580        579        886        887        581        580        887        888        582        581        888        889        583        582        889        890        584        583        890        891        585        584        891        892        586        585        892        893        587        586        893        894        588        587        894        895        589        588        895        896        590        589        896        897        591        590        897        898        592        591        898        899        593        592        899        900        594        593        901        902        885        884        902        903        886        885        903        904        887        886        904        905        888        887        905        906        889        888        906        907        890        889        907        908        891        890        908        909        892        891        909        910        893        892        910        911        894        893        911        912        895        894        912        913        896        895        913        914        897        896        914        915        898        897        915        916        899        898        916        917        900        899        918        919        902        901        919        920        903        902        920        921        904        903        921        922        905        904        922        923        906        905        923        924        907        906        924        925        908        907        925        926        909        908        926        927        910        909        927        928        911        910        928        929        912        911        929        930        913        912        930        931        914        913        931        932        915        914        932        933        916        915        933        934        917        916        935        936        919        918        936        937        920        919        937        938        921        920        938        939        922        921        939        940        923        922        940        941        924        923        941        942        925        924        942        943        926        925        943        944        927        926        944        945        928        927        945        946        929        928        946        947        930        929        947        948        931        930        948        949        932        931        949        950        933        932        950        951        934        933        952        953        936        935        953        954        937        936        954        955        938        937        955        956        939        938        956        957        940        939        957        958        941        940        958        959        942        941        959        960        943        942        960        961        944        943        961        962        945        944        962        963        946        945        963        964        947        946        964        965        948        947        965        966        949        948        966        967        950        949        967        968        951        950        969        970        953        952        970        971        954        953        971        972        955        954        972        973        956        955        973        974        957        956        974        975        958        957        975        976        959        958        976        977        960        959        977        978        961        960        978        979        962        961        979        980        963        962        980        981        964        963        981        982        965        964        982        983        966        965        983        984        967        966        984        985        968        967        986        987        970        969        987        988        971        970        988        989        972        971        989        990        973        972        990        991        974        973        991        992        975        974        992        993        976        975        993        994        977        976        994        995        978        977        995        996        979        978        996        997        980        979        997        998        981        980        998        999        982        981        999       1000        983        982       1000       1001        984        983       1001       1002        985        984       1003       1004        987        986       1004       1005        988        987       1005       1006        989        988       1006       1007        990        989       1007       1008        991        990       1008       1009        992        991       1009       1010        993        992       1010       1011        994        993       1011       1012        995        994       1012       1013        996        995       1013       1014        997        996       1014       1015        998        997       1015       1016        999        998       1016       1017       1000        999       1017       1018       1001       1000       1018       1019       1002       1001       1020       1021       1004       1003       1021       1022       1005       1004       1022       1023       1006       1005       1023       1024       1007       1006       1024       1025       1008       1007       1025       1026       1009       1008       1026       1027       1010       1009       1027       1028       1011       1010       1028       1029       1012       1011       1029       1030       1013       1012       1030       1031       1014       1013       1031       1032       1015       1014       1032       1033       1016       1015       1033       1034       1017       1016       1034       1035       1018       1017       1035       1036       1019       1018       1037       1038       1021       1020       1038       1039       1022       1021       1039       1040       1023       1022       1040       1041       1024       1023       1041       1042       1025       1024       1042       1043       1026       1025       1043       1044       1027       1026       1044       1045       1028       1027       1045       1046       1029       1028       1046       1047       1030       1029       1047       1048       1031       1030       1048       1049       1032       1031       1049       1050       1033       1032       1050       1051       1034       1033       1051       1052       1035       1034       1052       1053       1036       1035       1054       1055       1038       1037       1055       1056       1039       1038       1056       1057       1040       1039       1057       1058       1041       1040       1058       1059       1042       1041       1059       1060       1043       1042       1060       1061       1044       1043       1061       1062       1045       1044       1062       1063       1046       1045       1063       1064       1047       1046       1064       1065       1048       1047       1065       1066       1049       1048       1066       1067       1050       1049       1067       1068       1051       1050       1068       1069       1052       1051       1069       1070       1053       1052       1071       1072       1055       1054       1072       1073       1056       1055       1073       1074       1057       1056       1074       1075       1058       1057       1075       1076       1059       1058       1076       1077       1060       1059       1077       1078       1061       1060       1078       1079       1062       1061       1079       1080       1063       1062       1080       1081       1064       1063       1081       1082       1065       1064       1082       1083       1066       1065       1083       1084       1067       1066       1084       1085       1068       1067       1085       1086       1069       1068       1086       1087       1070       1069       1088       1089       1072       1071       1089       1090       1073       1072       1090       1091       1074       1073       1091       1092       1075       1074       1092       1093       1076       1075       1093       1094       1077       1076       1094       1095       1078       1077       1095       1096       1079       1078       1096       1097       1080       1079       1097       1098       1081       1080       1098       1099       1082       1081       1099       1100       1083       1082       1100       1101       1084       1083       1101       1102       1085       1084       1102       1103       1086       1085       1103       1104       1087       1086       1105       1106       1089       1088       1106       1107       1090       1089       1107       1108       1091       1090       1108       1109       1092       1091       1109       1110       1093       1092       1110       1111       1094       1093       1111       1112       1095       1094       1112       1113       1096       1095       1113       1114       1097       1096       1114       1115       1098       1097       1115       1116       1099       1098       1116       1117       1100       1099       1117       1118       1101       1100       1118       1119       1102       1101       1119       1120       1103       1102       1120       1121       1104       1103       1122       1123       1106       1105       1123       1124       1107       1106       1124       1125       1108       1107       1125       1126       1109       1108       1126       1127       1110       1109       1127       1128       1111       1110       1128       1129       1112       1111       1129       1130       1113       1112       1130       1131       1114       1113       1131       1132       1115       1114       1132       1133       1116       1115       1133       1134       1117       1116       1134       1135       1118       1117       1135       1136       1119       1118       1136       1137       1120       1119       1137       1138       1121       1120        272        273       1123       1122        273        274       1124       1123        274        275       1125       1124        275        276       1126       1125        276        277       1127       1126        277        278       1128       1127        278        279       1129       1128        279        280       1130       1129        280        281       1131       1130        281        282       1132       1131        282        283       1133       1132        283        284       1134       1133        284        285       1135       1134        285        286       1136       1135        286        287       1137       1136        287        288       1138       1137 </DataArray>
<DataArray type="Int32"                                    Name="offsets"                                                      NumberOfComponents=" 1" format="ascii">
         4          8         12         16         20         24         28         32         36         40         44         48         52         56         60         64         68         72         76         80         84         88         92         96        100        104        108        112        116        120        124        128        132        136        140        144        148        152        156        160        164        168        172        176        180        184        188        192        196        200        204        208        212        216        220        224        228        232        236        240        244        248        252        256        260        264        268        272        276        280        284        288        292        296        300        304        308        312        316        320        324        328        332        336        340        344        348        352        356        360        364        368        372        376        380        384        388        392        396        400        404        408        412        416        420        424        428        432        436        440        444        448        452        456        460        464        468        472        476        480        484        488        492        496        500        504        508        512        516        520        524        528        532        536        540        544        548        552        556        560        564        568        572        576        580        584        588        592        596        600        604        608        612        616        620        624        628        632        636        640        644        648        652        656        660        664        668        672        676        680        684        688        692        696        700        704        708        712        716        720        724        728        732        736        740        744        748        752        756        760        764        768        772        776        780        784        788        792        796        800        804        808        812        816        820        824        828        832        836        840        844        848        852        856        860        864        868        872        876        880        884        888        892        896        900        904        908        912        916        920        924        928        932        936        940        944        948        952        956        960        964        968        972        976        980        984        988        992        996       1000       1004       1008       1012       1016       1020       1024       1028       1032       1036       1040       1044       1048       1052       1056       1060       1064       1068       1072       1076       1080       1084       1088       1092       1096       1100       1104       1108       1112       1116       1120       1124       1128       1132       1136       1140       1144       1148       1152       1156       1160       1164       1168       1172       1176       1180       1184       1188       1192       1196       1200       1204       1208       1212       1216       1220       1224       1228       1232       1236       1240       1244       1248       1252       1256       1260       1264       1268       1272       1276       1280       1284       1288       1292       1296       1300       1304       1308       1312       1316       1320       1324       1328       1332       1336       1340       1344       1348       1352       1356       1360       1364       1368       1372       1376       1380       1384       1388       1392       1396       1400       1404       1408       1412       1416       1420       1424       1428       1432       1436       1440       1444       1448       1452       1456       1460       1464       1468       1472       1476       1480       1484       1488       1492       1496       1500       1504       1508       1512       1516       1520       1524       1528       1532       1536       1540       1544       1548       1552       1556       1560       1564       1568       1572       1576       1580       1584       1588       1592       1596       1600       1604       1608       1612       1616       1620       1624       1628       1632       1636       1640       1644       1648       1652       1656       1660       1664       1668       1672       1676       1680       1684       1688       1692       1696       1700       1704       1708       1712       1716       1720       1724       1728       1732       1736       1740       1744       1748       1752       1756       1760       1764       1768       1772       1776       1780       1784       1788       1792       1796       1800       1804       1808       1812       1816       1820       1824       1828       1832       1836       1840       1844       1848       1852       1856       1860       1864       1868       1872       1876       1880       1884       1888       1892       1896       1900       1904       1908       1912       1916       1920       1924       1928       1932       1936       1940       1944       1948       1952       1956       1960       1964       1968       1972       1976       1980       1984       1988       1992       1996       2000       2004       2008       2012       2016       2020       2024       2028       2032       2036       2040       2044       2048       2052       2056       2060       2064       2068       2072       2076       2080       2084       2088       2092       2096       2100       2104       2108       2112       2116       2120       2124       2128       2132       2136       2140       2144       2148       2152       2156       2160       2164       2168       2172       2176       2180       2184       2188       2192       2196       2200       2204       2208       2212       2216       2220       2224       2228       2232       2236       2240       2244       2248       2252       2256       2260       2264       2268       2272       2276       2280       2284       2288       2292       2296       2300       2304       2308       2312       2316       2320       2324       2328       2332       2336       2340       2344       2348       2352       2356       2360       2364       2368       2372       2376       2380       2384       2388       2392       2396       2400       2404       2408       2412       2416       2420       2424       2428       2432       2436       2440       2444       2448       2452       2456       2460       2464       2468       2472       2476       2480       2484       2488       2492       2496       2500       2504       2508       2512       2516       2520       2524       2528       2532       2536       2540       2544       2548       2552       2556       2560       2564       2568       2572       2576       2580       2584       2588       2592       2596       2600       2604       2608       2612       2616       2620       2624       2628       2632       2636       2640       2644       2648       2652       2656       2660       2664       2668       2672       2676       2680       2684       2688       2692       2696       2700       2704       2708       2712       2716       2720       2724       2728       2732       2736       2740       2744       2748       2752       2756       2760       2764       2768       2772       2776       2780       2784       2788       2792       2796       2800       2804       2808       2812       2816       2820       2824       2828       2832       2836       2840       2844       2848       2852       2856       2860       2864       2868       2872       2876       2880       2884       2888       2892       2896       2900       2904       2908       2912       2916       2920       2924       2928       2932       2936       2940       2944       2948       2952       2956       2960       2964       2968       2972       2976       2980       2984       2988       2992       2996       3000       3004       3008       3012       3016       3020       3024       3028       3032       3036       3040       3044       3048       3052       3056       3060       3064       3068       3072       3076       3080       3084       3088       3092       3096       3100       3104       3108       3112       3116       3120       3124       3128       3132       3136       3140       3144       3148       3152       3156       3160       3164       3168       3172       3176       3180       3184       3188       3192       3196       3200       3204       3208       3212       3216       3220       3224       3228       3232       3236       3240       3244       3248       3252       3256       3260       3264       3268       3272       3276       3280       3284       3288       3292       3296       3300       3304       3308       3312       3316       3320       3324       3328       3332       3336       3340       3344       3348       3352       3356       3360       3364       3368       3372       3376       3380       3384       3388       3392       3396       3400       3404       3408       3412       3416       3420       3424       3428       3432       3436       3440       3444       3448       3452       3456       3460       3464       3468       3472       3476       3480       3484       3488       3492       3496       3500       3504       3508       3512       3516       3520       3524       3528       3532       3536       3540       3544       3548       3552       3556       3560       3564       3568       3572       3576       3580       3584       3588       3592       3596       3600       3604       3608       3612       3616       3620       3624       3628       3632       3636       3640       3644       3648       3652       3656       3660       3664       3668       3672       3676       3680       3684       3688       3692       3696       3700       3704       3708       3712       3716       3720       3724       3728       3732       3736       3740       3744       3748       3752       3756       3760       3764       3768       3772       3776       3780       3784       3788       3792       3796       3800       3804       3808       3812       3816       3820       3824       3828       3832       3836       3840       3844       3848       3852       3856       3860       3864       3868       3872       3876       3880       3884       3888       3892       3896       3900       3904       3908       3912       3916       3920       3924       3928       3932       3936       3940       3944       3948       3952       3956       3960       3964       3968       3972       3976       3980       3984       3988       3992       3996       4000       4004       4008       4012       4016       4020       4024       4028       4032       4036       4040       4044       4048       4052       4056       4060       4064       4068       4072       4076       4080       4084       4088       4092       4096 </DataArray>
<DataArray type="UInt8"                                    Name="types"                                                      NumberOfComponents=" 1" format="ascii">
         9          9          9          9          9          9          9          9          9          9          9          9          9          9          9          9          9          9          9          9          9          9          9          9          9          9          9          9          9          9          9          9          9          9          9          9          9          9          9          9          9          9          9          9          9          9          9          9          9          9          9          9          9          9          9          9          9          9          9          9          9          9          9          9          9          9          9          9          9          9          9          9          9          9          9          9          9          9          9          9          9          9          9          9          9          9          9          9          9          9          9          9          9          9          9          9          9          9          9          9          9          9          9          9          9          9          9          9          9          9          9          9          9          9          9          9          9          9          9          9          9          9          9          9          9          9          9          9          9          9          9          9          9          9          9          9          9          9          9          9          9          9          9          9          9          9          9          9          9          9          9          9          9          9          9          9          9          9          9          9          9          9          9          9          9          9          9          9          9          9          9          9          9          9          9          9          9          9          9          9          9          9          9          9          9          9          9          9          9          9          9          9          9          9          9          9          9          9          9          9          9          9          9          9          9          9          9          9          9          9          9          9          9          9          9          9          9          9          9          9          9          9          9          9          9          9          9          9          9          9          9          9          9          9          9          9          9          9          9          9          9          9          9          9          9          9          9          9          9          9          9          9          9          9          9          9          9          9          9          9          9          9          9          9          9          9          9          9          9          9          9          9          9          9          9          9          9          9          9          9          9          9          9          9          9          9          9          9          9          9          9          9          9          9          9          9          9          9          9          9          9          9          9          9          9          9          9          9          9          9          9          9          9          9          9          9          9          9          9          9          9          9          9          9          9          9          9          9          9          9          9          9          9          9          9          9          9          9          9          9          9          9          9          9          9          9          9          9          9          9          9          9          9          9          9          9          9          9          9          9          9          9          9          9          9          9          9          9          9          9          9          9          9          9          9          9          9          9          9          9          9          9          9          9          9          9          9          9          9          9          9          9          9          9          9          9          9          9          9          9          9          9          9          9          9          9          9          9          9          9          9          9          9          9          9          9          9          9          9          9          9          9          9          9          9          9          9          9          9          9          9          9          9          9          9          9          9          9          9          9          9          9          9          9          9          9          9          9          9          9          9          9          9          9          9          9          9          9          9          9          9          9          9          9          9          9          9          9          9          9          9          9          9          9          9          9          9          9          9          9          9          9          9          9          9          9          9          9          9          9          9          9          9          9          9          9          9          9          9          9          9          9          9          9          9          9          9          9          9          9          9          9          9          9          9          9          9          9          9          9          9          9          9          9          9          9          9          9          9          9          9          9          9          9          9          9          9          9          9          9          9          9          9          9          9          9          9          9          9          9          9          9          9          9          9          9          9          9          9          9          9          9          9          9          9          9          9          9          9          9          9          9          9          9          9          9          9          9          9          9          9          9          9          9          9          9          9          9          9          9          9          9          9          9          9          9          9          9          9          9          9          9          9          9          9          9          9          9          9          9          9          9          9          9          9          9          9          9          9          9          9          9          9          9          9          9          9          9          9          9          9          9          9          9          9          9          9          9          9          9          9          9          9          9          9          9          9          9          9          9          9          9          9          9          9          9          9          9          9          9          9          9          9          9          9          9          9          9          9          9          9          9          9          9          9          9          9          9          9          9          9          9          9          9          9          9          9          9          9          9          9          9          9          9          9          9          9          9          9          9          9          9          9          9          9          9          9          9          9          9          9          9          9          9          9          9          9          9          9          9          9          9          9          9          9          9          9          9          9          9          9          9          9          9          9          9          9          9          9          9          9          9          9          9          9          9          9          9          9          9          9          9          9          9          9          9          9          9          9          9          9          9          9          9          9          9          9          9          9          9          9          9          9          9          9          9          9          9          9          9          9          9          9          9          9          9          9          9          9          9          9          9          9          9          9          9          9          9          9          9          9          9          9          9          9          9          9          9          9          9          9          9          9          9          9          9          9          9          9          9          9          9          9          9          9          9          9          9          9          9          9          9          9          9          9          9          9          9          9          9          9          9          9          9          9          9          9          9          9          9          9          9          9          9          9          9          9          9          9          9          9          9          9          9          9          9          9          9          9          9          9          9          9          9          9          9          9          9          9          9          9          9          9          9          9          9          9          9          9          9          9          9          9          9          9          9          9          9          9          9          9          9          9          9          9          9          9          9          9          9          9          9          9          9          9          9          9          9          9          9          9          9          9          9          9          9          9          9          9          9          9          9          9          9          9          9          9          9          9          9          9          9          9          9          9          9          9          9          9          9          9          9          9          9          9          9          9          9          9          9          9          9          9          9          9          9          9          9          9          9          9          9          9          9          9          9          9          9          9          9          9          9          9          9          9          9          9          9          9          9          9          9          9          9          9          9          9          9          9          9          9          9          9          9          9          9          9          9          9          9          9          9          9          9          9          9          9          9          9          9          9          9          9          9 </DataArray>
</Cells>
<CellData>
<DataArray type="Int32"                                    Name="material"                                                      NumberOfComponents=" 1" format="ascii">
         1          1          1          1          1          1          1          1          1          1          1          1          1          1          1          1          1          1          1          1          1          1          1          1          1          1          1          1          1          1          1          1          1          1          1          1          1          1          1          1          1          1          1          1          1          1          1          1          1          1          1          1          1          1          1          1          1          1          1          1          1          1          1          1          1          1          1          1          1          1          1          1          1          1          1          1          1          1          1          1          1          1          1          1          1          1          1          1          1          1          1          1          1          1          1          1          1          1          1          1          1          1          1          1          1          1          1          1          1          1          1          1          1          1          1          1          1          1          1          1          1          1          1          1          1          1          1          1          1          1          1          1          1          1          1          1          1          1          1          1          1          1          1          1          1          1          1          1          1          1          1          1          1          1          1          1          1          1          1          1          1          1          1          1          1          1          1          1          1          1          1          1          1          1          1          1          1          1          1          1          1          1          1          1          1          1          1          1          1          1          1          1          1          1          1          1          1          1          1          1          1          1          1          1          1          1          1          1          1          1          1          1          1          1          1          1          1          1          1          1          1          1          1          1          1          1          1          1          1          1          1          1          1          1          1          1          1          1          1          1          1          1          1          1          1          1          1          1          1          1          1          1          1          1          1          1          1          1          1          1          1          1          1          1          1          1          1          1          1          1          1          1          1          1          1          1          1          1          1          1          1          1          1          1          1          1          1          1          1          1          1          1          1          1          1          1          1          1          1          1          1          1          1          1          1          1          1          1          1          1          1          1          1          1          1          1          1          1          1          1          1          1          1          1          1          1          1          1          1          1          1          1          1          1          1          1          1          1          1          1          1          1          1          1          1          1          1          1          1          1          1          1          1          1          1          1          1          1          1          1          1          1          1          1          1          1          1          1          1          1          1          1          1          1          1          1          1          1          1          1          1          1          1          1          1          1          1          1          1          1          1          1          1          1          1          1          1          1          1          1          1          1          1          1          1          1          1          1          1          1          1          1          1          1          1          1          1          1          1          1          1          1          1          1          1          1          1          1          1          1          1          1          1          1          1          1          1          1          1          1          1          1          1          1          1          1          1          1          1          1          1          1          1          1          1          1          1          1          1          1          1          1          1          1          1          1          1          1          1          1          1          1          1          1          1          1          1          1          1          1          1          1          1          1          1          1          1          1          1          1          1          1          1          1          1          1          1          1          1          1          1          1          1          1          1          1          1          1          1          1          1          1          1          1          1          1          1          1          1          1          1          1          1          1          1          1          1          1          1          1          1          1          1          1          1          1          1          1          1          1          1          1          1          1          1          1          1          1          1          1          1          1          1          1          1          1          1          1          1          1          1          1          1          1          1          1          1          1          1          1          1          1          1          1          1          1          1          1          1          1          1          1          1          1          1          1          1          1          1          1          1          1          1          1          1          1          1          1          1          1          1          1          1          1          1          1          1          1          1          1          1          1          1          1          1          1          1          1          1          1          1          1          1          1          1          1          1          1          1          1          1          1          1          1          1          1          1          1          1          1          1          1          1          1          1          1          1          1          1          1          1          1          1          1          1          1          1          1          1          1          1          1          1          1          1          1          1          1          1          1          1          1          1          1          1          1          1          1          1          1          1          1          1          1          1          1          1          1          1          1          1          1          1          1          1          1          1          1          1          1          1          1          1          1          1          1          1          1          1          1          1          1          1          1          1          1          1          1          1          1          1          1          1          1          1          1          1          1          1          1          1          1          1          1          1          1          1          1          1          1          1          1          1          1          1          1          1          1          1          1          1          1          1          1          1          1          1          1          1          1          1          1          1          1          1          1          1          1          1          1          1          1          1          1          1          1          1          1          1          1          1          1          1          1          1          1          1          1          1          1          1          1          1          1          1          1          1          1          1          1          1          1          1          1          1          1          1          1          1          1          1          1          1          1          1          1          1          1          1          1          1          1          1          1          1          1          1          1          1          1          1          1          1          1          1          1          1          1          1          1          1          1          1          1          1          1          1          1          1          1          1          1          1          1          1          1          1          1          1          1          1          1          1          1          1          1          1          1          1          1          1          1          1          1          1          1          1          1          1          1          1          1          1          1          1          1          1          1          1          1          1          1          1          1          1          1          1          1          1          1          1          1          1          1          1          1          1          1          1          1          1          1          1          1          1          1          1          1          1          1          1          1          1          1          1          1          1          1          1          1          1          1          1          1          1          1          1          1          1          1          1          1          1          1          1          1          1          1          1          1          1          1          1          1          1          1          1          1          1          1          1          1          1          1          1          1          1          1          1          1          1          1          1          1          1          1          1          1          1          1          1          1          1          1          1          1          1          1          1          1          1          1          1          1          1          1          1          1          1          1          1          1          1          1          1          1          1          1          1          1          1          1          1          1          1          1          1          1          1          1          1          1          1          1 </DataArray>
</CellData>
<PointData>
<DataArray type="Float64"                                    Name="u"                                                      NumberOfComponents=" 3" format="ascii">
             -0.000891835               0.000000000               0.999999985              -0.000942147               0.000000000               0.999999985              -0.000963671              -0.000000000               0.999999985              -0.000975988              -0.000000000               0.999999985              -0.000986252               0.000000000               0.999999985              -0.000996969              -0.000000000               0.999999985              -0.001008877              -0.000000000               0.999999985              -0.001021777              -0.000000000               0.999999985              -0.001035326              -0.000000000               0.999999985              -0.001049119               0.000000000               0.999999985              -0.001062582               0.000000000               0.999999985              -0.001075428               0.000000000               0.999999985              -0.001087343               0.000000000               0.999999985              -0.001098090               0.000000000               0.999999985              -0.001107252              -0.000000000               0.999999985              -0.001114074              -0.000000000               0.999999985              -0.001117744              -0.000000000               0.999999985              -0.000886840               0.000131317               0.999999985              -0.000932881               0.000104363               0.999999985              -0.000951697               0.000092136               0.999999985              -0.000962231               0.000087281               0.999999985              -0.000971170               0.000086079               0.999999985              -0.000980845               0.000086564               0.999999985              -0.000991734               0.000087518               0.999999985              -0.001003577               0.000088143               0.999999985              -0.001015907               0.000087854               0.999999985              -0.001028175               0.000086284               0.999999985              -0.001040001               0.000083322               0.999999985              -0.001051031               0.000078758               0.999999985              -0.001060890               0.000072460               0.999999985              -0.001069352               0.000063865               0.999999985              -0.001076045               0.000052202               0.999999985              -0.001080412               0.000036463               0.999999985              -0.001081821               0.000015400               0.999999985              -0.000871897               0.000261435               0.999999985              -0.000905581               0.000208338               0.999999985              -0.000916780               0.000185283               0.999999985              -0.000922512               0.000176584               0.999999985              -0.000928168               0.000174929               0.999999985              -0.000935094               0.000176371               0.999999985              -0.000943179               0.000178598               0.999999985              -0.000952003               0.000179998               0.999999985              -0.000960966               0.000179589               0.999999985              -0.000969498               0.000176843               0.999999985              -0.000977161               0.000171148               0.999999985              -0.000983503               0.000162418               0.999999985              -0.000988243               0.000150536               0.999999985              -0.000991111               0.000134682               0.999999985              -0.000991719               0.000113330               0.999999985              -0.000989875               0.000085527               0.999999985              -0.000985447               0.000050058               0.999999985              -0.000847268               0.000389208               0.999999985              -0.000861573               0.000311768               0.999999985              -0.000861795               0.000280234               0.999999985              -0.000861102               0.000269574               0.999999985              -0.000862501               0.000268636               0.999999985              -0.000865845               0.000271613               0.999999985              -0.000870382               0.000275379               0.999999985              -0.000875250               0.000277833               0.999999985              -0.000879625               0.000277669               0.999999985              -0.000882842               0.000273847               0.999999985              -0.000884434               0.000266034               0.999999985              -0.000884149               0.000254152               0.999999985              -0.000881700               0.000237950               0.999999985              -0.000876843               0.000216487               0.999999985              -0.000869292               0.000188663               0.999999985              -0.000859114               0.000153988               0.999999985              -0.000846701               0.000111754               0.999999985              -0.000813632               0.000513433               0.999999985              -0.000803188               0.000414585               0.999999985              -0.000791151               0.000377515               0.999999985              -0.000784044               0.000366915               0.999999985              -0.000781395               0.000367774               0.999999985              -0.000781432               0.000372891               0.999999985              -0.000782419               0.000378491               0.999999985              -0.000782974               0.000382069               0.999999985              -0.000782108               0.000382039               0.999999985              -0.000779091               0.000377300               0.999999985              -0.000773635               0.000367883               0.999999985              -0.000765484               0.000353656               0.999999985              -0.000754456               0.000334459               0.999999985              -0.000740398               0.000309510               0.999999985              -0.000723417               0.000278355               0.999999985              -0.000703998               0.000241174               0.999999985              -0.000682749               0.000198315               0.999999985              -0.000771717               0.000632985               0.999999985              -0.000733533               0.000516757               0.999999985              -0.000710080               0.000477186               0.999999985              -0.000698015               0.000468326               0.999999985              -0.000692572               0.000471796               0.999999985              -0.000690000               0.000479444               0.999999985              -0.000687736               0.000486686               0.999999985              -0.000683967               0.000491095               0.999999985              -0.000677516               0.000490837               0.999999985              -0.000667659               0.000485321               0.999999985              -0.000654273               0.000474536               0.999999985              -0.000637339               0.000458735               0.999999985              -0.000616890               0.000437648               0.999999985              -0.000592975               0.000410876               0.999999985              -0.000566160               0.000378739               0.999999985              -0.000537193               0.000342136               0.999999985              -0.000506845               0.000302081               0.999999985              -0.000722263               0.000746805               0.999999985              -0.000655966               0.000618406               0.999999985              -0.000623774               0.000578867               0.999999985              -0.000609233               0.000572707               0.999999985              -0.000602703               0.000579000               0.999999985              -0.000598474               0.000588903               0.999999985              -0.000593212               0.000597480               0.999999985              -0.000584843               0.000602230               0.999999985              -0.000572180               0.000601664               0.999999985              -0.000554828               0.000595311               0.999999985              -0.000532717               0.000583514               0.999999985              -0.000506175               0.000566484               0.999999985              -0.000475447               0.000544262               0.999999985              -0.000441201               0.000516895               0.999999985              -0.000404265               0.000485241               0.999999985              -0.000365547               0.000450598               0.999999985              -0.000325758               0.000414299               0.999999985              -0.000666285               0.000853722               0.999999985              -0.000574099               0.000719392               0.999999985              -0.000537087               0.000681650               0.999999985              -0.000522958               0.000678218               0.999999985              -0.000516734               0.000687106               0.999999985              -0.000511343               0.000698778               0.999999985              -0.000502925               0.000708262               0.999999985              -0.000489407               0.000713038               0.999999985              -0.000469671               0.000711786               0.999999985              -0.000443764               0.000704678               0.999999985              -0.000412091               0.000691924               0.999999985              -0.000375041               0.000673887               0.999999985              -0.000333533               0.000650941               0.999999985              -0.000288616               0.000623644               0.999999985              -0.000241179               0.000593250               0.999999985              -0.000192212               0.000561246               0.999999985              -0.000142390               0.000528544               0.999999985              -0.000605485               0.000951855               0.999999985              -0.000490745               0.000819658               0.999999985              -0.000454462               0.000783980               0.999999985              -0.000442758               0.000782757               0.999999985              -0.000437675               0.000793733               0.999999985              -0.000431035               0.000806789               0.999999985              -0.000418944               0.000816784               0.999999985              -0.000399104               0.000821252               0.999999985              -0.000371149               0.000819352               0.999999985              -0.000335635               0.000811460               0.999999985              -0.000293297               0.000797732               0.999999985              -0.000244914               0.000778798               0.999999985              -0.000191877               0.000755369               0.999999985              -0.000135348               0.000728763               0.999999985              -0.000076446               0.000700803               0.999999985              -0.000016464               0.000672526               0.999999985               0.000043615               0.000644339               0.999999985              -0.000542588               0.001044881               0.999999985              -0.000420798               0.000932188               0.999999985              -0.000381825               0.000892653               0.999999985              -0.000369596               0.000886565               0.999999985              -0.000365278               0.000894715               0.999999985              -0.000360781               0.000907585               0.999999985              -0.000351911               0.000920097               0.999999985              -0.000336179               0.000929351               0.999999985              -0.000312808               0.000934103               0.999999985              -0.000282104               0.000933985               0.999999985              -0.000244518               0.000929016               0.999999985              -0.000200729               0.000919448               0.999999985              -0.000151374               0.000905658               0.999999985              -0.000097012               0.000888753               0.999999985              -0.000038834               0.000869838               0.999999985               0.000021377               0.000850128               0.999999985               0.000082073               0.000830474               0.999999985              -0.000474160               0.001129695               0.999999985              -0.000353640               0.001041224               0.999999985              -0.000312102               0.001004370               0.999999985              -0.000298460               0.000995755               0.999999985              -0.000294100               0.001001963               0.999999985              -0.000290831               0.001014834               0.999999985              -0.000284412               0.001029611               0.999999985              -0.000272292               0.001043238               0.999999985              -0.000253374               0.001053992               0.999999985              -0.000227564               0.001061006               0.999999985              -0.000194959               0.001064098               0.999999985              -0.000155849               0.001063254               0.999999985              -0.000110626               0.001058676               0.999999985              -0.000059544               0.001050790               0.999999985              -0.000003156               0.001040535               0.999999985               0.000056990               0.001029103               0.999999985               0.000119070               0.001017550               0.999999985              -0.000401481               0.001204355               0.999999985              -0.000289264               0.001143454               0.999999985              -0.000247133               0.001113897               0.999999985              -0.000231890               0.001106128               0.999999985              -0.000226738               0.001111901               0.999999985              -0.000223845               0.001125363               0.999999985              -0.000219110               0.001142424               0.999999985              -0.000210074               0.001160135               0.999999985              -0.000195278               0.001176563               0.999999985              -0.000174281               0.001190426               0.999999985              -0.000146755               0.001201298               0.999999985              -0.000112651               0.001208933               0.999999985              -0.000072343               0.001213251               0.999999985              -0.000025606               0.001214398               0.999999985               0.000027905               0.001212869               0.999999985               0.000087428               0.001209598               0.999999985               0.000151191               0.001205858               0.999999985              -0.000325364               0.001267360               0.999999985              -0.000227766               0.001234554               0.999999985              -0.000187844               0.001215619               0.999999985              -0.000171892               0.001211679               0.999999985              -0.000165777               0.001218939               0.999999985              -0.000162736               0.001233951               0.999999985              -0.000159105               0.001253496               0.999999985              -0.000152400               0.001275134               0.999999985              -0.000141147               0.001296926               0.999999985              -0.000124636               0.001317622               0.999999985              -0.000102388               0.001336235               0.999999985              -0.000074039               0.001352342               0.999999985              -0.000039457               0.001365714               0.999999985               0.000001801               0.001376128               0.999999985               0.000050630               0.001383836               0.999999985               0.000107408               0.001389304               0.999999985               0.000171656               0.001393585               0.999999985              -0.000246522               0.001317541               0.999999985              -0.000168708               0.001310438               0.999999985              -0.000134390               0.001303554               0.999999985              -0.000119420               0.001305306               0.999999985              -0.000112980               0.001315654               0.999999985              -0.000109856               0.001332995               0.999999985              -0.000106918               0.001355348               0.999999985              -0.000101936               0.001380749               0.999999985              -0.000093662               0.001407529               0.999999985              -0.000081565               0.001434464               0.999999985              -0.000064915               0.001460428               0.999999985              -0.000043020               0.001484622               0.999999985              -0.000015475               0.001506755               0.999999985               0.000018499               0.001526607               0.999999985               0.000059872               0.001544002               0.999999985               0.000110152               0.001559016               0.999999985               0.000170296               0.001571902               0.999999985              -0.000165533               0.001354134               0.999999985              -0.000111490               0.001367496               0.999999985              -0.000086242               0.001371701               0.999999985              -0.000074403               0.001379406               0.999999985              -0.000068939               0.001393338               0.999999985              -0.000066205               0.001413344               0.999999985              -0.000063901               0.001438329               0.999999985              -0.000060521               0.001466837               0.999999985              -0.000055102               0.001497606               0.999999985              -0.000047238               0.001529532               0.999999985              -0.000036319               0.001561677               0.999999985              -0.000021453               0.001593198               0.999999985              -0.000002177               0.001623433               0.999999985               0.000022331               0.001652048               0.999999985               0.000052948               0.001678637               0.999999985               0.000091165               0.001702873               0.999999985               0.000139294               0.001724347               0.999999985              -0.000083119               0.001376373               0.999999985              -0.000055476               0.001402883               0.999999985              -0.000042056               0.001414892               0.999999985              -0.000035495               0.001427100               0.999999985              -0.000032349               0.001443791               0.999999985              -0.000030696               0.001465868               0.999999985              -0.000029479               0.001492775               0.999999985              -0.000027666               0.001523420               0.999999985              -0.000025040               0.001556767               0.999999985              -0.000021177               0.001591855               0.999999985              -0.000015733               0.001628065               0.999999985              -0.000008232               0.001664661               0.999999985               0.000001721               0.001700902               0.999999985               0.000014499               0.001736114               0.999999985               0.000030868               0.001769694               0.999999985               0.000051868               0.001800962               0.999999985               0.000078942               0.001829012               0.999999985              -0.000000000               0.001383820               0.999999985               0.000000000               0.001414886               0.999999985              -0.000000000               0.001429645               0.999999985               0.000000000               0.001443466               0.999999985               0.000000000               0.001461277               0.999999985               0.000000000               0.001484092               0.999999985               0.000000000               0.001511699               0.999999985              -0.000000000               0.001543221               0.999999985              -0.000000000               0.001577544               0.999999985              -0.000000000               0.001613811               0.999999985              -0.000000000               0.001651424               0.999999985              -0.000000000               0.001689702               0.999999985              -0.000000000               0.001728081               0.999999985               0.000000000               0.001765825               0.999999985               0.000000000               0.001801961               0.999999985               0.000000000               0.001835782               0.999999985               0.000000000               0.001866362               0.999999985              -0.000891835               0.000000000               0.999999985              -0.000942147               0.000000000               0.999999985              -0.000963671              -0.000000000               0.999999985              -0.000975988              -0.000000000               0.999999985              -0.000986252               0.000000000               0.999999985              -0.000996969              -0.000000000               0.999999985              -0.001008877              -0.000000000               0.999999985              -0.001021777              -0.000000000               0.999999985              -0.001035326              -0.000000000               0.999999985              -0.001049119               0.000000000               0.999999985              -0.001062582               0.000000000               0.999999985              -0.001075428               0.000000000               0.999999985              -0.001087343               0.000000000               0.999999985              -0.001098090               0.000000000               0.999999985              -0.001107252              -0.000000000               0.999999985              -0.001114074              -0.000000000               0.999999985              -0.001117744              -0.000000000               0.999999985              -0.000886840              -0.000131317               0.999999985              -0.000932881              -0.000104363               0.999999985              -0.000951697              -0.000092136               0.999999985              -0.000962231              -0.000087281               0.999999985              -0.000971170              -0.000086079               0.999999985              -0.000980845              -0.000086564               0.999999985              -0.000991734              -0.000087518               0.999999985              -0.001003577              -0.000088143               0.999999985              -0.001015907              -0.000087854               0.999999985              -0.001028175              -0.000086284               0.999999985              -0.001040001              -0.000083322               0.999999985              -0.001051031              -0.000078758               0.999999985              -0.001060890              -0.000072460               0.999999985              -0.001069352              -0.000063865               0.999999985              -0.001076045              -0.000052202               0.999999985              -0.001080412              -0.000036463               0.999999985              -0.001081821              -0.000015400               0.999999985              -0.000871897              -0.000261435               0.999999985              -0.000905581              -0.000208338               0.999999985              -0.000916780              -0.000185283               0.999999985              -0.000922512              -0.000176584               0.999999985              -0.000928168              -0.000174929               0.999999985              -0.000935094              -0.000176371               0.999999985              -0.000943179              -0.000178598               0.999999985              -0.000952003              -0.000179998               0.999999985              -0.000960966              -0.000179589               0.999999985              -0.000969498              -0.000176843               0.999999985              -0.000977161              -0.000171148               0.999999985              -0.000983503              -0.000162418               0.999999985              -0.000988243              -0.000150536               0.999999985              -0.000991111              -0.000134682               0.999999985              -0.000991719              -0.000113330               0.999999985              -0.000989875              -0.000085527               0.999999985              -0.000985447              -0.000050058               0.999999985              -0.000847268              -0.000389208               0.999999985              -0.000861573              -0.000311768               0.999999985              -0.000861795              -0.000280234               0.999999985              -0.000861102              -0.000269574               0.999999985              -0.000862501              -0.000268636               0.999999985              -0.000865845              -0.000271613               0.999999985              -0.000870382              -0.000275379               0.999999985              -0.000875250              -0.000277833               0.999999985              -0.000879625              -0.000277669               0.999999985              -0.000882842              -0.000273847               0.999999985              -0.000884434              -0.000266034               0.999999985              -0.000884149              -0.000254152               0.999999985              -0.000881700              -0.000237950               0.999999985              -0.000876843              -0.000216487               0.999999985              -0.000869292              -0.000188663               0.999999985              -0.000859114              -0.000153988               0.999999985              -0.000846701              -0.000111754               0.999999985              -0.000813632              -0.000513433               0.999999985              -0.000803188              -0.000414585               0.999999985              -0.000791151              -0.000377515               0.999999985              -0.000784044              -0.000366915               0.999999985              -0.000781395              -0.000367774               0.999999985              -0.000781432              -0.000372891               0.999999985              -0.000782419              -0.000378491               0.999999985              -0.000782974              -0.000382069               0.999999985              -0.000782108              -0.000382039               0.999999985              -0.000779091              -0.000377300               0.999999985              -0.000773635              -0.000367883               0.999999985              -0.000765484              -0.000353656               0.999999985              -0.000754456              -0.000334459               0.999999985              -0.000740398              -0.000309510               0.999999985              -0.000723417              -0.000278355               0.999999985              -0.000703998              -0.000241174               0.999999985              -0.000682749              -0.000198315               0.999999985              -0.000771717              -0.000632985               0.999999985              -0.000733533              -0.000516757               0.999999985              -0.000710080              -0.000477186               0.999999985              -0.000698015              -0.000468326               0.999999985              -0.000692572              -0.000471796               0.999999985              -0.000690000              -0.000479444               0.999999985              -0.000687736              -0.000486686               0.999999985              -0.000683967              -0.000491095               0.999999985              -0.000677516              -0.000490837               0.999999985              -0.000667659              -0.000485321               0.999999985              -0.000654273              -0.000474536               0.999999985              -0.000637339              -0.000458735               0.999999985              -0.000616890              -0.000437648               0.999999985              -0.000592975              -0.000410876               0.999999985              -0.000566160              -0.000378739               0.999999985              -0.000537193              -0.000342136               0.999999985              -0.000506845              -0.000302081               0.999999985              -0.000722263              -0.000746805               0.999999985              -0.000655966              -0.000618406               0.999999985              -0.000623774              -0.000578867               0.999999985              -0.000609233              -0.000572707               0.999999985              -0.000602703              -0.000579000               0.999999985              -0.000598474              -0.000588903               0.999999985              -0.000593212              -0.000597480               0.999999985              -0.000584843              -0.000602230               0.999999985              -0.000572180              -0.000601664               0.999999985              -0.000554828              -0.000595311               0.999999985              -0.000532717              -0.000583514               0.999999985              -0.000506175              -0.000566484               0.999999985              -0.000475447              -0.000544262               0.999999985              -0.000441201              -0.000516895               0.999999985              -0.000404265              -0.000485241               0.999999985              -0.000365547              -0.000450598               0.999999985              -0.000325758              -0.000414299               0.999999985              -0.000666285              -0.000853722               0.999999985              -0.000574099              -0.000719392               0.999999985              -0.000537087              -0.000681650               0.999999985              -0.000522958              -0.000678218               0.999999985              -0.000516734              -0.000687106               0.999999985              -0.000511343              -0.000698778               0.999999985              -0.000502925              -0.000708262               0.999999985              -0.000489407              -0.000713038               0.999999985              -0.000469671              -0.000711786               0.999999985              -0.000443764              -0.000704678               0.999999985              -0.000412091              -0.000691924               0.999999985              -0.000375041              -0.000673887               0.999999985              -0.000333533              -0.000650941               0.999999985              -0.000288616              -0.000623644               0.999999985              -0.000241179              -0.000593250               0.999999985              -0.000192212              -0.000561246               0.999999985              -0.000142390              -0.000528544               0.999999985              -0.000605485              -0.000951855               0.999999985              -0.000490745              -0.000819658               0.999999985              -0.000454462              -0.000783980               0.999999985              -0.000442758              -0.000782757               0.999999985              -0.000437675              -0.000793733               0.999999985              -0.000431035              -0.000806789               0.999999985              -0.000418944              -0.000816784               0.999999985              -0.000399104              -0.000821252               0.999999985              -0.000371149              -0.000819352               0.999999985              -0.000335635              -0.000811460               0.999999985              -0.000293297              -0.000797732               0.999999985              -0.000244914              -0.000778798               0.999999985              -0.000191877              -0.000755369               0.999999985              -0.000135348              -0.000728763               0.999999985              -0.000076446              -0.000700803               0.999999985              -0.000016464              -0.000672526               0.999999985               0.000043615              -0.000644339               0.999999985              -0.000542588              -0.001044881               0.999999985              -0.000420798              -0.000932188               0.999999985              -0.000381825              -0.000892653               0.999999985              -0.000369596              -0.000886565               0.999999985              -0.000365278              -0.000894715               0.999999985              -0.000360781              -0.000907585               0.999999985              -0.000351911              -0.000920097               0.999999985              -0.000336179              -0.000929351               0.999999985              -0.000312808              -0.000934103               0.999999985              -0.000282104              -0.000933985               0.999999985              -0.000244518              -0.000929016               0.999999985              -0.000200729              -0.000919448               0.999999985              -0.000151374              -0.000905658               0.999999985              -0.000097012              -0.000888753               0.999999985              -0.000038834              -0.000869838               0.999999985               0.000021377              -0.000850128               0.999999985               0.000082073              -0.000830474               0.999999985              -0.000474160              -0.001129695               0.999999985              -0.000353640              -0.001041224               0.999999985              -0.000312102              -0.001004370               0.999999985              -0.000298460              -0.000995755               0.999999985              -0.000294100              -0.001001963               0.999999985              -0.000290831              -0.001014834               0.999999985              -0.000284412              -0.001029611               0.999999985              -0.000272292              -0.001043238               0.999999985              -0.000253374              -0.001053992               0.999999985              -0.000227564              -0.001061006               0.999999985              -0.000194959              -0.001064098               0.999999985              -0.000155849              -0.001063254               0.999999985              -0.000110626              -0.001058676               0.999999985              -0.000059544              -0.001050790               0.999999985              -0.000003156              -0.001040535               0.999999985               0.000056990              -0.001029103               0.999999985               0.000119070              -0.001017550               0.999999985              -0.000401481              -0.001204355               0.999999985              -0.000289264              -0.001143454               0.999999985              -0.000247133              -0.001113897               0.999999985              -0.000231890              -0.001106128               0.999999985              -0.000226738              -0.001111901               0.999999985              -0.000223845              -0.001125363               0.999999985              -0.000219110              -0.001142424               0.999999985              -0.000210074              -0.001160135               0.999999985              -0.000195278              -0.001176563               0.999999985              -0.000174281              -0.001190426               0.999999985              -0.000146755              -0.001201298               0.999999985              -0.000112651              -0.001208933               0.999999985              -0.000072343              -0.001213251               0.999999985              -0.000025606              -0.001214398               0.999999985               0.000027905              -0.001212869               0.999999985               0.000087428              -0.001209598               0.999999985               0.000151191              -0.001205858               0.999999985              -0.000325364              -0.001267360               0.999999985              -0.000227766              -0.001234554               0.999999985              -0.000187844              -0.001215619               0.999999985              -0.000171892              -0.001211679               0.999999985              -0.000165777              -0.001218939               0.999999985              -0.000162736              -0.001233951               0.999999985              -0.000159105              -0.001253496               0.999999985              -0.000152400              -0.001275134               0.999999985              -0.000141147              -0.001296926               0.999999985              -0.000124636              -0.001317622               0.999999985              -0.000102388              -0.001336235               0.999999985              -0.000074039              -0.001352342               0.999999985              -0.000039457              -0.001365714               0.999999985               0.000001801              -0.001376128               0.999999985               0.000050630              -0.001383836               0.999999985               0.000107408              -0.001389304               0.999999985               0.000171656              -0.001393585               0.999999985              -0.000246522              -0.001317541               0.999999985              -0.000168708              -0.001310438               0.999999985              -0.000134390              -0.001303554               0.999999985              -0.000119420              -0.001305306               0.999999985              -0.000112980              -0.001315654               0.999999985              -0.000109856              -0.001332995               0.999999985              -0.000106918              -0.001355348               0.999999985              -0.000101936              -0.001380749               0.999999985              -0.000093662              -0.001407529               0.999999985              -0.000081565              -0.001434464               0.999999985              -0.000064915              -0.001460428               0.999999985              -0.000043020              -0.001484622               0.999999985              -0.000015475              -0.001506755               0.999999985               0.000018499              -0.001526607               0.999999985               0.000059872              -0.001544002               0.999999985               0.000110152              -0.001559016               0.999999985               0.000170296              -0.001571902               0.999999985              -0.000165533              -0.001354134               0.999999985              -0.000111490              -0.001367496               0.999999985              -0.000086242              -0.001371701               0.999999985              -0.000074403              -0.001379406               0.999999985              -0.000068939              -0.001393338               0.999999985              -0.000066205              -0.001413344               0.999999985              -0.000063901              -0.001438329               0.999999985              -0.000060521              -0.001466837               0.999999985              -0.000055102              -0.001497606               0.999999985              -0.000047238              -0.001529532               0.999999985              -0.000036319              -0.001561677               0.999999985              -0.000021453              -0.001593198               0.999999985              -0.000002177              -0.001623433               0.999999985               0.000022331              -0.001652048               0.999999985               0.000052948              -0.001678637               0.999999985               0.000091165              -0.001702873               0.999999985               0.000139294              -0.001724347               0.999999985              -0.000083119              -0.001376373               0.999999985              -0.000055476              -0.001402883               0.999999985              -0.000042056              -0.001414892               0.999999985              -0.000035495              -0.001427100               0.999999985              -0.000032349              -0.001443791               0.999999985              -0.000030696              -0.001465868               0.999999985              -0.000029479              -0.001492775               0.999999985              -0.000027666              -0.001523420               0.999999985              -0.000025040              -0.001556767               0.999999985              -0.000021177              -0.001591855               0.999999985              -0.000015733              -0.001628065               0.999999985              -0.000008232              -0.001664661               0.999999985               0.000001721              -0.001700902               0.999999985               0.000014499              -0.001736114               0.999999985               0.000030868              -0.001769694               0.999999985               0.000051868              -0.001800962               0.999999985               0.000078942              -0.001829012               0.999999985              -0.000000000              -0.001383820               0.999999985               0.000000000              -0.001414886               0.999999985              -0.000000000              -0.001429645               0.999999985              -0.000000000              -0.001443466               0.999999985               0.000000000              -0.001461277               0.999999985              -0.000000000              -0.001484092               0.999999985              -0.000000000              -0.001511699               0.999999985              -0.000000000              -0.001543221               0.999999985               0.000000000              -0.001577544               0.999999985              -0.000000000              -0.001613811               0.999999985               0.000000000              -0.001651424               0.999999985               0.000000000              -0.001689702               0.999999985              -0.000000000              -0.001728081               0.999999985              -0.000000000              -0.001765825               0.999999985               0.000000000              -0.001801961               0.999999985               0.000000000              -0.001835782               0.999999985               0.000000000              -0.001866362               0.999999985               0.000891835               0.000000000               0.999999985               0.000942147              -0.000000000               0.999999985               0.000963671               0.000000000               0.999999985               0.000975988               0.000000000               0.999999985               0.000986252              -0.000000000               0.999999985               0.000996969               0.000000000               0.999999985               0.001008877              -0.000000000               0.999999985               0.001021777              -0.000000000               0.999999985               0.001035326               0.000000000               0.999999985               0.001049119               0.000000000               0.999999985               0.001062582               0.000000000               0.999999985               0.001075428               0.000000000               0.999999985               0.001087343              -0.000000000               0.999999985               0.001098090               0.000000000               0.999999985               0.001107252               0.000000000               0.999999985               0.001114074               0.000000000               0.999999985               0.001117744               0.000000000               0.999999985               0.000886840              -0.000131317               0.999999985               0.000932881              -0.000104363               0.999999985               0.000951697              -0.000092136               0.999999985               0.000962231              -0.000087281               0.999999985               0.000971170              -0.000086079               0.999999985               0.000980845              -0.000086564               0.999999985               0.000991734              -0.000087518               0.999999985               0.001003577              -0.000088143               0.999999985               0.001015907              -0.000087854               0.999999985               0.001028175              -0.000086284               0.999999985               0.001040001              -0.000083322               0.999999985               0.001051031              -0.000078758               0.999999985               0.001060890              -0.000072460               0.999999985               0.001069352              -0.000063865               0.999999985               0.001076045              -0.000052202               0.999999985               0.001080412              -0.000036463               0.999999985               0.001081821              -0.000015400               0.999999985               0.000871897              -0.000261435               0.999999985               0.000905581              -0.000208338               0.999999985               0.000916780              -0.000185283               0.999999985               0.000922512              -0.000176584               0.999999985               0.000928168              -0.000174929               0.999999985               0.000935094              -0.000176371               0.999999985               0.000943179              -0.000178598               0.999999985               0.000952003              -0.000179998               0.999999985               0.000960966              -0.000179589               0.999999985               0.000969498              -0.000176843               0.999999985               0.000977161              -0.000171148               0.999999985               0.000983503              -0.000162418               0.999999985               0.000988243              -0.000150536               0.999999985               0.000991111              -0.000134682               0.999999985               0.000991719              -0.000113330               0.999999985               0.000989875              -0.000085527               0.999999985               0.000985447              -0.000050058               0.999999985               0.000847268              -0.000389208               0.999999985               0.000861573              -0.000311768               0.999999985               0.000861795              -0.000280234               0.999999985               0.000861102              -0.000269574               0.999999985               0.000862501              -0.000268636               0.999999985               0.000865845              -0.000271613               0.999999985               0.000870382              -0.000275379               0.999999985               0.000875250              -0.000277833               0.999999985               0.000879625              -0.000277669               0.999999985               0.000882842              -0.000273847               0.999999985               0.000884434              -0.000266034               0.999999985               0.000884149              -0.000254152               0.999999985               0.000881700              -0.000237950               0.999999985               0.000876843              -0.000216487               0.999999985               0.000869292              -0.000188663               0.999999985               0.000859114              -0.000153988               0.999999985               0.000846701              -0.000111754               0.999999985               0.000813632              -0.000513433               0.999999985               0.000803188              -0.000414585               0.999999985               0.000791151              -0.000377515               0.999999985               0.000784044              -0.000366915               0.999999985               0.000781395              -0.000367774               0.999999985               0.000781432              -0.000372891               0.999999985               0.000782419              -0.000378491               0.999999985               0.000782974              -0.000382069               0.999999985               0.000782108              -0.000382039               0.999999985               0.000779091              -0.000377300               0.999999985               0.000773635              -0.000367883               0.999999985               0.000765484              -0.000353656               0.999999985               0.000754456              -0.000334459               0.999999985               0.000740398              -0.000309510               0.999999985               0.000723417              -0.000278355               0.999999985               0.000703998              -0.000241174               0.999999985               0.000682749              -0.000198315               0.999999985               0.000771717              -0.000632985               0.999999985               0.000733533              -0.000516757               0.999999985               0.000710080              -0.000477186               0.999999985               0.000698015              -0.000468326               0.999999985               0.000692572              -0.000471796               0.999999985               0.000690000              -0.000479444               0.999999985               0.000687736              -0.000486686               0.999999985               0.000683967              -0.000491095               0.999999985               0.000677516              -0.000490837               0.999999985               0.000667659              -0.000485321               0.999999985               0.000654273              -0.000474536               0.999999985               0.000637339              -0.000458735               0.999999985               0.000616890              -0.000437648               0.999999985               0.000592975              -0.000410876               0.999999985               0.000566160              -0.000378739               0.999999985               0.000537193              -0.000342136               0.999999985               0.000506845              -0.000302081               0.999999985               0.000722263              -0.000746805               0.999999985               0.000655966              -0.000618406               0.999999985               0.000623774              -0.000578867               0.999999985               0.000609233              -0.000572707               0.999999985               0.000602703              -0.000579000               0.999999985               0.000598474              -0.000588903               0.999999985               0.000593212              -0.000597480               0.999999985               0.000584843              -0.000602230               0.999999985               0.000572180              -0.000601664               0.999999985               0.000554828              -0.000595311               0.999999985               0.000532717              -0.000583514               0.999999985               0.000506175              -0.000566484               0.999999985               0.000475447              -0.000544262               0.999999985               0.000441201              -0.000516895               0.999999985               0.000404265              -0.000485241               0.999999985               0.000365547              -0.000450598               0.999999985               0.000325758              -0.000414299               0.999999985               0.000666285              -0.000853722               0.999999985               0.000574099              -0.000719392               0.999999985               0.000537087              -0.000681650               0.999999985               0.000522958              -0.000678218               0.999999985               0.000516734              -0.000687106               0.999999985               0.000511343              -0.000698778               0.999999985               0.000502925              -0.000708262               0.999999985               0.000489407              -0.000713038               0.999999985               0.000469671              -0.000711786               0.999999985               0.000443764              -0.000704678               0.999999985               0.000412091              -0.000691924               0.999999985               0.000375041              -0.000673887               0.999999985               0.000333533              -0.000650941               0.999999985               0.000288616              -0.000623644               0.999999985               0.000241179              -0.000593250               0.999999985               0.000192212              -0.000561246               0.999999985               0.000142390              -0.000528544               0.999999985               0.000605485              -0.000951855               0.999999985               0.000490745              -0.000819658               0.999999985               0.000454462              -0.000783980               0.999999985               0.000442758              -0.000782757               0.999999985               0.000437675              -0.000793733               0.999999985               0.000431035              -0.000806789               0.999999985               0.000418944              -0.000816784               0.999999985               0.000399104              -0.000821252               0.999999985               0.000371149              -0.000819352               0.999999985               0.000335635              -0.000811460               0.999999985               0.000293297              -0.000797732               0.999999985               0.000244914              -0.000778798               0.999999985               0.000191877              -0.000755369               0.999999985               0.000135348              -0.000728763               0.999999985               0.000076446              -0.000700803               0.999999985               0.000016464              -0.000672526               0.999999985              -0.000043615              -0.000644339               0.999999985               0.000542588              -0.001044881               0.999999985               0.000420798              -0.000932188               0.999999985               0.000381825              -0.000892653               0.999999985               0.000369596              -0.000886565               0.999999985               0.000365278              -0.000894715               0.999999985               0.000360781              -0.000907585               0.999999985               0.000351911              -0.000920097               0.999999985               0.000336179              -0.000929351               0.999999985               0.000312808              -0.000934103               0.999999985               0.000282104              -0.000933985               0.999999985               0.000244518              -0.000929016               0.999999985               0.000200729              -0.000919448               0.999999985               0.000151374              -0.000905658               0.999999985               0.000097012              -0.000888753               0.999999985               0.000038834              -0.000869838               0.999999985              -0.000021377              -0.000850128               0.999999985              -0.000082073              -0.000830474               0.999999985               0.000474160              -0.001129695               0.999999985               0.000353640              -0.001041224               0.999999985               0.000312102              -0.001004370               0.999999985               0.000298460              -0.000995755               0.999999985               0.000294100              -0.001001963               0.999999985               0.000290831              -0.001014834               0.999999985               0.000284412              -0.001029611               0.999999985               0.000272292              -0.001043238               0.999999985               0.000253374              -0.001053992               0.999999985               0.000227564              -0.001061006               0.999999985               0.000194959              -0.001064098               0.999999985               0.000155849              -0.001063254               0.999999985               0.000110626              -0.001058676               0.999999985               0.000059544              -0.001050790               0.999999985               0.000003156              -0.001040535               0.999999985              -0.000056990              -0.001029103               0.999999985              -0.000119070              -0.001017550               0.999999985               0.000401481              -0.001204355               0.999999985               0.000289264              -0.001143454               0.999999985               0.000247133              -0.001113897               0.999999985               0.000231890              -0.001106128               0.999999985               0.000226738              -0.001111901               0.999999985               0.000223845              -0.001125363               0.999999985               0.000219110              -0.001142424               0.999999985               0.000210074              -0.001160135               0.999999985               0.000195278              -0.001176563               0.999999985               0.000174281              -0.001190426               0.999999985               0.000146755              -0.001201298               0.999999985               0.000112651              -0.001208933               0.999999985               0.000072343              -0.001213251               0.999999985               0.000025606              -0.001214398               0.999999985              -0.000027905              -0.001212869               0.999999985              -0.000087428              -0.001209598               0.999999985              -0.000151191              -0.001205858               0.999999985               0.000325364              -0.001267360               0.999999985               0.000227766              -0.001234554               0.999999985               0.000187844              -0.001215619               0.999999985               0.000171892              -0.001211679               0.999999985               0.000165777              -0.001218939               0.999999985               0.000162736              -0.001233951               0.999999985               0.000159105              -0.001253496               0.999999985               0.000152400              -0.001275134               0.999999985               0.000141147              -0.001296926               0.999999985               0.000124636              -0.001317622               0.999999985               0.000102388              -0.001336235               0.999999985               0.000074039              -0.001352342               0.999999985               0.000039457              -0.001365714               0.999999985              -0.000001801              -0.001376128               0.999999985              -0.000050630              -0.001383836               0.999999985              -0.000107408              -0.001389304               0.999999985              -0.000171656              -0.001393585               0.999999985               0.000246522              -0.001317541               0.999999985               0.000168708              -0.001310438               0.999999985               0.000134390              -0.001303554               0.999999985               0.000119420              -0.001305306               0.999999985               0.000112980              -0.001315654               0.999999985               0.000109856              -0.001332995               0.999999985               0.000106918              -0.001355348               0.999999985               0.000101936              -0.001380749               0.999999985               0.000093662              -0.001407529               0.999999985               0.000081565              -0.001434464               0.999999985               0.000064915              -0.001460428               0.999999985               0.000043020              -0.001484622               0.999999985               0.000015475              -0.001506755               0.999999985              -0.000018499              -0.001526607               0.999999985              -0.000059872              -0.001544002               0.999999985              -0.000110152              -0.001559016               0.999999985              -0.000170296              -0.001571902               0.999999985               0.000165533              -0.001354134               0.999999985               0.000111490              -0.001367496               0.999999985               0.000086242              -0.001371701               0.999999985               0.000074403              -0.001379406               0.999999985               0.000068939              -0.001393338               0.999999985               0.000066205              -0.001413344               0.999999985               0.000063901              -0.001438329               0.999999985               0.000060521              -0.001466837               0.999999985               0.000055102              -0.001497606               0.999999985               0.000047238              -0.001529532               0.999999985               0.000036319              -0.001561677               0.999999985               0.000021453              -0.001593198               0.999999985               0.000002177              -0.001623433               0.999999985              -0.000022331              -0.001652048               0.999999985              -0.000052948              -0.001678637               0.999999985              -0.000091165              -0.001702873               0.999999985              -0.000139294              -0.001724347               0.999999985               0.000083119              -0.001376373               0.999999985               0.000055476              -0.001402883               0.999999985               0.000042056              -0.001414892               0.999999985               0.000035495              -0.001427100               0.999999985               0.000032349              -0.001443791               0.999999985               0.000030696              -0.001465868               0.999999985               0.000029479              -0.001492775               0.999999985               0.000027666              -0.001523420               0.999999985               0.000025040              -0.001556767               0.999999985               0.000021177              -0.001591855               0.999999985               0.000015733              -0.001628065               0.999999985               0.000008232              -0.001664661               0.999999985              -0.000001721              -0.001700902               0.999999985              -0.000014499              -0.001736114               0.999999985              -0.000030868              -0.001769694               0.999999985              -0.000051868              -0.001800962               0.999999985              -0.000078942              -0.001829012               0.999999985              -0.000000000              -0.001383820               0.999999985               0.000000000              -0.001414886               0.999999985              -0.000000000              -0.001429645               0.999999985              -0.000000000              -0.001443466               0.999999985               0.000000000              -0.001461277               0.999999985              -0.000000000              -0.001484092               0.999999985              -0.000000000              -0.001511699               0.999999985              -0.000000000              -0.001543221               0.999999985               0.000000000              -0.001577544               0.999999985              -0.000000000              -0.001613811               0.999999985               0.000000000              -0.001651424               0.999999985               0.000000000              -0.001689702               0.999999985              -0.000000000              -0.001728081               0.999999985              -0.000000000              -0.001765825               0.999999985               0.000000000              -0.001801961               0.999999985               0.000000000              -0.001835782               0.999999985               0.000000000              -0.001866362               0.999999985               0.000891835               0.000000000               0.999999985               0.000942147              -0.000000000               0.999999985               0.000963671               0.000000000               0.999999985               0.000975988               0.000000000               0.999999985               0.000986252              -0.000000000               0.999999985               0.000996969               0.000000000               0.999999985               0.001008877              -0.000000000               0.999999985               0.001021777              -0.000000000               0.999999985               0.001035326               0.000000000               0.999999985               0.001049119               0.000000000               0.999999985               0.001062582               0.000000000               0.999999985               0.001075428               0.000000000               0.999999985               0.001087343              -0.000000000               0.999999985               0.001098090               0.000000000               0.999999985               0.001107252               0.000000000               0.999999985               0.001114074               0.000000000               0.999999985               0.001117744               0.000000000               0.999999985               0.000886840               0.000131317               0.999999985               0.000932881               0.000104363               0.999999985               0.000951697               0.000092136               0.999999985               0.000962231               0.000087281               0.999999985               0.000971170               0.000086079               0.999999985               0.000980845               0.000086564               0.999999985               0.000991734               0.000087518               0.999999985               0.001003577               0.000088143               0.999999985               0.001015907               0.000087854               0.999999985               0.001028175               0.000086284               0.999999985               0.001040001               0.000083322               0.999999985               0.001051031               0.000078758               0.999999985               0.001060890               0.000072460               0.999999985               0.001069352               0.000063865               0.999999985               0.001076045               0.000052202               0.999999985               0.001080412               0.000036463               0.999999985               0.001081821               0.000015400               0.999999985               0.000871897               0.000261435               0.999999985               0.000905581               0.000208338               0.999999985               0.000916780               0.000185283               0.999999985               0.000922512               0.000176584               0.999999985               0.000928168               0.000174929               0.999999985               0.000935094               0.000176371               0.999999985               0.000943179               0.000178598               0.999999985               0.000952003               0.000179998               0.999999985               0.000960966               0.000179589               0.999999985               0.000969498               0.000176843               0.999999985               0.000977161               0.000171148               0.999999985               0.000983503               0.000162418               0.999999985               0.000988243               0.000150536               0.999999985               0.000991111               0.000134682               0.999999985               0.000991719               0.000113330               0.999999985               0.000989875               0.000085527               0.999999985               0.000985447               0.000050058               0.999999985               0.000847268               0.000389208               0.999999985               0.000861573               0.000311768               0.999999985               0.000861795               0.000280234               0.999999985               0.000861102               0.000269574               0.999999985               0.000862501               0.000268636               0.999999985               0.000865845               0.000271613               0.999999985               0.000870382               0.000275379               0.999999985               0.000875250               0.000277833               0.999999985               0.000879625               0.000277669               0.999999985               0.000882842               0.000273847               0.999999985               0.000884434               0.000266034               0.999999985               0.000884149               0.000254152               0.999999985               0.000881700               0.000237950               0.999999985               0.000876843               0.000216487               0.999999985               0.000869292               0.000188663               0.999999985               0.000859114               0.000153988               0.999999985               0.000846701               0.000111754               0.999999985               0.000813632               0.000513433               0.999999985               0.000803188               0.000414585               0.999999985               0.000791151               0.000377515               0.999999985               0.000784044               0.000366915               0.999999985               0.000781395               0.000367774               0.999999985               0.000781432               0.000372891               0.999999985               0.000782419               0.000378491               0.999999985               0.000782974               0.000382069               0.999999985               0.000782108               0.000382039               0.999999985               0.000779091               0.000377300               0.999999985               0.000773635               0.000367883               0.999999985               0.000765484               0.000353656               0.999999985               0.000754456               0.000334459               0.999999985               0.000740398               0.000309510               0.999999985               0.000723417               0.000278355               0.999999985               0.000703998               0.000241174               0.999999985               0.000682749               0.000198315               0.999999985               0.000771717               0.000632985               0.999999985               0.000733533               0.000516757               0.999999985               0.000710080               0.000477186               0.999999985               0.000698015               0.000468326               0.999999985               0.000692572               0.000471796               0.999999985               0.000690000               0.000479444               0.999999985               0.000687736               0.000486686               0.999999985               0.000683967               0.000491095               0.999999985               0.000677516               0.000490837               0.999999985               0.000667659               0.000485321               0.999999985               0.000654273               0.000474536               0.999999985               0.000637339               0.000458735               0.999999985               0.000616890               0.000437648               0.999999985               0.000592975               0.000410876               0.999999985               0.000566160               0.000378739               0.999999985               0.000537193               0.000342136               0.999999985               0.000506845               0.000302081               0.999999985               0.000722263               0.000746805               0.999999985               0.000655966               0.000618406               0.999999985               0.000623774               0.000578867               0.999999985               0.000609233               0.000572707               0.999999985               0.000602703               0.000579000               0.999999985               0.000598474               0.000588903               0.999999985               0.000593212               0.000597480               0.999999985               0.000584843               0.000602230               0.999999985               0.000572180               0.000601664               0.999999985               0.000554828               0.000595311               0.999999985               0.000532717               0.000583514               0.999999985               0.000506175               0.000566484               0.999999985               0.000475447               0.000544262               0.999999985               0.000441201               0.000516895               0.999999985               0.000404265               0.000485241               0.999999985               0.000365547               0.000450598               0.999999985               0.000325758               0.000414299               0.999999985               0.000666285               0.000853722               0.999999985               0.000574099               0.000719392               0.999999985               0.000537087               0.000681650               0.999999985               0.000522958               0.000678218               0.999999985               0.000516734               0.000687106               0.999999985               0.000511343               0.000698778               0.999999985               0.000502925               0.000708262               0.999999985               0.000489407               0.000713038               0.999999985               0.000469671               0.000711786               0.999999985               0.000443764               0.000704678               0.999999985               0.000412091               0.000691924               0.999999985               0.000375041               0.000673887               0.999999985               0.000333533               0.000650941               0.999999985               0.000288616               0.000623644               0.999999985               0.000241179               0.000593250               0.999999985               0.000192212               0.000561246               0.999999985               0.000142390               0.000528544               0.999999985               0.000605485               0.000951855               0.999999985               0.000490745               0.000819658               0.999999985               0.000454462               0.000783980               0.999999985               0.000442758               0.000782757               0.999999985               0.000437675               0.000793733               0.999999985               0.000431035               0.000806789               0.999999985               0.000418944               0.000816784               0.999999985               0.000399104               0.000821252               0.999999985               0.000371149               0.000819352               0.999999985               0.000335635               0.000811460               0.999999985               0.000293297               0.000797732               0.999999985               0.000244914               0.000778798               0.999999985               0.000191877               0.000755369               0.999999985               0.000135348               0.000728763               0.999999985               0.000076446               0.000700803               0.999999985               0.000016464               0.000672526               0.999999985              -0.000043615               0.000644339               0.999999985               0.000542588               0.001044881               0.999999985               0.000420798               0.000932188               0.999999985               0.000381825               0.000892653               0.999999985               0.000369596               0.000886565               0.999999985               0.000365278               0.000894715               0.999999985               0.000360781               0.000907585               0.999999985               0.000351911               0.000920097               0.999999985               0.000336179               0.000929351               0.999999985               0.000312808               0.000934103               0.999999985               0.000282104               0.000933985               0.999999985               0.000244518               0.000929016               0.999999985               0.000200729               0.000919448               0.999999985               0.000151374               0.000905658               0.999999985               0.000097012               0.000888753               0.999999985               0.000038834               0.000869838               0.999999985              -0.000021377               0.000850128               0.999999985              -0.000082073               0.000830474               0.999999985               0.000474160               0.001129695               0.999999985               0.000353640               0.001041224               0.999999985               0.000312102               0.001004370               0.999999985               0.000298460               0.000995755               0.999999985               0.000294100               0.001001963               0.999999985               0.000290831               0.001014834               0.999999985               0.000284412               0.001029611               0.999999985               0.000272292               0.001043238               0.999999985               0.000253374               0.001053992               0.999999985               0.000227564               0.001061006               0.999999985               0.000194959               0.001064098               0.999999985               0.000155849               0.001063254               0.999999985               0.000110626               0.001058676               0.999999985               0.000059544               0.001050790               0.999999985               0.000003156               0.001040535               0.999999985              -0.000056990               0.001029103               0.999999985              -0.000119070               0.001017550               0.999999985               0.000401481               0.001204355               0.999999985               0.000289264               0.001143454               0.999999985               0.000247133               0.001113897               0.999999985               0.000231890               0.001106128               0.999999985               0.000226738               0.001111901               0.999999985               0.000223845               0.001125363               0.999999985               0.000219110               0.001142424               0.999999985               0.000210074               0.001160135               0.999999985               0.000195278               0.001176563               0.999999985               0.000174281               0.001190426               0.999999985               0.000146755               0.001201298               0.999999985               0.000112651               0.001208933               0.999999985               0.000072343               0.001213251               0.999999985               0.000025606               0.001214398               0.999999985              -0.000027905               0.001212869               0.999999985              -0.000087428               0.001209598               0.999999985              -0.000151191               0.001205858               0.999999985               0.000325364               0.001267360               0.999999985               0.000227766               0.001234554               0.999999985               0.000187844               0.001215619               0.999999985               0.000171892               0.001211679               0.999999985               0.000165777               0.001218939               0.999999985               0.000162736               0.001233951               0.999999985               0.000159105               0.001253496               0.999999985               0.000152400               0.001275134               0.999999985               0.000141147               0.001296926               0.999999985               0.000124636               0.001317622               0.999999985               0.000102388               0.001336235               0.999999985               0.000074039               0.001352342               0.999999985               0.000039457               0.001365714               0.999999985              -0.000001801               0.001376128               0.999999985              -0.000050630               0.001383836               0.999999985              -0.000107408               0.001389304               0.999999985              -0.000171656               0.001393585               0.999999985               0.000246522               0.001317541               0.999999985               0.000168708               0.001310438               0.999999985               0.000134390               0.001303554               0.999999985               0.000119420               0.001305306               0.999999985               0.000112980               0.001315654               0.999999985               0.000109856               0.001332995               0.999999985               0.000106918               0.001355348               0.999999985               0.000101936               0.001380749               0.999999985               0.000093662               0.001407529               0.999999985               0.000081565               0.001434464               0.999999985               0.000064915               0.001460428               0.999999985               0.000043020               0.001484622               0.999999985               0.000015475               0.001506755               0.999999985              -0.000018499               0.001526607               0.999999985              -0.000059872               0.001544002               0.999999985              -0.000110152               0.001559016               0.999999985              -0.000170296               0.001571902               0.999999985               0.000165533               0.001354134               0.999999985               0.000111490               0.001367496               0.999999985               0.000086242               0.001371701               0.999999985               0.000074403               0.001379406               0.999999985               0.000068939               0.001393338               0.999999985               0.000066205               0.001413344               0.999999985               0.000063901               0.001438329               0.999999985               0.000060521               0.001466837               0.999999985               0.000055102               0.001497606               0.999999985               0.000047238               0.001529532               0.999999985               0.000036319               0.001561677               0.999999985               0.000021453               0.001593198               0.999999985               0.000002177               0.001623433               0.999999985              -0.000022331               0.001652048               0.999999985              -0.000052948               0.001678637               0.999999985              -0.000091165               0.001702873               0.999999985              -0.000139294               0.001724347               0.999999985               0.000083119               0.001376373               0.999999985               0.000055476               0.001402883               0.999999985               0.000042056               0.001414892               0.999999985               0.000035495               0.001427100               0.999999985               0.000032349               0.001443791               0.999999985               0.000030696               0.001465868               0.999999985               0.000029479               0.001492775               0.999999985               0.000027666               0.001523420               0.999999985               0.000025040               0.001556767               0.999999985               0.000021177               0.001591855               0.999999985               0.000015733               0.001628065               0.999999985               0.000008232               0.001664661               0.999999985              -0.000001721               0.001700902               0.999999985              -0.000014499               0.001736114               0.999999985              -0.000030868               0.001769694               0.999999985              -0.000051868               0.001800962               0.999999985              -0.000078942               0.001829012               0.999999985              -0.000000000               0.001383820               0.999999985               0.000000000               0.001414886               0.999999985              -0.000000000               0.001429645               0.999999985               0.000000000               0.001443466               0.999999985               0.000000000               0.001461277               0.999999985               0.000000000               0.001484092               0.999999985               0.000000000               0.001511699               0.999999985              -0.000000000               0.001543221               0.999999985              -0.000000000               0.001577544               0.999999985              -0.000000000               0.001613811               0.999999985              -0.000000000               0.001651424               0.999999985              -0.000000000               0.001689702               0.999999985              -0.000000000               0.001728081               0.999999985               0.000000000               0.001765825               0.999999985               0.000000000               0.001801961               0.999999985               0.000000000               0.001835782               0.999999985               0.000000000               0.001866362               0.999999985 </DataArray>
<DataArray type="Float64"                                    Name="defo"                                                      NumberOfComponents=" 3" format="ascii">
             -0.000891835               0.000000000               0.999999985              -0.000942147               0.000000000               0.999999985              -0.000963671              -0.000000000               0.999999985              -0.000975988              -0.000000000               0.999999985              -0.000986252               0.000000000               0.999999985              -0.000996969              -0.000000000               0.999999985              -0.001008877              -0.000000000               0.999999985              -0.001021777              -0.000000000               0.999999985              -0.001035326              -0.000000000               0.999999985              -0.001049119               0.000000000               0.999999985              -0.001062582               0.000000000               0.999999985              -0.001075428               0.000000000               0.999999985              -0.001087343               0.000000000               0.999999985              -0.001098090               0.000000000               0.999999985              -0.001107252              -0.000000000               0.999999985              -0.001114074              -0.000000000               0.999999985              -0.001117744              -0.000000000               0.999999985              -0.000886840               0.000131317               0.999999985              -0.000932881               0.000104363               0.999999985              -0.000951697               0.000092136               0.999999985              -0.000962231               0.000087281               0.999999985              -0.000971170               0.000086079               0.999999985              -0.000980845               0.000086564               0.999999985              -0.000991734               0.000087518               0.999999985              -0.001003577               0.000088143               0.999999985              -0.001015907               0.000087854               0.999999985              -0.001028175               0.000086284               0.999999985              -0.001040001               0.000083322               0.999999985              -0.001051031               0.000078758               0.999999985              -0.001060890               0.000072460               0.999999985              -0.001069352               0.000063865               0.999999985              -0.001076045               0.000052202               0.999999985              -0.001080412               0.000036463               0.999999985              -0.001081821               0.000015400               0.999999985              -0.000871897               0.000261435               0.999999985              -0.000905581               0.000208338               0.999999985              -0.000916780               0.000185283               0.999999985              -0.000922512               0.000176584               0.999999985              -0.000928168               0.000174929               0.999999985              -0.000935094               0.000176371               0.999999985              -0.000943179               0.000178598               0.999999985              -0.000952003               0.000179998               0.999999985              -0.000960966               0.000179589               0.999999985              -0.000969498               0.000176843               0.999999985              -0.000977161               0.000171148               0.999999985              -0.000983503               0.000162418               0.999999985              -0.000988243               0.000150536               0.999999985              -0.000991111               0.000134682               0.999999985              -0.000991719               0.000113330               0.999999985              -0.000989875               0.000085527               0.999999985              -0.000985447               0.000050058               0.999999985              -0.000847268               0.000389208               0.999999985              -0.000861573               0.000311768               0.999999985              -0.000861795               0.000280234               0.999999985              -0.000861102               0.000269574               0.999999985              -0.000862501               0.000268636               0.999999985              -0.000865845               0.000271613               0.999999985              -0.000870382               0.000275379               0.999999985              -0.000875250               0.000277833               0.999999985              -0.000879625               0.000277669               0.999999985              -0.000882842               0.000273847               0.999999985              -0.000884434               0.000266034               0.999999985              -0.000884149               0.000254152               0.999999985              -0.000881700               0.000237950               0.999999985              -0.000876843               0.000216487               0.999999985              -0.000869292               0.000188663               0.999999985              -0.000859114               0.000153988               0.999999985              -0.000846701               0.000111754               0.999999985              -0.000813632               0.000513433               0.999999985              -0.000803188               0.000414585               0.999999985              -0.000791151               0.000377515               0.999999985              -0.000784044               0.000366915               0.999999985              -0.000781395               0.000367774               0.999999985              -0.000781432               0.000372891               0.999999985              -0.000782419               0.000378491               0.999999985              -0.000782974               0.000382069               0.999999985              -0.000782108               0.000382039               0.999999985              -0.000779091               0.000377300               0.999999985              -0.000773635               0.000367883               0.999999985              -0.000765484               0.000353656               0.999999985              -0.000754456               0.000334459               0.999999985              -0.000740398               0.000309510               0.999999985              -0.000723417               0.000278355               0.999999985              -0.000703998               0.000241174               0.999999985              -0.000682749               0.000198315               0.999999985              -0.000771717               0.000632985               0.999999985              -0.000733533               0.000516757               0.999999985              -0.000710080               0.000477186               0.999999985              -0.000698015               0.000468326               0.999999985              -0.000692572               0.000471796               0.999999985              -0.000690000               0.000479444               0.999999985              -0.000687736               0.000486686               0.999999985              -0.000683967               0.000491095               0.999999985              -0.000677516               0.000490837               0.999999985              -0.000667659               0.000485321               0.999999985              -0.000654273               0.000474536               0.999999985              -0.000637339               0.000458735               0.999999985              -0.000616890               0.000437648               0.999999985              -0.000592975               0.000410876               0.999999985              -0.000566160               0.000378739               0.999999985              -0.000537193               0.000342136               0.999999985              -0.000506845               0.000302081               0.999999985              -0.000722263               0.000746805               0.999999985              -0.000655966               0.000618406               0.999999985              -0.000623774               0.000578867               0.999999985              -0.000609233               0.000572707               0.999999985              -0.000602703               0.000579000               0.999999985              -0.000598474               0.000588903               0.999999985              -0.000593212               0.000597480               0.999999985              -0.000584843               0.000602230               0.999999985              -0.000572180               0.000601664               0.999999985              -0.000554828               0.000595311               0.999999985              -0.000532717               0.000583514               0.999999985              -0.000506175               0.000566484               0.999999985              -0.000475447               0.000544262               0.999999985              -0.000441201               0.000516895               0.999999985              -0.000404265               0.000485241               0.999999985              -0.000365547               0.000450598               0.999999985              -0.000325758               0.000414299               0.999999985              -0.000666285               0.000853722               0.999999985              -0.000574099               0.000719392               0.999999985              -0.000537087               0.000681650               0.999999985              -0.000522958               0.000678218               0.999999985              -0.000516734               0.000687106               0.999999985              -0.000511343               0.000698778               0.999999985              -0.000502925               0.000708262               0.999999985              -0.000489407               0.000713038               0.999999985              -0.000469671               0.000711786               0.999999985              -0.000443764               0.000704678               0.999999985              -0.000412091               0.000691924               0.999999985              -0.000375041               0.000673887               0.999999985              -0.000333533               0.000650941               0.999999985              -0.000288616               0.000623644               0.999999985              -0.000241179               0.000593250               0.999999985              -0.000192212               0.000561246               0.999999985              -0.000142390               0.000528544               0.999999985              -0.000605485               0.000951855               0.999999985              -0.000490745               0.000819658               0.999999985              -0.000454462               0.000783980               0.999999985              -0.000442758               0.000782757               0.999999985              -0.000437675               0.000793733               0.999999985              -0.000431035               0.000806789               0.999999985              -0.000418944               0.000816784               0.999999985              -0.000399104               0.000821252               0.999999985              -0.000371149               0.000819352               0.999999985              -0.000335635               0.000811460               0.999999985              -0.000293297               0.000797732               0.999999985              -0.000244914               0.000778798               0.999999985              -0.000191877               0.000755369               0.999999985              -0.000135348               0.000728763               0.999999985              -0.000076446               0.000700803               0.999999985              -0.000016464               0.000672526               0.999999985               0.000043615               0.000644339               0.999999985              -0.000542588               0.001044881               0.999999985              -0.000420798               0.000932188               0.999999985              -0.000381825               0.000892653               0.999999985              -0.000369596               0.000886565               0.999999985              -0.000365278               0.000894715               0.999999985              -0.000360781               0.000907585               0.999999985              -0.000351911               0.000920097               0.999999985              -0.000336179               0.000929351               0.999999985              -0.000312808               0.000934103               0.999999985              -0.000282104               0.000933985               0.999999985              -0.000244518               0.000929016               0.999999985              -0.000200729               0.000919448               0.999999985              -0.000151374               0.000905658               0.999999985              -0.000097012               0.000888753               0.999999985              -0.000038834               0.000869838               0.999999985               0.000021377               0.000850128               0.999999985               0.000082073               0.000830474               0.999999985              -0.000474160               0.001129695               0.999999985              -0.000353640               0.001041224               0.999999985              -0.000312102               0.001004370               0.999999985              -0.000298460               0.000995755               0.999999985              -0.000294100               0.001001963               0.999999985              -0.000290831               0.001014834               0.999999985              -0.000284412               0.001029611               0.999999985              -0.000272292               0.001043238               0.999999985              -0.000253374               0.001053992               0.999999985              -0.000227564               0.001061006               0.999999985              -0.000194959               0.001064098               0.999999985              -0.000155849               0.001063254               0.999999985              -0.000110626               0.001058676               0.999999985              -0.000059544               0.001050790               0.999999985              -0.000003156               0.001040535               0.999999985               0.000056990               0.001029103               0.999999985               0.000119070               0.001017550               0.999999985              -0.000401481               0.001204355               0.999999985              -0.000289264               0.001143454               0.999999985              -0.000247133               0.001113897               0.999999985              -0.000231890               0.001106128               0.999999985              -0.000226738               0.001111901               0.999999985              -0.000223845               0.001125363               0.999999985              -0.000219110               0.001142424               0.999999985              -0.000210074               0.001160135               0.999999985              -0.000195278               0.001176563               0.999999985              -0.000174281               0.001190426               0.999999985              -0.000146755               0.001201298               0.999999985              -0.000112651               0.001208933               0.999999985              -0.000072343               0.001213251               0.999999985              -0.000025606               0.001214398               0.999999985               0.000027905               0.001212869               0.999999985               0.000087428               0.001209598               0.999999985               0.000151191               0.001205858               0.999999985              -0.000325364               0.001267360               0.999999985              -0.000227766               0.001234554               0.999999985              -0.000187844               0.001215619               0.999999985              -0.000171892               0.001211679               0.999999985              -0.000165777               0.001218939               0.999999985              -0.000162736               0.001233951               0.999999985              -0.000159105               0.001253496               0.999999985              -0.000152400               0.001275134               0.999999985              -0.000141147               0.001296926               0.999999985              -0.000124636               0.001317622               0.999999985              -0.000102388               0.001336235               0.999999985              -0.000074039               0.001352342               0.999999985              -0.000039457               0.001365714               0.999999985               0.000001801               0.001376128               0.999999985               0.000050630               0.001383836               0.999999985               0.000107408               0.001389304               0.999999985               0.000171656               0.001393585               0.999999985              -0.000246522               0.001317541               0.999999985              -0.000168708               0.001310438               0.999999985              -0.000134390               0.001303554               0.999999985              -0.000119420               0.001305306               0.999999985              -0.000112980               0.001315654               0.999999985              -0.000109856               0.001332995               0.999999985              -0.000106918               0.001355348               0.999999985              -0.000101936               0.001380749               0.999999985              -0.000093662               0.001407529               0.999999985              -0.000081565               0.001434464               0.999999985              -0.000064915               0.001460428               0.999999985              -0.000043020               0.001484622               0.999999985              -0.000015475               0.001506755               0.999999985               0.000018499               0.001526607               0.999999985               0.000059872               0.001544002               0.999999985               0.000110152               0.001559016               0.999999985               0.000170296               0.001571902               0.999999985              -0.000165533               0.001354134               0.999999985              -0.000111490               0.001367496               0.999999985              -0.000086242               0.001371701               0.999999985              -0.000074403               0.001379406               0.999999985              -0.000068939               0.001393338               0.999999985              -0.000066205               0.001413344               0.999999985              -0.000063901               0.001438329               0.999999985              -0.000060521               0.001466837               0.999999985              -0.000055102               0.001497606               0.999999985              -0.000047238               0.001529532               0.999999985              -0.000036319               0.001561677               0.999999985              -0.000021453               0.001593198               0.999999985              -0.000002177               0.001623433               0.999999985               0.000022331               0.001652048               0.999999985               0.000052948               0.001678637               0.999999985               0.000091165               0.001702873               0.999999985               0.000139294               0.001724347               0.999999985              -0.000083119               0.001376373               0.999999985              -0.000055476               0.001402883               0.999999985              -0.000042056               0.001414892               0.999999985              -0.000035495               0.001427100               0.999999985              -0.000032349               0.001443791               0.999999985              -0.000030696               0.001465868               0.999999985              -0.000029479               0.001492775               0.999999985              -0.000027666               0.001523420               0.999999985              -0.000025040               0.001556767               0.999999985              -0.000021177               0.001591855               0.999999985              -0.000015733               0.001628065               0.999999985              -0.000008232               0.001664661               0.999999985               0.000001721               0.001700902               0.999999985               0.000014499               0.001736114               0.999999985               0.000030868               0.001769694               0.999999985               0.000051868               0.001800962               0.999999985               0.000078942               0.001829012               0.999999985              -0.000000000               0.001383820               0.999999985               0.000000000               0.001414886               0.999999985              -0.000000000               0.001429645               0.999999985               0.000000000               0.001443466               0.999999985               0.000000000               0.001461277               0.999999985               0.000000000               0.001484092               0.999999985               0.000000000               0.001511699               0.999999985              -0.000000000               0.001543221               0.999999985              -0.000000000               0.001577544               0.999999985              -0.000000000               0.001613811               0.999999985              -0.000000000               0.001651424               0.999999985              -0.000000000               0.001689702               0.999999985              -0.000000000               0.001728081               0.999999985               0.000000000               0.001765825               0.999999985               0.000000000               0.001801961               0.999999985               0.000000000               0.001835782               0.999999985               0.000000000               0.001866362               0.999999985              -0.000891835               0.000000000               0.999999985              -0.000942147               0.000000000               0.999999985              -0.000963671              -0.000000000               0.999999985              -0.000975988              -0.000000000               0.999999985              -0.000986252               0.000000000               0.999999985              -0.000996969              -0.000000000               0.999999985              -0.001008877              -0.000000000               0.999999985              -0.001021777              -0.000000000               0.999999985              -0.001035326              -0.000000000               0.999999985              -0.001049119               0.000000000               0.999999985              -0.001062582               0.000000000               0.999999985              -0.001075428               0.000000000               0.999999985              -0.001087343               0.000000000               0.999999985              -0.001098090               0.000000000               0.999999985              -0.001107252              -0.000000000               0.999999985              -0.001114074              -0.000000000               0.999999985              -0.001117744              -0.000000000               0.999999985              -0.000886840              -0.000131317               0.999999985              -0.000932881              -0.000104363               0.999999985              -0.000951697              -0.000092136               0.999999985              -0.000962231              -0.000087281               0.999999985              -0.000971170              -0.000086079               0.999999985              -0.000980845              -0.000086564               0.999999985              -0.000991734              -0.000087518               0.999999985              -0.001003577              -0.000088143               0.999999985              -0.001015907              -0.000087854               0.999999985              -0.001028175              -0.000086284               0.999999985              -0.001040001              -0.000083322               0.999999985              -0.001051031              -0.000078758               0.999999985              -0.001060890              -0.000072460               0.999999985              -0.001069352              -0.000063865               0.999999985              -0.001076045              -0.000052202               0.999999985              -0.001080412              -0.000036463               0.999999985              -0.001081821              -0.000015400               0.999999985              -0.000871897              -0.000261435               0.999999985              -0.000905581              -0.000208338               0.999999985              -0.000916780              -0.000185283               0.999999985              -0.000922512              -0.000176584               0.999999985              -0.000928168              -0.000174929               0.999999985              -0.000935094              -0.000176371               0.999999985              -0.000943179              -0.000178598               0.999999985              -0.000952003              -0.000179998               0.999999985              -0.000960966              -0.000179589               0.999999985              -0.000969498              -0.000176843               0.999999985              -0.000977161              -0.000171148               0.999999985              -0.000983503              -0.000162418               0.999999985              -0.000988243              -0.000150536               0.999999985              -0.000991111              -0.000134682               0.999999985              -0.000991719              -0.000113330               0.999999985              -0.000989875              -0.000085527               0.999999985              -0.000985447              -0.000050058               0.999999985              -0.000847268              -0.000389208               0.999999985              -0.000861573              -0.000311768               0.999999985              -0.000861795              -0.000280234               0.999999985              -0.000861102              -0.000269574               0.999999985              -0.000862501              -0.000268636               0.999999985              -0.000865845              -0.000271613               0.999999985              -0.000870382              -0.000275379               0.999999985              -0.000875250              -0.000277833               0.999999985              -0.000879625              -0.000277669               0.999999985              -0.000882842              -0.000273847               0.999999985              -0.000884434              -0.000266034               0.999999985              -0.000884149              -0.000254152               0.999999985              -0.000881700              -0.000237950               0.999999985              -0.000876843              -0.000216487               0.999999985              -0.000869292              -0.000188663               0.999999985              -0.000859114              -0.000153988               0.999999985              -0.000846701              -0.000111754               0.999999985              -0.000813632              -0.000513433               0.999999985              -0.000803188              -0.000414585               0.999999985              -0.000791151              -0.000377515               0.999999985              -0.000784044              -0.000366915               0.999999985              -0.000781395              -0.000367774               0.999999985              -0.000781432              -0.000372891               0.999999985              -0.000782419              -0.000378491               0.999999985              -0.000782974              -0.000382069               0.999999985              -0.000782108              -0.000382039               0.999999985              -0.000779091              -0.000377300               0.999999985              -0.000773635              -0.000367883               0.999999985              -0.000765484              -0.000353656               0.999999985              -0.000754456              -0.000334459               0.999999985              -0.000740398              -0.000309510               0.999999985              -0.000723417              -0.000278355               0.999999985              -0.000703998              -0.000241174               0.999999985              -0.000682749              -0.000198315               0.999999985              -0.000771717              -0.000632985               0.999999985              -0.000733533              -0.000516757               0.999999985              -0.000710080              -0.000477186               0.999999985              -0.000698015              -0.000468326               0.999999985              -0.000692572              -0.000471796               0.999999985              -0.000690000              -0.000479444               0.999999985              -0.000687736              -0.000486686               0.999999985              -0.000683967              -0.000491095               0.999999985              -0.000677516              -0.000490837               0.999999985              -0.000667659              -0.000485321               0.999999985              -0.000654273              -0.000474536               0.999999985              -0.000637339              -0.000458735               0.999999985              -0.000616890              -0.000437648               0.999999985              -0.000592975              -0.000410876               0.999999985              -0.000566160              -0.000378739               0.999999985              -0.000537193              -0.000342136               0.999999985              -0.000506845              -0.000302081               0.999999985              -0.000722263              -0.000746805               0.999999985              -0.000655966              -0.000618406               0.999999985              -0.000623774              -0.000578867               0.999999985              -0.000609233              -0.000572707               0.999999985              -0.000602703              -0.000579000               0.999999985              -0.000598474              -0.000588903               0.999999985              -0.000593212              -0.000597480               0.999999985              -0.000584843              -0.000602230               0.999999985              -0.000572180              -0.000601664               0.999999985              -0.000554828              -0.000595311               0.999999985              -0.000532717              -0.000583514               0.999999985              -0.000506175              -0.000566484               0.999999985              -0.000475447              -0.000544262               0.999999985              -0.000441201              -0.000516895               0.999999985              -0.000404265              -0.000485241               0.999999985              -0.000365547              -0.000450598               0.999999985              -0.000325758              -0.000414299               0.999999985              -0.000666285              -0.000853722               0.999999985              -0.000574099              -0.000719392               0.999999985              -0.000537087              -0.000681650               0.999999985              -0.000522958              -0.000678218               0.999999985              -0.000516734              -0.000687106               0.999999985              -0.000511343              -0.000698778               0.999999985              -0.000502925              -0.000708262               0.999999985              -0.000489407              -0.000713038               0.999999985              -0.000469671              -0.000711786               0.999999985              -0.000443764              -0.000704678               0.999999985              -0.000412091              -0.000691924               0.999999985              -0.000375041              -0.000673887               0.999999985              -0.000333533              -0.000650941               0.999999985              -0.000288616              -0.000623644               0.999999985              -0.000241179              -0.000593250               0.999999985              -0.000192212              -0.000561246               0.999999985              -0.000142390              -0.000528544               0.999999985              -0.000605485              -0.000951855               0.999999985              -0.000490745              -0.000819658               0.999999985              -0.000454462              -0.000783980               0.999999985              -0.000442758              -0.000782757               0.999999985              -0.000437675              -0.000793733               0.999999985              -0.000431035              -0.000806789               0.999999985              -0.000418944              -0.000816784               0.999999985              -0.000399104              -0.000821252               0.999999985              -0.000371149              -0.000819352               0.999999985              -0.000335635              -0.000811460               0.999999985              -0.000293297              -0.000797732               0.999999985              -0.000244914              -0.000778798               0.999999985              -0.000191877              -0.000755369               0.999999985              -0.000135348              -0.000728763               0.999999985              -0.000076446              -0.000700803               0.999999985              -0.000016464              -0.000672526               0.999999985               0.000043615              -0.000644339               0.999999985              -0.000542588              -0.001044881               0.999999985              -0.000420798              -0.000932188               0.999999985              -0.000381825              -0.000892653               0.999999985              -0.000369596              -0.000886565               0.999999985              -0.000365278              -0.000894715               0.999999985              -0.000360781              -0.000907585               0.999999985              -0.000351911              -0.000920097               0.999999985              -0.000336179              -0.000929351               0.999999985              -0.000312808              -0.000934103               0.999999985              -0.000282104              -0.000933985               0.999999985              -0.000244518              -0.000929016               0.999999985              -0.000200729              -0.000919448               0.999999985              -0.000151374              -0.000905658               0.999999985              -0.000097012              -0.000888753               0.999999985              -0.000038834              -0.000869838               0.999999985               0.000021377              -0.000850128               0.999999985               0.000082073              -0.000830474               0.999999985              -0.000474160              -0.001129695               0.999999985              -0.000353640              -0.001041224               0.999999985              -0.000312102              -0.001004370               0.999999985              -0.000298460              -0.000995755               0.999999985              -0.000294100              -0.001001963               0.999999985              -0.000290831              -0.001014834               0.999999985              -0.000284412              -0.001029611               0.999999985              -0.000272292              -0.001043238               0.999999985              -0.000253374              -0.001053992               0.999999985              -0.000227564              -0.001061006               0.999999985              -0.000194959              -0.001064098               0.999999985              -0.000155849              -0.001063254               0.999999985              -0.000110626              -0.001058676               0.999999985              -0.000059544              -0.001050790               0.999999985              -0.000003156              -0.001040535               0.999999985               0.000056990              -0.001029103               0.999999985               0.000119070              -0.001017550               0.999999985              -0.000401481              -0.001204355               0.999999985              -0.000289264              -0.001143454               0.999999985              -0.000247133              -0.001113897               0.999999985              -0.000231890              -0.001106128               0.999999985              -0.000226738              -0.001111901               0.999999985              -0.000223845              -0.001125363               0.999999985              -0.000219110              -0.001142424               0.999999985              -0.000210074              -0.001160135               0.999999985              -0.000195278              -0.001176563               0.999999985              -0.000174281              -0.001190426               0.999999985              -0.000146755              -0.001201298               0.999999985              -0.000112651              -0.001208933               0.999999985              -0.000072343              -0.001213251               0.999999985              -0.000025606              -0.001214398               0.999999985               0.000027905              -0.001212869               0.999999985               0.000087428              -0.001209598               0.999999985               0.000151191              -0.001205858               0.999999985              -0.000325364              -0.001267360               0.999999985              -0.000227766              -0.001234554               0.999999985              -0.000187844              -0.001215619               0.999999985              -0.000171892              -0.001211679               0.999999985              -0.000165777              -0.001218939               0.999999985              -0.000162736              -0.001233951               0.999999985              -0.000159105              -0.001253496               0.999999985              -0.000152400              -0.001275134               0.999999985              -0.000141147              -0.001296926               0.999999985              -0.000124636              -0.001317622               0.999999985              -0.000102388              -0.001336235               0.999999985              -0.000074039              -0.001352342               0.999999985              -0.000039457              -0.001365714               0.999999985               0.000001801              -0.001376128               0.999999985               0.000050630              -0.001383836               0.999999985               0.000107408              -0.001389304               0.999999985               0.000171656              -0.001393585               0.999999985              -0.000246522              -0.001317541               0.999999985              -0.000168708              -0.001310438               0.999999985              -0.000134390              -0.001303554               0.999999985              -0.000119420              -0.001305306               0.999999985              -0.000112980              -0.001315654               0.999999985              -0.000109856              -0.001332995               0.999999985              -0.000106918              -0.001355348               0.999999985              -0.000101936              -0.001380749               0.999999985              -0.000093662              -0.001407529               0.999999985              -0.000081565              -0.001434464               0.999999985              -0.000064915              -0.001460428               0.999999985              -0.000043020              -0.001484622               0.999999985              -0.000015475              -0.001506755               0.999999985               0.000018499              -0.001526607               0.999999985               0.000059872              -0.001544002               0.999999985               0.000110152              -0.001559016               0.999999985               0.000170296              -0.001571902               0.999999985              -0.000165533              -0.001354134               0.999999985              -0.000111490              -0.001367496               0.999999985              -0.000086242              -0.001371701               0.999999985              -0.000074403              -0.001379406               0.999999985              -0.000068939              -0.001393338               0.999999985              -0.000066205              -0.001413344               0.999999985              -0.000063901              -0.001438329               0.999999985              -0.000060521              -0.001466837               0.999999985              -0.000055102              -0.001497606               0.999999985              -0.000047238              -0.001529532               0.999999985              -0.000036319              -0.001561677               0.999999985              -0.000021453              -0.001593198               0.999999985              -0.000002177              -0.001623433               0.999999985               0.000022331              -0.001652048               0.999999985               0.000052948              -0.001678637               0.999999985               0.000091165              -0.001702873               0.999999985               0.000139294              -0.001724347               0.999999985              -0.000083119              -0.001376373               0.999999985              -0.000055476              -0.001402883               0.999999985              -0.000042056              -0.001414892               0.999999985              -0.000035495              -0.001427100               0.999999985              -0.000032349              -0.001443791               0.999999985              -0.000030696              -0.001465868               0.999999985              -0.000029479              -0.001492775               0.999999985              -0.000027666              -0.001523420               0.999999985              -0.000025040              -0.001556767               0.999999985              -0.000021177              -0.001591855               0.999999985              -0.000015733              -0.001628065               0.999999985              -0.000008232              -0.001664661               0.999999985               0.000001721              -0.001700902               0.999999985               0.000014499              -0.001736114               0.999999985               0.000030868              -0.001769694               0.999999985               0.000051868              -0.001800962               0.999999985               0.000078942              -0.001829012               0.999999985              -0.000000000              -0.001383820               0.999999985               0.000000000              -0.001414886               0.999999985              -0.000000000              -0.001429645               0.999999985              -0.000000000              -0.001443466               0.999999985               0.000000000              -0.001461277               0.999999985              -0.000000000              -0.001484092               0.999999985              -0.000000000              -0.001511699               0.999999985              -0.000000000              -0.001543221               0.999999985               0.000000000              -0.001577544               0.999999985              -0.000000000              -0.001613811               0.999999985               0.000000000              -0.001651424               0.999999985               0.000000000              -0.001689702               0.999999985              -0.000000000              -0.001728081               0.999999985              -0.000000000              -0.001765825               0.999999985               0.000000000              -0.001801961               0.999999985               0.000000000              -0.001835782               0.999999985               0.000000000              -0.001866362               0.999999985               0.000891835               0.000000000               0.999999985               0.000942147              -0.000000000               0.999999985               0.000963671               0.000000000               0.999999985               0.000975988               0.000000000               0.999999985               0.000986252              -0.000000000               0.999999985               0.000996969               0.000000000               0.999999985               0.001008877              -0.000000000               0.999999985               0.001021777              -0.000000000               0.999999985               0.001035326               0.000000000               0.999999985               0.001049119               0.000000000               0.999999985               0.001062582               0.000000000               0.999999985               0.001075428               0.000000000               0.999999985               0.001087343              -0.000000000               0.999999985               0.001098090               0.000000000               0.999999985               0.001107252               0.000000000               0.999999985               0.001114074               0.000000000               0.999999985               0.001117744               0.000000000               0.999999985               0.000886840              -0.000131317               0.999999985               0.000932881              -0.000104363               0.999999985               0.000951697              -0.000092136               0.999999985               0.000962231              -0.000087281               0.999999985               0.000971170              -0.000086079               0.999999985               0.000980845              -0.000086564               0.999999985               0.000991734              -0.000087518               0.999999985               0.001003577              -0.000088143               0.999999985               0.001015907              -0.000087854               0.999999985               0.001028175              -0.000086284               0.999999985               0.001040001              -0.000083322               0.999999985               0.001051031              -0.000078758               0.999999985               0.001060890              -0.000072460               0.999999985               0.001069352              -0.000063865               0.999999985               0.001076045              -0.000052202               0.999999985               0.001080412              -0.000036463               0.999999985               0.001081821              -0.000015400               0.999999985               0.000871897              -0.000261435               0.999999985               0.000905581              -0.000208338               0.999999985               0.000916780              -0.000185283               0.999999985               0.000922512              -0.000176584               0.999999985               0.000928168              -0.000174929               0.999999985               0.000935094              -0.000176371               0.999999985               0.000943179              -0.000178598               0.999999985               0.000952003              -0.000179998               0.999999985               0.000960966              -0.000179589               0.999999985               0.000969498              -0.000176843               0.999999985               0.000977161              -0.000171148               0.999999985               0.000983503              -0.000162418               0.999999985               0.000988243              -0.000150536               0.999999985               0.000991111              -0.000134682               0.999999985               0.000991719              -0.000113330               0.999999985               0.000989875              -0.000085527               0.999999985               0.000985447              -0.000050058               0.999999985               0.000847268              -0.000389208               0.999999985               0.000861573              -0.000311768               0.999999985               0.000861795              -0.000280234               0.999999985               0.000861102              -0.000269574               0.999999985               0.000862501              -0.000268636               0.999999985               0.000865845              -0.000271613               0.999999985               0.000870382              -0.000275379               0.999999985               0.000875250              -0.000277833               0.999999985               0.000879625              -0.000277669               0.999999985               0.000882842              -0.000273847               0.999999985               0.000884434              -0.000266034               0.999999985               0.000884149              -0.000254152               0.999999985               0.000881700              -0.000237950               0.999999985               0.000876843              -0.000216487               0.999999985               0.000869292              -0.000188663               0.999999985               0.000859114              -0.000153988               0.999999985               0.000846701              -0.000111754               0.999999985               0.000813632              -0.000513433               0.999999985               0.000803188              -0.000414585               0.999999985               0.000791151              -0.000377515               0.999999985               0.000784044              -0.000366915               0.999999985               0.000781395              -0.000367774               0.999999985               0.000781432              -0.000372891               0.999999985               0.000782419              -0.000378491               0.999999985               0.000782974              -0.000382069               0.999999985               0.000782108              -0.000382039               0.999999985               0.000779091              -0.000377300               0.999999985               0.000773635              -0.000367883               0.999999985               0.000765484              -0.000353656               0.999999985               0.000754456              -0.000334459               0.999999985               0.000740398              -0.000309510               0.999999985               0.000723417              -0.000278355               0.999999985               0.000703998              -0.000241174               0.999999985               0.000682749              -0.000198315               0.999999985               0.000771717              -0.000632985               0.999999985               0.000733533              -0.000516757               0.999999985               0.000710080              -0.000477186               0.999999985               0.000698015              -0.000468326               0.999999985               0.000692572              -0.000471796               0.999999985               0.000690000              -0.000479444               0.999999985               0.000687736              -0.000486686               0.999999985               0.000683967              -0.000491095               0.999999985               0.000677516              -0.000490837               0.999999985               0.000667659              -0.000485321               0.999999985               0.000654273              -0.000474536               0.999999985               0.000637339              -0.000458735               0.999999985               0.000616890              -0.000437648               0.999999985               0.000592975              -0.000410876               0.999999985               0.000566160              -0.000378739               0.999999985               0.000537193              -0.000342136               0.999999985               0.000506845              -0.000302081               0.999999985               0.000722263              -0.000746805               0.999999985               0.000655966              -0.000618406               0.999999985               0.000623774              -0.000578867               0.999999985               0.000609233              -0.000572707               0.999999985               0.000602703              -0.000579000               0.999999985               0.000598474              -0.000588903               0.999999985               0.000593212              -0.000597480               0.999999985               0.000584843              -0.000602230               0.999999985               0.000572180              -0.000601664               0.999999985               0.000554828              -0.000595311               0.999999985               0.000532717              -0.000583514               0.999999985               0.000506175              -0.000566484               0.999999985               0.000475447              -0.000544262               0.999999985               0.000441201              -0.000516895               0.999999985               0.000404265              -0.000485241               0.999999985               0.000365547              -0.000450598               0.999999985               0.000325758              -0.000414299               0.999999985               0.000666285              -0.000853722               0.999999985               0.000574099              -0.000719392               0.999999985               0.000537087              -0.000681650               0.999999985               0.000522958              -0.000678218               0.999999985               0.000516734              -0.000687106               0.999999985               0.000511343              -0.000698778               0.999999985               0.000502925              -0.000708262               0.999999985               0.000489407              -0.000713038               0.999999985               0.000469671              -0.000711786               0.999999985               0.000443764              -0.000704678               0.999999985               0.000412091              -0.000691924               0.999999985               0.000375041              -0.000673887               0.999999985               0.000333533              -0.000650941               0.999999985               0.000288616              -0.000623644               0.999999985               0.000241179              -0.000593250               0.999999985               0.000192212              -0.000561246               0.999999985               0.000142390              -0.000528544               0.999999985               0.000605485              -0.000951855               0.999999985               0.000490745              -0.000819658               0.999999985               0.000454462              -0.000783980               0.999999985               0.000442758              -0.000782757               0.999999985               0.000437675              -0.000793733               0.999999985               0.000431035              -0.000806789               0.999999985               0.000418944              -0.000816784               0.999999985               0.000399104              -0.000821252               0.999999985               0.000371149              -0.000819352               0.999999985               0.000335635              -0.000811460               0.999999985               0.000293297              -0.000797732               0.999999985               0.000244914              -0.000778798               0.999999985               0.000191877              -0.000755369               0.999999985               0.000135348              -0.000728763               0.999999985               0.000076446              -0.000700803               0.999999985               0.000016464              -0.000672526               0.999999985              -0.000043615              -0.000644339               0.999999985               0.000542588              -0.001044881               0.999999985               0.000420798              -0.000932188               0.999999985               0.000381825              -0.000892653               0.999999985               0.000369596              -0.000886565               0.999999985               0.000365278              -0.000894715               0.999999985               0.000360781              -0.000907585               0.999999985               0.000351911              -0.000920097               0.999999985               0.000336179              -0.000929351               0.999999985               0.000312808              -0.000934103               0.999999985               0.000282104              -0.000933985               0.999999985               0.000244518              -0.000929016               0.999999985               0.000200729              -0.000919448               0.999999985               0.000151374              -0.000905658               0.999999985               0.000097012              -0.000888753               0.999999985               0.000038834              -0.000869838               0.999999985              -0.000021377              -0.000850128               0.999999985              -0.000082073              -0.000830474               0.999999985               0.000474160              -0.001129695               0.999999985               0.000353640              -0.001041224               0.999999985               0.000312102              -0.001004370               0.999999985               0.000298460              -0.000995755               0.999999985               0.000294100              -0.001001963               0.999999985               0.000290831              -0.001014834               0.999999985               0.000284412              -0.001029611               0.999999985               0.000272292              -0.001043238               0.999999985               0.000253374              -0.001053992               0.999999985               0.000227564              -0.001061006               0.999999985               0.000194959              -0.001064098               0.999999985               0.000155849              -0.001063254               0.999999985               0.000110626              -0.001058676               0.999999985               0.000059544              -0.001050790               0.999999985               0.000003156              -0.001040535               0.999999985              -0.000056990              -0.001029103               0.999999985              -0.000119070              -0.001017550               0.999999985               0.000401481              -0.001204355               0.999999985               0.000289264              -0.001143454               0.999999985               0.000247133              -0.001113897               0.999999985               0.000231890              -0.001106128               0.999999985               0.000226738              -0.001111901               0.999999985               0.000223845              -0.001125363               0.999999985               0.000219110              -0.001142424               0.999999985               0.000210074              -0.001160135               0.999999985               0.000195278              -0.001176563               0.999999985               0.000174281              -0.001190426               0.999999985               0.000146755              -0.001201298               0.999999985               0.000112651              -0.001208933               0.999999985               0.000072343              -0.001213251               0.999999985               0.000025606              -0.001214398               0.999999985              -0.000027905              -0.001212869               0.999999985              -0.000087428              -0.001209598               0.999999985              -0.000151191              -0.001205858               0.999999985               0.000325364              -0.001267360               0.999999985               0.000227766              -0.001234554               0.999999985               0.000187844              -0.001215619               0.999999985               0.000171892              -0.001211679               0.999999985               0.000165777              -0.001218939               0.999999985               0.000162736              -0.001233951               0.999999985               0.000159105              -0.001253496               0.999999985               0.000152400              -0.001275134               0.999999985               0.000141147              -0.001296926               0.999999985               0.000124636              -0.001317622               0.999999985               0.000102388              -0.001336235               0.999999985               0.000074039              -0.001352342               0.999999985               0.000039457              -0.001365714               0.999999985              -0.000001801              -0.001376128               0.999999985              -0.000050630              -0.001383836               0.999999985              -0.000107408              -0.001389304               0.999999985              -0.000171656              -0.001393585               0.999999985               0.000246522              -0.001317541               0.999999985               0.000168708              -0.001310438               0.999999985               0.000134390              -0.001303554               0.999999985               0.000119420              -0.001305306               0.999999985               0.000112980              -0.001315654               0.999999985               0.000109856              -0.001332995               0.999999985               0.000106918              -0.001355348               0.999999985               0.000101936              -0.001380749               0.999999985               0.000093662              -0.001407529               0.999999985               0.000081565              -0.001434464               0.999999985               0.000064915              -0.001460428               0.999999985               0.000043020              -0.001484622               0.999999985               0.000015475              -0.001506755               0.999999985              -0.000018499              -0.001526607               0.999999985              -0.000059872              -0.001544002               0.999999985              -0.000110152              -0.001559016               0.999999985              -0.000170296              -0.001571902               0.999999985               0.000165533              -0.001354134               0.999999985               0.000111490              -0.001367496               0.999999985               0.000086242              -0.001371701               0.999999985               0.000074403              -0.001379406               0.999999985               0.000068939              -0.001393338               0.999999985               0.000066205              -0.001413344               0.999999985               0.000063901              -0.001438329               0.999999985               0.000060521              -0.001466837               0.999999985               0.000055102              -0.001497606               0.999999985               0.000047238              -0.001529532               0.999999985               0.000036319              -0.001561677               0.999999985               0.000021453              -0.001593198               0.999999985               0.000002177              -0.001623433               0.999999985              -0.000022331              -0.001652048               0.999999985              -0.000052948              -0.001678637               0.999999985              -0.000091165              -0.001702873               0.999999985              -0.000139294              -0.001724347               0.999999985               0.000083119              -0.001376373               0.999999985               0.000055476              -0.001402883               0.999999985               0.000042056              -0.001414892               0.999999985               0.000035495              -0.001427100               0.999999985               0.000032349              -0.001443791               0.999999985               0.000030696              -0.001465868               0.999999985               0.000029479              -0.001492775               0.999999985               0.000027666              -0.001523420               0.999999985               0.000025040              -0.001556767               0.999999985               0.000021177              -0.001591855               0.999999985               0.000015733              -0.001628065               0.999999985               0.000008232              -0.001664661               0.999999985              -0.000001721              -0.001700902               0.999999985              -0.000014499              -0.001736114               0.999999985              -0.000030868              -0.001769694               0.999999985              -0.000051868              -0.001800962               0.999999985              -0.000078942              -0.001829012               0.999999985              -0.000000000              -0.001383820               0.999999985               0.000000000              -0.001414886               0.999999985              -0.000000000              -0.001429645               0.999999985              -0.000000000              -0.001443466               0.999999985               0.000000000              -0.001461277               0.999999985              -0.000000000              -0.001484092               0.999999985              -0.000000000              -0.001511699               0.999999985              -0.000000000              -0.001543221               0.999999985               0.000000000              -0.001577544               0.999999985              -0.000000000              -0.001613811               0.999999985               0.000000000              -0.001651424               0.999999985               0.000000000              -0.001689702               0.999999985              -0.000000000              -0.001728081               0.999999985              -0.000000000              -0.001765825               0.999999985               0.000000000              -0.001801961               0.999999985               0.000000000              -0.001835782               0.999999985               0.000000000              -0.001866362               0.999999985               0.000891835               0.000000000               0.999999985               0.000942147              -0.000000000               0.999999985               0.000963671               0.000000000               0.999999985               0.000975988               0.000000000               0.999999985               0.000986252              -0.000000000               0.999999985               0.000996969               0.000000000               0.999999985               0.001008877              -0.000000000               0.999999985               0.001021777              -0.000000000               0.999999985               0.001035326               0.000000000               0.999999985               0.001049119               0.000000000               0.999999985               0.001062582               0.000000000               0.999999985               0.001075428               0.000000000               0.999999985               0.001087343              -0.000000000               0.999999985               0.001098090               0.000000000               0.999999985               0.001107252               0.000000000               0.999999985               0.001114074               0.000000000               0.999999985               0.001117744               0.000000000               0.999999985               0.000886840               0.000131317               0.999999985               0.000932881               0.000104363               0.999999985               0.000951697               0.000092136               0.999999985               0.000962231               0.000087281               0.999999985               0.000971170               0.000086079               0.999999985               0.000980845               0.000086564               0.999999985               0.000991734               0.000087518               0.999999985               0.001003577               0.000088143               0.999999985               0.001015907               0.000087854               0.999999985               0.001028175               0.000086284               0.999999985               0.001040001               0.000083322               0.999999985               0.001051031               0.000078758               0.999999985               0.001060890               0.000072460               0.999999985               0.001069352               0.000063865               0.999999985               0.001076045               0.000052202               0.999999985               0.001080412               0.000036463               0.999999985               0.001081821               0.000015400               0.999999985               0.000871897               0.000261435               0.999999985               0.000905581               0.000208338               0.999999985               0.000916780               0.000185283               0.999999985               0.000922512               0.000176584               0.999999985               0.000928168               0.000174929               0.999999985               0.000935094               0.000176371               0.999999985               0.000943179               0.000178598               0.999999985               0.000952003               0.000179998               0.999999985               0.000960966               0.000179589               0.999999985               0.000969498               0.000176843               0.999999985               0.000977161               0.000171148               0.999999985               0.000983503               0.000162418               0.999999985               0.000988243               0.000150536               0.999999985               0.000991111               0.000134682               0.999999985               0.000991719               0.000113330               0.999999985               0.000989875               0.000085527               0.999999985               0.000985447               0.000050058               0.999999985               0.000847268               0.000389208               0.999999985               0.000861573               0.000311768               0.999999985               0.000861795               0.000280234               0.999999985               0.000861102               0.000269574               0.999999985               0.000862501               0.000268636               0.999999985               0.000865845               0.000271613               0.999999985               0.000870382               0.000275379               0.999999985               0.000875250               0.000277833               0.999999985               0.000879625               0.000277669               0.999999985               0.000882842               0.000273847               0.999999985               0.000884434               0.000266034               0.999999985               0.000884149               0.000254152               0.999999985               0.000881700               0.000237950               0.999999985               0.000876843               0.000216487               0.999999985               0.000869292               0.000188663               0.999999985               0.000859114               0.000153988               0.999999985               0.000846701               0.000111754               0.999999985               0.000813632               0.000513433               0.999999985               0.000803188               0.000414585               0.999999985               0.000791151               0.000377515               0.999999985               0.000784044               0.000366915               0.999999985               0.000781395               0.000367774               0.999999985               0.000781432               0.000372891               0.999999985               0.000782419               0.000378491               0.999999985               0.000782974               0.000382069               0.999999985               0.000782108               0.000382039               0.999999985               0.000779091               0.000377300               0.999999985               0.000773635               0.000367883               0.999999985               0.000765484               0.000353656               0.999999985               0.000754456               0.000334459               0.999999985               0.000740398               0.000309510               0.999999985               0.000723417               0.000278355               0.999999985               0.000703998               0.000241174               0.999999985               0.000682749               0.000198315               0.999999985               0.000771717               0.000632985               0.999999985               0.000733533               0.000516757               0.999999985               0.000710080               0.000477186               0.999999985               0.000698015               0.000468326               0.999999985               0.000692572               0.000471796               0.999999985               0.000690000               0.000479444               0.999999985               0.000687736               0.000486686               0.999999985               0.000683967               0.000491095               0.999999985               0.000677516               0.000490837               0.999999985               0.000667659               0.000485321               0.999999985               0.000654273               0.000474536               0.999999985               0.000637339               0.000458735               0.999999985               0.000616890               0.000437648               0.999999985               0.000592975               0.000410876               0.999999985               0.000566160               0.000378739               0.999999985               0.000537193               0.000342136               0.999999985               0.000506845               0.000302081               0.999999985               0.000722263               0.000746805               0.999999985               0.000655966               0.000618406               0.999999985               0.000623774               0.000578867               0.999999985               0.000609233               0.000572707               0.999999985               0.000602703               0.000579000               0.999999985               0.000598474               0.000588903               0.999999985               0.000593212               0.000597480               0.999999985               0.000584843               0.000602230               0.999999985               0.000572180               0.000601664               0.999999985               0.000554828               0.000595311               0.999999985               0.000532717               0.000583514               0.999999985               0.000506175               0.000566484               0.999999985               0.000475447               0.000544262               0.999999985               0.000441201               0.000516895               0.999999985               0.000404265               0.000485241               0.999999985               0.000365547               0.000450598               0.999999985               0.000325758               0.000414299               0.999999985               0.000666285               0.000853722               0.999999985               0.000574099               0.000719392               0.999999985               0.000537087               0.000681650               0.999999985               0.000522958               0.000678218               0.999999985               0.000516734               0.000687106               0.999999985               0.000511343               0.000698778               0.999999985               0.000502925               0.000708262               0.999999985               0.000489407               0.000713038               0.999999985               0.000469671               0.000711786               0.999999985               0.000443764               0.000704678               0.999999985               0.000412091               0.000691924               0.999999985               0.000375041               0.000673887               0.999999985               0.000333533               0.000650941               0.999999985               0.000288616               0.000623644               0.999999985               0.000241179               0.000593250               0.999999985               0.000192212               0.000561246               0.999999985               0.000142390               0.000528544               0.999999985               0.000605485               0.000951855               0.999999985               0.000490745               0.000819658               0.999999985               0.000454462               0.000783980               0.999999985               0.000442758               0.000782757               0.999999985               0.000437675               0.000793733               0.999999985               0.000431035               0.000806789               0.999999985               0.000418944               0.000816784               0.999999985               0.000399104               0.000821252               0.999999985               0.000371149               0.000819352               0.999999985               0.000335635               0.000811460               0.999999985               0.000293297               0.000797732               0.999999985               0.000244914               0.000778798               0.999999985               0.000191877               0.000755369               0.999999985               0.000135348               0.000728763               0.999999985               0.000076446               0.000700803               0.999999985               0.000016464               0.000672526               0.999999985              -0.000043615               0.000644339               0.999999985               0.000542588               0.001044881               0.999999985               0.000420798               0.000932188               0.999999985               0.000381825               0.000892653               0.999999985               0.000369596               0.000886565               0.999999985               0.000365278               0.000894715               0.999999985               0.000360781               0.000907585               0.999999985               0.000351911               0.000920097               0.999999985               0.000336179               0.000929351               0.999999985               0.000312808               0.000934103               0.999999985               0.000282104               0.000933985               0.999999985               0.000244518               0.000929016               0.999999985               0.000200729               0.000919448               0.999999985               0.000151374               0.000905658               0.999999985               0.000097012               0.000888753               0.999999985               0.000038834               0.000869838               0.999999985              -0.000021377               0.000850128               0.999999985              -0.000082073               0.000830474               0.999999985               0.000474160               0.001129695               0.999999985               0.000353640               0.001041224               0.999999985               0.000312102               0.001004370               0.999999985               0.000298460               0.000995755               0.999999985               0.000294100               0.001001963               0.999999985               0.000290831               0.001014834               0.999999985               0.000284412               0.001029611               0.999999985               0.000272292               0.001043238               0.999999985               0.000253374               0.001053992               0.999999985               0.000227564               0.001061006               0.999999985               0.000194959               0.001064098               0.999999985               0.000155849               0.001063254               0.999999985               0.000110626               0.001058676               0.999999985               0.000059544               0.001050790               0.999999985               0.000003156               0.001040535               0.999999985              -0.000056990               0.001029103               0.999999985              -0.000119070               0.001017550               0.999999985               0.000401481               0.001204355               0.999999985               0.000289264               0.001143454               0.999999985               0.000247133               0.001113897               0.999999985               0.000231890               0.001106128               0.999999985               0.000226738               0.001111901               0.999999985               0.000223845               0.001125363               0.999999985               0.000219110               0.001142424               0.999999985               0.000210074               0.001160135               0.999999985               0.000195278               0.001176563               0.999999985               0.000174281               0.001190426               0.999999985               0.000146755               0.001201298               0.999999985               0.000112651               0.001208933               0.999999985               0.000072343               0.001213251               0.999999985               0.000025606               0.001214398               0.999999985              -0.000027905               0.001212869               0.999999985              -0.000087428               0.001209598               0.999999985              -0.000151191               0.001205858               0.999999985               0.000325364               0.001267360               0.999999985               0.000227766               0.001234554               0.999999985               0.000187844               0.001215619               0.999999985               0.000171892               0.001211679               0.999999985               0.000165777               0.001218939               0.999999985               0.000162736               0.001233951               0.999999985               0.000159105               0.001253496               0.999999985               0.000152400               0.001275134               0.999999985               0.000141147               0.001296926               0.999999985               0.000124636               0.001317622               0.999999985               0.000102388               0.001336235               0.999999985               0.000074039               0.001352342               0.999999985               0.000039457               0.001365714               0.999999985              -0.000001801               0.001376128               0.999999985              -0.000050630               0.001383836               0.999999985              -0.000107408               0.001389304               0.999999985              -0.000171656               0.001393585               0.999999985               0.000246522               0.001317541               0.999999985               0.000168708               0.001310438               0.999999985               0.000134390               0.001303554               0.999999985               0.000119420               0.001305306               0.999999985               0.000112980               0.001315654               0.999999985               0.000109856               0.001332995               0.999999985               0.000106918               0.001355348               0.999999985               0.000101936               0.001380749               0.999999985               0.000093662               0.001407529               0.999999985               0.000081565               0.001434464               0.999999985               0.000064915               0.001460428               0.999999985               0.000043020               0.001484622               0.999999985               0.000015475               0.001506755               0.999999985              -0.000018499               0.001526607               0.999999985              -0.000059872               0.001544002               0.999999985              -0.000110152               0.001559016               0.999999985              -0.000170296               0.001571902               0.999999985               0.000165533               0.001354134               0.999999985               0.000111490               0.001367496               0.999999985               0.000086242               0.001371701               0.999999985               0.000074403               0.001379406               0.999999985               0.000068939               0.001393338               0.999999985               0.000066205               0.001413344               0.999999985               0.000063901               0.001438329               0.999999985               0.000060521               0.001466837               0.999999985               0.000055102               0.001497606               0.999999985               0.000047238               0.001529532               0.999999985               0.000036319               0.001561677               0.999999985               0.000021453               0.001593198               0.999999985               0.000002177               0.001623433               0.999999985              -0.000022331               0.001652048               0.999999985              -0.000052948               0.001678637               0.999999985              -0.000091165               0.001702873               0.999999985              -0.000139294               0.001724347               0.999999985               0.000083119               0.001376373               0.999999985               0.000055476               0.001402883               0.999999985               0.000042056               0.001414892               0.999999985               0.000035495               0.001427100               0.999999985               0.000032349               0.001443791               0.999999985               0.000030696               0.001465868               0.999999985               0.000029479               0.001492775               0.999999985               0.000027666               0.001523420               0.999999985               0.000025040               0.001556767               0.999999985               0.000021177               0.001591855               0.999999985               0.000015733               0.001628065               0.999999985               0.000008232               0.001664661               0.999999985              -0.000001721               0.001700902               0.999999985              -0.000014499               0.001736114               0.999999985              -0.000030868               0.001769694               0.999999985              -0.000051868               0.001800962               0.999999985              -0.000078942               0.001829012               0.999999985              -0.000000000               0.001383820               0.999999985               0.000000000               0.001414886               0.999999985              -0.000000000               0.001429645               0.999999985               0.000000000               0.001443466               0.999999985               0.000000000               0.001461277               0.999999985               0.000000000               0.001484092               0.999999985               0.000000000               0.001511699               0.999999985              -0.000000000               0.001543221               0.999999985              -0.000000000               0.001577544               0.999999985              -0.000000000               0.001613811               0.999999985              -0.000000000               0.001651424               0.999999985              -0.000000000               0.001689702               0.999999985              -0.000000000               0.001728081               0.999999985               0.000000000               0.001765825               0.999999985               0.000000000               0.001801961               0.999999985               0.000000000               0.001835782               0.999999985               0.000000000               0.001866362               0.999999985 </DataArray>
<DataArray type="Float64"                                    Name="stress"                                                      NumberOfComponents="10" format="ascii">
              0.002222850               0.023839178               0.000000000              -0.002146323               0.008661754               0.006515431               0.000000000               0.000000000               0.000000000               0.000000000               0.002108930               0.018307118              -0.000000000              -0.001497537               0.006601491               0.005103953               0.000000000               0.000000000               0.000000000               0.000000000               0.002685172               0.013822854              -0.000000000              -0.000720915               0.004847877               0.004126962               0.000000000               0.000000000               0.000000000               0.000000000               0.002450785               0.011308198               0.000000000              -0.000494479               0.003934188               0.003439709               0.000000000               0.000000000               0.000000000               0.000000000               0.001997071               0.009723724              -0.000000000              -0.000466563               0.003396730               0.002930167               0.000000000               0.000000000               0.000000000               0.000000000               0.001527041               0.008612574              -0.000000000              -0.000503930               0.003038806               0.002534876               0.000000000               0.000000000               0.000000000               0.000000000               0.001117272               0.007753027               0.000000000              -0.000550150               0.002767700               0.002217550               0.000000000               0.000000000               0.000000000               0.000000000               0.000786114               0.007025565              -0.000000000              -0.000583402               0.002536299               0.001952897               0.000000000               0.000000000               0.000000000               0.000000000               0.000523278               0.006359776               0.000000000              -0.000598741               0.002319484               0.001720743               0.000000000               0.000000000               0.000000000               0.000000000               0.000324783               0.005722101               0.000000000              -0.000593468               0.002105171               0.001511703               0.000000000               0.000000000               0.000000000               0.000000000               0.000176887               0.005096239               0.000000000              -0.000570696               0.001888961               0.001318266               0.000000000               0.000000000               0.000000000               0.000000000               0.000065245               0.004468181               0.000000000              -0.000534055               0.001667397               0.001133342               0.000000000               0.000000000               0.000000000               0.000000000              -0.000018696               0.003826171               0.000000000              -0.000485281               0.001437138               0.000951857               0.000000000               0.000000000               0.000000000               0.000000000              -0.000078402               0.003146800              -0.000000000              -0.000422750               0.001189839               0.000767089               0.000000000               0.000000000               0.000000000               0.000000000              -0.000094611               0.002407256              -0.000000000              -0.000336385               0.000914539               0.000578154               0.000000000               0.000000000               0.000000000               0.000000000              -0.000057069               0.001577372              -0.000000000              -0.000218572               0.000598643               0.000380071               0.000000000               0.000000000               0.000000000               0.000000000              -0.000093626               0.000941270              -0.000000000              -0.000152768               0.000364676               0.000211908               0.000000000               0.000000000               0.000000000               0.000000000               0.002286806               0.023326758              -0.001569991              -0.002058288               0.008461604               0.006403316               0.000000000               0.000000000               0.000000000               0.000000000               0.002042050               0.017984180              -0.000700029              -0.001482250               0.006488750               0.005006500               0.000000000               0.000000000               0.000000000               0.000000000               0.002481205               0.013700737               0.000158674              -0.000782138               0.004827579               0.004045441               0.000000000               0.000000000               0.000000000               0.000000000               0.002197877               0.011284984               0.000511969              -0.000586418               0.003957096               0.003370679               0.000000000               0.000000000               0.000000000               0.000000000               0.001737047               0.009749649               0.000647789              -0.000567312               0.003438955               0.002871642               0.000000000               0.000000000               0.000000000               0.000000000               0.001281372               0.008662581               0.000686507              -0.000602307               0.003088267               0.002485960               0.000000000               0.000000000               0.000000000               0.000000000               0.000894141               0.007814220               0.000680805              -0.000641473               0.002818538               0.002177065               0.000000000               0.000000000               0.000000000               0.000000000               0.000586789               0.007090451               0.000653034              -0.000666259               0.002585546               0.001919287               0.000000000               0.000000000               0.000000000               0.000000000               0.000353728               0.006430988               0.000616326              -0.000671224               0.002367382               0.001696158               0.000000000               0.000000000               0.000000000               0.000000000               0.000181722               0.005803039               0.000578828              -0.000657233               0.002153404               0.001496172               0.000000000               0.000000000               0.000000000               0.000000000               0.000054287               0.005183586               0.000542480              -0.000627589               0.001937041               0.001309452               0.000000000               0.000000000               0.000000000               0.000000000              -0.000034143               0.004567137               0.000508104              -0.000583695               0.001716929               0.001133234               0.000000000               0.000000000               0.000000000               0.000000000              -0.000092655               0.003946390               0.000466547              -0.000528043               0.001491465               0.000963421               0.000000000               0.000000000               0.000000000               0.000000000              -0.000125145               0.003301956               0.000403406              -0.000459673               0.001253865               0.000794192               0.000000000               0.000000000               0.000000000               0.000000000              -0.000121155               0.002611864               0.000311211              -0.000371915               0.000994584               0.000622669               0.000000000               0.000000000               0.000000000               0.000000000              -0.000071651               0.001864044               0.000179890              -0.000259874               0.000707967               0.000448092               0.000000000               0.000000000               0.000000000               0.000000000              -0.000093377               0.001310362               0.000112901              -0.000198811               0.000503053               0.000304242               0.000000000               0.000000000               0.000000000               0.000000000               0.002426810               0.021864473              -0.002898037              -0.001823002               0.007895752               0.006072750               0.000000000               0.000000000               0.000000000               0.000000000               0.001826892               0.017072182              -0.001285573              -0.001448935               0.006173649               0.004724713               0.000000000               0.000000000               0.000000000               0.000000000               0.001890669               0.013353476               0.000288464              -0.000960181               0.004771174               0.003810993               0.000000000               0.000000000               0.000000000               0.000000000               0.001481249               0.011214987               0.000909604              -0.000846403               0.004020426               0.003174023               0.000000000               0.000000000               0.000000000               0.000000000               0.001015697               0.009812994               0.001136813              -0.000845736               0.003552877               0.002707141               0.000000000               0.000000000               0.000000000               0.000000000               0.000614358               0.008786268               0.001194677              -0.000867897               0.003218026               0.002350128               0.000000000               0.000000000               0.000000000               0.000000000               0.000299782               0.007963981               0.001174488              -0.000883078               0.002948993               0.002065915               0.000000000               0.000000000               0.000000000               0.000000000               0.000066377               0.007254598               0.001116918              -0.000881932               0.002712152               0.001830221               0.000000000               0.000000000               0.000000000               0.000000000              -0.000094345               0.006609913               0.001045632              -0.000861617               0.002490488               0.001628871               0.000000000               0.000000000               0.000000000               0.000000000              -0.000201263               0.005996776               0.000969777              -0.000825069               0.002273928               0.001448859               0.000000000               0.000000000               0.000000000               0.000000000              -0.000265661               0.005402755               0.000896744              -0.000774965               0.002059222               0.001284257               0.000000000               0.000000000               0.000000000               0.000000000              -0.000292510               0.004826848               0.000829578              -0.000713046               0.001846615               0.001133569               0.000000000               0.000000000               0.000000000               0.000000000              -0.000290284               0.004261638               0.000750474              -0.000641560               0.001634385               0.000992825               0.000000000               0.000000000               0.000000000               0.000000000              -0.000255812               0.003699701               0.000632810              -0.000558391               0.001419351               0.000860961               0.000000000               0.000000000               0.000000000               0.000000000              -0.000191185               0.003137968               0.000472333              -0.000463939               0.001200625               0.000736686               0.000000000               0.000000000               0.000000000               0.000000000              -0.000103120               0.002585401               0.000265848              -0.000361844               0.000982406               0.000620562               0.000000000               0.000000000               0.000000000               0.000000000              -0.000091515               0.002209989               0.000162088              -0.000310566               0.000840178               0.000529612               0.000000000               0.000000000               0.000000000               0.000000000               0.002528915               0.019647659              -0.003809169              -0.001507613               0.007051691               0.005544078               0.000000000               0.000000000               0.000000000               0.000000000               0.001435636               0.015709641              -0.001686089              -0.001425339               0.005711607               0.004286269               0.000000000               0.000000000               0.000000000               0.000000000               0.000979722               0.012830360               0.000353838              -0.001236396               0.004688876               0.003452479               0.000000000               0.000000000               0.000000000               0.000000000               0.000433685               0.011085612               0.001109855              -0.001223067               0.004102856               0.002879789               0.000000000               0.000000000               0.000000000               0.000000000              -0.000002410               0.009863306               0.001365398              -0.001233814               0.003699007               0.002465193               0.000000000               0.000000000               0.000000000               0.000000000              -0.000305068               0.008917234               0.001414501              -0.001229052               0.003382065               0.002153013               0.000000000               0.000000000               0.000000000               0.000000000              -0.000499712               0.008131587               0.001373028              -0.001203838               0.003111781               0.001907943               0.000000000               0.000000000               0.000000000               0.000000000              -0.000610691               0.007442964               0.001290607              -0.001159377               0.002867422               0.001708045               0.000000000               0.000000000               0.000000000               0.000000000              -0.000657643               0.006812733               0.001190681              -0.001098205               0.002636956               0.001538751               0.000000000               0.000000000               0.000000000               0.000000000              -0.000662369               0.006217910               0.001089415              -0.001025625               0.002414491               0.001388866               0.000000000               0.000000000               0.000000000               0.000000000              -0.000635916               0.005663129               0.000996251              -0.000946357               0.002203143               0.001256786               0.000000000               0.000000000               0.000000000               0.000000000              -0.000582311               0.005143792               0.000907533              -0.000861339               0.002001693               0.001140354               0.000000000               0.000000000               0.000000000               0.000000000              -0.000502318               0.004653512               0.000802523              -0.000770057               0.001807841               0.001037784               0.000000000               0.000000000               0.000000000               0.000000000              -0.000392671               0.004195049               0.000659243              -0.000671631               0.001622213               0.000950581               0.000000000               0.000000000               0.000000000               0.000000000              -0.000260519               0.003785541               0.000478997              -0.000570886               0.001452129               0.000881244               0.000000000               0.000000000               0.000000000               0.000000000              -0.000127747               0.003439339               0.000261843              -0.000477821               0.001305709               0.000827887               0.000000000               0.000000000               0.000000000               0.000000000              -0.000082878               0.003236186               0.000152215              -0.000435602               0.001223919               0.000788317               0.000000000               0.000000000               0.000000000               0.000000000               0.002457865               0.016943524              -0.004222195              -0.001196241               0.006046531               0.004850290               0.000000000               0.000000000               0.000000000               0.000000000               0.000854998               0.014072905              -0.001887475              -0.001438487               0.005170417               0.003731930               0.000000000               0.000000000               0.000000000               0.000000000              -0.000136684               0.012192272               0.000316740              -0.001575287               0.004589145               0.003013859               0.000000000               0.000000000               0.000000000               0.000000000              -0.000759094               0.010878775               0.001071668              -0.001644503               0.004174390               0.002529887               0.000000000               0.000000000               0.000000000               0.000000000              -0.001105318               0.009848002               0.001301451              -0.001645491               0.003831131               0.002185641               0.000000000               0.000000000               0.000000000               0.000000000              -0.001261744               0.008992200               0.001328280              -0.001597176               0.003529762               0.001932586               0.000000000               0.000000000               0.000000000               0.000000000              -0.001296303               0.008243969               0.001272250              -0.001516606               0.003253497               0.001736891               0.000000000               0.000000000               0.000000000               0.000000000              -0.001253684               0.007570454               0.001178757              -0.001416435               0.002995604               0.001579169               0.000000000               0.000000000               0.000000000               0.000000000              -0.001163113               0.006949901               0.001069820              -0.001304902               0.002751578               0.001446676               0.000000000               0.000000000               0.000000000               0.000000000              -0.001048452               0.006382818               0.000965311              -0.001191019               0.002524591               0.001333572               0.000000000               0.000000000               0.000000000               0.000000000              -0.000921767               0.005869919               0.000872990              -0.001079400               0.002316420               0.001237020               0.000000000               0.000000000               0.000000000               0.000000000              -0.000779284               0.005410417               0.000782162              -0.000968531               0.002126298               0.001157766               0.000000000               0.000000000               0.000000000               0.000000000              -0.000618478               0.004999513               0.000673155              -0.000856866               0.001952110               0.001095243               0.000000000               0.000000000               0.000000000               0.000000000              -0.000445398               0.004643503               0.000533984              -0.000747460               0.001796972               0.001049512               0.000000000               0.000000000               0.000000000               0.000000000              -0.000277245               0.004360162               0.000372491              -0.000648985               0.001669701               0.001020716               0.000000000               0.000000000               0.000000000               0.000000000              -0.000128551               0.004166349               0.000194317              -0.000568999               0.001578435               0.001009437               0.000000000               0.000000000               0.000000000               0.000000000              -0.000066264               0.004081705               0.000105182              -0.000535061               0.001538908               0.001003848               0.000000000               0.000000000               0.000000000               0.000000000               0.002078403               0.014039321              -0.004148643              -0.000975515               0.005004897               0.004029383               0.000000000               0.000000000               0.000000000               0.000000000               0.000088797               0.012347588              -0.001918911              -0.001510147               0.004619204               0.003109056               0.000000000               0.000000000               0.000000000               0.000000000              -0.001324331               0.011495315               0.000154100              -0.001933534               0.004476244               0.002542711               0.000000000               0.000000000               0.000000000               0.000000000              -0.001914659               0.010584679               0.000805680              -0.002041077               0.004208550               0.002167473               0.000000000               0.000000000               0.000000000               0.000000000              -0.002094900               0.009728614               0.000985409              -0.002001659               0.003910059               0.001908399               0.000000000               0.000000000               0.000000000               0.000000000              -0.002063554               0.008950007               0.000995546              -0.001892579               0.003614165               0.001721586               0.000000000               0.000000000               0.000000000               0.000000000              -0.001922361               0.008232574               0.000941484              -0.001749953               0.003327481               0.001577529               0.000000000               0.000000000               0.000000000               0.000000000              -0.001720616               0.007575065               0.000860040              -0.001592110               0.003055700               0.001463590               0.000000000               0.000000000               0.000000000               0.000000000              -0.001489555               0.006978697               0.000768904              -0.001430917               0.002803181               0.001372264               0.000000000               0.000000000               0.000000000               0.000000000              -0.001254676               0.006449799               0.000685498              -0.001276725               0.002575486               0.001298761               0.000000000               0.000000000               0.000000000               0.000000000              -0.001033917               0.005983730               0.000614997              -0.001135682               0.002373118               0.001237435               0.000000000               0.000000000               0.000000000               0.000000000              -0.000820195               0.005578340               0.000543120              -0.001004863               0.002194382               0.001189519               0.000000000               0.000000000               0.000000000               0.000000000              -0.000607010               0.005232569               0.000451042              -0.000881698               0.002038071               0.001156374               0.000000000               0.000000000               0.000000000               0.000000000              -0.000405613               0.004954018               0.000338206              -0.000771355               0.001908441               0.001137086               0.000000000               0.000000000               0.000000000               0.000000000              -0.000236150               0.004754155               0.000220168              -0.000682824               0.001812310               0.001129486               0.000000000               0.000000000               0.000000000               0.000000000              -0.000103111               0.004642523               0.000106287              -0.000618980               0.001753819               0.001134839               0.000000000               0.000000000               0.000000000               0.000000000              -0.000047239               0.004609570               0.000052109              -0.000593909               0.001734478               0.001140568               0.000000000               0.000000000               0.000000000               0.000000000               0.001322538               0.011184228              -0.003676876              -0.000902078               0.004028730               0.003126653               0.000000000               0.000000000               0.000000000               0.000000000              -0.000825387               0.010680100              -0.001839936              -0.001644530               0.004108174               0.002463644               0.000000000               0.000000000               0.000000000               0.000000000              -0.002454839               0.010769622              -0.000141449              -0.002266762               0.004345425               0.002078664               0.000000000               0.000000000               0.000000000               0.000000000              -0.002888244               0.010189329               0.000360334              -0.002356752               0.004181993               0.001825241               0.000000000               0.000000000               0.000000000               0.000000000              -0.002846284               0.009475370               0.000500516              -0.002251772               0.003909016               0.001657244               0.000000000               0.000000000               0.000000000               0.000000000              -0.002606992               0.008761633               0.000518627              -0.002072821               0.003611455               0.001538634               0.000000000               0.000000000               0.000000000               0.000000000              -0.002286713               0.008083733               0.000490544              -0.001867979               0.003317210               0.001449231               0.000000000               0.000000000               0.000000000               0.000000000              -0.001934955               0.007457438               0.000445939              -0.001657784               0.003038382               0.001380598               0.000000000               0.000000000               0.000000000               0.000000000              -0.001588109               0.006895172               0.000397046              -0.001457434               0.002784179               0.001326745               0.000000000               0.000000000               0.000000000               0.000000000              -0.001262374               0.006408717               0.000354025              -0.001274477               0.002561043               0.001286566               0.000000000               0.000000000               0.000000000               0.000000000              -0.000968735               0.005989539               0.000317666              -0.001111965               0.002367148               0.001255183               0.000000000               0.000000000               0.000000000               0.000000000              -0.000709747               0.005627525               0.000277295              -0.000969593               0.002199021               0.001229427               0.000000000               0.000000000               0.000000000               0.000000000              -0.000482970               0.005326952               0.000218448              -0.000846981               0.002057960               0.001210979               0.000000000               0.000000000               0.000000000               0.000000000              -0.000294984               0.005097159               0.000146390              -0.000747762               0.001948290               0.001200528               0.000000000               0.000000000               0.000000000               0.000000000              -0.000154954               0.004942935               0.000081540              -0.000675973               0.001872953               0.001196980               0.000000000               0.000000000               0.000000000               0.000000000              -0.000060340               0.004861268               0.000033160              -0.000630284               0.001830501               0.001200217               0.000000000               0.000000000               0.000000000               0.000000000              -0.000026901               0.004835035               0.000015529              -0.000614466               0.001816484               0.001202018               0.000000000               0.000000000               0.000000000               0.000000000               0.000230163               0.008560378              -0.002922739              -0.000983736               0.003181342               0.002197606               0.000000000               0.000000000               0.000000000               0.000000000              -0.001831876               0.009164734              -0.001709664              -0.001832541               0.003665727               0.001833186               0.000000000               0.000000000               0.000000000               0.000000000              -0.003416631               0.010014721              -0.000558425              -0.002533070               0.004182564               0.001649493               0.000000000               0.000000000               0.000000000               0.000000000              -0.003584799               0.009688400              -0.000189584              -0.002555343               0.004081215               0.001525872               0.000000000               0.000000000               0.000000000               0.000000000              -0.003296969               0.009097560              -0.000051417              -0.002373552               0.003823674               0.001450121               0.000000000               0.000000000               0.000000000               0.000000000              -0.002861156               0.008453005               0.000003815              -0.002129554               0.003527492               0.001397938               0.000000000               0.000000000               0.000000000               0.000000000              -0.002382539               0.007824211               0.000025131              -0.001871474               0.003231869               0.001360395               0.000000000               0.000000000               0.000000000               0.000000000              -0.001911184               0.007239832               0.000034397              -0.001621669               0.002953809               0.001332141               0.000000000               0.000000000               0.000000000               0.000000000              -0.001479376               0.006720934               0.000041274              -0.001394879               0.002705249               0.001310369               0.000000000               0.000000000               0.000000000               0.000000000              -0.001103007               0.006275853               0.000047711              -0.001198106               0.002491299               0.001293193               0.000000000               0.000000000               0.000000000               0.000000000              -0.000775543               0.005892627               0.000051064              -0.001027404               0.002306658               0.001279253               0.000000000               0.000000000               0.000000000               0.000000000              -0.000507146               0.005563598               0.000047405              -0.000885627               0.002149723               0.001264096               0.000000000               0.000000000               0.000000000               0.000000000              -0.000305126               0.005292304               0.000030129              -0.000775959               0.002022737               0.001246778               0.000000000               0.000000000               0.000000000               0.000000000              -0.000157332               0.005097768               0.000009461              -0.000696219               0.001931312               0.001235093               0.000000000               0.000000000               0.000000000               0.000000000              -0.000062877               0.004983317              -0.000000578              -0.000646492               0.001876586               0.001230095               0.000000000               0.000000000               0.000000000               0.000000000              -0.000016806               0.004929109              -0.000001091              -0.000622439               0.001850500               0.001228060               0.000000000               0.000000000               0.000000000               0.000000000              -0.000006878               0.004911960               0.000001559              -0.000616573               0.001842828               0.001226255               0.000000000               0.000000000               0.000000000               0.000000000              -0.001057706               0.006349425              -0.002012500              -0.001190316               0.002513225               0.001322909               0.000000000               0.000000000               0.000000000               0.000000000              -0.002814575               0.007807449              -0.001572883              -0.002031392               0.003279587               0.001248195               0.000000000               0.000000000               0.000000000               0.000000000              -0.004170583               0.009249234              -0.001058753              -0.002720116               0.003989753               0.001269636               0.000000000               0.000000000               0.000000000               0.000000000              -0.004057659               0.009191640              -0.000771233              -0.002670571               0.003954040               0.001283469               0.000000000               0.000000000               0.000000000               0.000000000              -0.003564985               0.008749692              -0.000602374              -0.002430575               0.003726726               0.001296152               0.000000000               0.000000000               0.000000000               0.000000000              -0.002971775               0.008198785              -0.000493297              -0.002139258               0.003445987               0.001306729               0.000000000               0.000000000               0.000000000               0.000000000              -0.002370891               0.007635687              -0.000411215              -0.001843540               0.003159717               0.001316176               0.000000000               0.000000000               0.000000000               0.000000000              -0.001813083               0.007102358              -0.000339658              -0.001567697               0.002889995               0.001322298               0.000000000               0.000000000               0.000000000               0.000000000              -0.001324967               0.006630943              -0.000278911              -0.001325727               0.002652201               0.001326474               0.000000000               0.000000000               0.000000000               0.000000000              -0.000915375               0.006214954              -0.000226543              -0.001120132               0.002445008               0.001324876               0.000000000               0.000000000               0.000000000               0.000000000              -0.000577985               0.005845991              -0.000181141              -0.000947491               0.002264475               0.001316984               0.000000000               0.000000000               0.000000000               0.000000000              -0.000315972               0.005523626              -0.000144024              -0.000808941               0.002110837               0.001301896               0.000000000               0.000000000               0.000000000               0.000000000              -0.000136474               0.005260520              -0.000110457              -0.000708741               0.001989736               0.001280995               0.000000000               0.000000000               0.000000000               0.000000000              -0.000025524               0.005090283              -0.000070427              -0.000645855               0.001912029               0.001266174               0.000000000               0.000000000               0.000000000               0.000000000               0.000023755               0.005004184              -0.000029491              -0.000616613               0.001873582               0.001256969               0.000000000               0.000000000               0.000000000               0.000000000               0.000025534               0.004969964              -0.000002442              -0.000611669               0.001860528               0.001248859               0.000000000               0.000000000               0.000000000               0.000000000               0.000016263               0.004962295               0.000006716              -0.000614187               0.001858811               0.001244624               0.000000000               0.000000000               0.000000000               0.000000000              -0.002537717               0.004297550              -0.001061837              -0.001488834               0.001928780               0.000439946               0.000000000               0.000000000               0.000000000               0.000000000              -0.003633867               0.006221518              -0.001423254              -0.002140385               0.002787280               0.000646895               0.000000000               0.000000000               0.000000000               0.000000000              -0.004621934               0.008093758              -0.001581285              -0.002744938               0.003612871               0.000867933               0.000000000               0.000000000               0.000000000               0.000000000              -0.004355812               0.008444051              -0.001383154              -0.002688929               0.003710965               0.001022036               0.000000000               0.000000000               0.000000000               0.000000000              -0.003780161               0.008283859              -0.001182040              -0.002453037               0.003578938               0.001125901               0.000000000               0.000000000               0.000000000               0.000000000              -0.003135233               0.007939201              -0.001014894              -0.002168107               0.003369076               0.001200969               0.000000000               0.000000000               0.000000000               0.000000000              -0.002500299               0.007529152              -0.000869812              -0.001878752               0.003135943               0.001257191               0.000000000               0.000000000               0.000000000               0.000000000              -0.001910122               0.007107982              -0.000740291              -0.001604790               0.002904233               0.001299444               0.000000000               0.000000000               0.000000000               0.000000000              -0.001388664               0.006708126              -0.000630093              -0.001359262               0.002689107               0.001329845               0.000000000               0.000000000               0.000000000               0.000000000              -0.000947718               0.006330713              -0.000532828              -0.001146730               0.002492460               0.001345730               0.000000000               0.000000000               0.000000000               0.000000000              -0.000587829               0.005978799              -0.000442990              -0.000967783               0.002315507               0.001347724               0.000000000               0.000000000               0.000000000               0.000000000              -0.000308937               0.005652179              -0.000357470              -0.000822372               0.002158165               0.001335793               0.000000000               0.000000000               0.000000000               0.000000000              -0.000109121               0.005375918              -0.000266341              -0.000712908               0.002029591               0.001316682               0.000000000               0.000000000               0.000000000               0.000000000               0.000015617               0.005176395              -0.000167991              -0.000641191               0.001939178               0.001297987               0.000000000               0.000000000               0.000000000               0.000000000               0.000070429               0.005053640              -0.000081565              -0.000605293               0.001886294               0.001281001               0.000000000               0.000000000               0.000000000               0.000000000               0.000075267               0.005001686              -0.000026377              -0.000596984               0.001866207               0.001269222               0.000000000               0.000000000               0.000000000               0.000000000               0.000060121               0.004985736              -0.000004657              -0.000600670               0.001862119               0.001261449               0.000000000               0.000000000               0.000000000               0.000000000              -0.004411510               0.002452815              -0.000145253              -0.001960915               0.001471233              -0.000489681               0.000000000               0.000000000               0.000000000               0.000000000              -0.004553818               0.004621681              -0.001208242              -0.002285387               0.002302340               0.000016953               0.000000000               0.000000000               0.000000000               0.000000000              -0.004978788               0.006717249              -0.002000957              -0.002706695               0.003141292               0.000434597               0.000000000               0.000000000               0.000000000               0.000000000              -0.004580667               0.007449165              -0.001964836              -0.002648889               0.003365993               0.000717103               0.000000000               0.000000000               0.000000000               0.000000000              -0.003963602               0.007613773              -0.001765104              -0.002438067               0.003350588               0.000912521               0.000000000               0.000000000               0.000000000               0.000000000              -0.003305139               0.007525283              -0.001554748              -0.002180083               0.003235097               0.001055014               0.000000000               0.000000000               0.000000000               0.000000000              -0.002658562               0.007314030              -0.001360323              -0.001911210               0.003075055               0.001163845               0.000000000               0.000000000               0.000000000               0.000000000              -0.002046598               0.007039153              -0.001186061              -0.001647365               0.002895482               0.001248118               0.000000000               0.000000000               0.000000000               0.000000000              -0.001494080               0.006733181              -0.001034614              -0.001401925               0.002711679               0.001309755               0.000000000               0.000000000               0.000000000               0.000000000              -0.001013629               0.006419665              -0.000898160              -0.001182566               0.002534056               0.001351489               0.000000000               0.000000000               0.000000000               0.000000000              -0.000611005               0.006112682              -0.000767256              -0.000993210               0.002368610               0.001375400               0.000000000               0.000000000               0.000000000               0.000000000              -0.000290422               0.005812194              -0.000638515              -0.000835430               0.002215855               0.001380425               0.000000000               0.000000000               0.000000000               0.000000000              -0.000042680               0.005533116              -0.000503870              -0.000707643               0.002080234               0.001372591               0.000000000               0.000000000               0.000000000               0.000000000               0.000132818               0.005297239              -0.000355001              -0.000612346               0.001969844               0.001357498               0.000000000               0.000000000               0.000000000               0.000000000               0.000226208               0.005128622              -0.000208076              -0.000556248               0.001894940               0.001338691               0.000000000               0.000000000               0.000000000               0.000000000               0.000237681               0.005036884              -0.000088249              -0.000540479               0.001859104               0.001318625               0.000000000               0.000000000               0.000000000               0.000000000               0.000207074               0.004999255              -0.000031577              -0.000547253               0.001848819               0.001301567               0.000000000               0.000000000               0.000000000               0.000000000              -0.006551810               0.000954949               0.000647114              -0.002576294               0.001177073              -0.001399221               0.000000000               0.000000000               0.000000000               0.000000000              -0.005619479               0.003108372              -0.000919039              -0.002495847               0.001868060              -0.000627787               0.000000000               0.000000000               0.000000000               0.000000000              -0.005266760               0.005140955              -0.002206623              -0.002617649               0.002586183              -0.000031466               0.000000000               0.000000000               0.000000000               0.000000000              -0.004651088               0.006137139              -0.002371659              -0.002511295               0.002882790               0.000371495               0.000000000               0.000000000               0.000000000               0.000000000              -0.003981110               0.006601854              -0.002226226              -0.002318143               0.002973310               0.000655167               0.000000000               0.000000000               0.000000000               0.000000000              -0.003313572               0.006785815              -0.002011987              -0.002090812               0.002958852               0.000868041               0.000000000               0.000000000               0.000000000               0.000000000              -0.002667959               0.006798501              -0.001796173              -0.001850293               0.002882908               0.001032615               0.000000000               0.000000000               0.000000000               0.000000000              -0.002055816               0.006700410              -0.001594973              -0.001608479               0.002769607               0.001161128               0.000000000               0.000000000               0.000000000               0.000000000              -0.001492718               0.006528773              -0.001415635              -0.001375863               0.002634857               0.001258994               0.000000000               0.000000000               0.000000000               0.000000000              -0.000986311               0.006320304              -0.001253546              -0.001159902               0.002493381               0.001333479               0.000000000               0.000000000               0.000000000               0.000000000              -0.000540697               0.006095905              -0.001096093              -0.000964747               0.002353530               0.001388783               0.000000000               0.000000000               0.000000000               0.000000000              -0.000163714               0.005858276              -0.000942887              -0.000793676               0.002217298               0.001423622               0.000000000               0.000000000               0.000000000               0.000000000               0.000143452               0.005614251              -0.000782507              -0.000647985               0.002087393               0.001439408               0.000000000               0.000000000               0.000000000               0.000000000               0.000379763               0.005383929              -0.000593885              -0.000530579               0.001971485               0.001440906               0.000000000               0.000000000               0.000000000               0.000000000               0.000532118               0.005195118              -0.000384357              -0.000449845               0.001881637               0.001431792               0.000000000               0.000000000               0.000000000               0.000000000               0.000584237               0.005073445              -0.000182908              -0.000415091               0.001829495               0.001414404               0.000000000               0.000000000               0.000000000               0.000000000               0.000562888               0.005020446              -0.000081909              -0.000416472               0.001812289               0.001395818               0.000000000               0.000000000               0.000000000               0.000000000              -0.008798844              -0.000119108               0.001199018              -0.003284675               0.001055182              -0.002229494               0.000000000               0.000000000               0.000000000               0.000000000              -0.006765674               0.001768581              -0.000603971              -0.002758197               0.001508915              -0.001249281               0.000000000               0.000000000               0.000000000               0.000000000              -0.005517875               0.003507660              -0.002168218              -0.002507656               0.002005091              -0.000502565               0.000000000               0.000000000               0.000000000               0.000000000              -0.004599171               0.004626027              -0.002507074              -0.002302938               0.002309638               0.000006700               0.000000000               0.000000000               0.000000000               0.000000000              -0.003836590               0.005325667              -0.002448377              -0.002104425               0.002476679               0.000372253               0.000000000               0.000000000               0.000000000               0.000000000              -0.003150876               0.005757831              -0.002270307              -0.001901303               0.002553025               0.000651721               0.000000000               0.000000000               0.000000000               0.000000000              -0.002515406               0.005996093              -0.002063638              -0.001692786               0.002562939               0.000870153               0.000000000               0.000000000               0.000000000               0.000000000              -0.001922567               0.006092120              -0.001857969              -0.001482475               0.002524844               0.001042370               0.000000000               0.000000000               0.000000000               0.000000000              -0.001365357               0.006089319              -0.001671324              -0.001273171               0.002454143               0.001180971               0.000000000               0.000000000               0.000000000               0.000000000              -0.000841182               0.006019328              -0.001504810              -0.001067857               0.002362375               0.001294517               0.000000000               0.000000000               0.000000000               0.000000000              -0.000355394               0.005900708              -0.001344691              -0.000870860               0.002257169               0.001386310               0.000000000               0.000000000               0.000000000               0.000000000               0.000083538               0.005753053              -0.001184585              -0.000687804               0.002146933               0.001459129               0.000000000               0.000000000               0.000000000               0.000000000               0.000463951               0.005579828              -0.001013215              -0.000523496               0.002034423               0.001510927               0.000000000               0.000000000               0.000000000               0.000000000               0.000784829               0.005397339              -0.000808281              -0.000380356               0.001925880               0.001545524               0.000000000               0.000000000               0.000000000               0.000000000               0.001041355               0.005230675              -0.000562567              -0.000263326               0.001831316               0.001567990               0.000000000               0.000000000               0.000000000               0.000000000               0.001203697               0.005102203              -0.000289009              -0.000186389               0.001762847               0.001576458               0.000000000               0.000000000               0.000000000               0.000000000               0.001252225               0.005047010              -0.000146728              -0.000161291               0.001736084               0.001574792               0.000000000               0.000000000               0.000000000               0.000000000              -0.010944983              -0.000776314               0.001405308              -0.004007327               0.001076997              -0.002930330               0.000000000               0.000000000               0.000000000               0.000000000              -0.007892510               0.000690158              -0.000325282              -0.003045958               0.001245363              -0.001800595               0.000000000               0.000000000               0.000000000               0.000000000              -0.005739923               0.001983686              -0.001884463              -0.002400429               0.001461361              -0.000939068               0.000000000               0.000000000               0.000000000               0.000000000              -0.004468557               0.003092748              -0.002311134              -0.002062299               0.001718336              -0.000343962               0.000000000               0.000000000               0.000000000               0.000000000              -0.003573759               0.003938372              -0.002333670              -0.001832453               0.001923594               0.000091141               0.000000000               0.000000000               0.000000000               0.000000000              -0.002854450               0.004564315              -0.002212007              -0.001640955               0.002068407               0.000427452               0.000000000               0.000000000               0.000000000               0.000000000              -0.002229358               0.005001701              -0.002039155              -0.001461219               0.002154289               0.000693070               0.000000000               0.000000000               0.000000000               0.000000000              -0.001655342               0.005283867              -0.001855820              -0.001281234               0.002188349               0.000907115               0.000000000               0.000000000               0.000000000               0.000000000              -0.001107730               0.005452268              -0.001689317              -0.001096930               0.002183048               0.001086117               0.000000000               0.000000000               0.000000000               0.000000000              -0.000575639               0.005531048              -0.001541160              -0.000907244               0.002146078               0.001238834               0.000000000               0.000000000               0.000000000               0.000000000              -0.000061779               0.005535009              -0.001397464              -0.000715042               0.002083332               0.001368290               0.000000000               0.000000000               0.000000000               0.000000000               0.000428275               0.005492052              -0.001251659              -0.000525903               0.002005966               0.001480064               0.000000000               0.000000000               0.000000000               0.000000000               0.000891637               0.005421203              -0.001092541              -0.000343286               0.001921478               0.001578192               0.000000000               0.000000000               0.000000000               0.000000000               0.001325006               0.005327644              -0.000902241              -0.000169078               0.001832223               0.001663144               0.000000000               0.000000000               0.000000000               0.000000000               0.001729121               0.005222392              -0.000660878              -0.000004379               0.001742240               0.001737860               0.000000000               0.000000000               0.000000000               0.000000000               0.002082087               0.005113792              -0.000357054               0.000141557               0.001657395               0.001798952               0.000000000               0.000000000               0.000000000               0.000000000               0.002283452               0.005074528              -0.000198368               0.000221976               0.001617500               0.001839477               0.000000000               0.000000000               0.000000000               0.000000000              -0.012742268              -0.001114791               0.001224783              -0.004638999               0.001174728              -0.003464271               0.000000000               0.000000000               0.000000000               0.000000000              -0.008859097              -0.000087254              -0.000131293              -0.003311252               0.001074659              -0.002236594               0.000000000               0.000000000               0.000000000               0.000000000              -0.005923564               0.000737070              -0.001385476              -0.002313468               0.001016838              -0.001296629               0.000000000               0.000000000               0.000000000               0.000000000              -0.004308135               0.001753716              -0.001777707              -0.001834763               0.001196151              -0.000638612               0.000000000               0.000000000               0.000000000               0.000000000              -0.003268496               0.002667086              -0.001839643              -0.001559069               0.001408708              -0.000150361               0.000000000               0.000000000               0.000000000               0.000000000              -0.002504959               0.003420473              -0.001771529              -0.001366916               0.001595784               0.000228868               0.000000000               0.000000000               0.000000000               0.000000000              -0.001879221               0.004003350              -0.001650826              -0.001205124               0.001736144               0.000531020               0.000000000               0.000000000               0.000000000               0.000000000              -0.001319952               0.004434430              -0.001515879              -0.001049284               0.001827889               0.000778606               0.000000000               0.000000000               0.000000000               0.000000000              -0.000784311               0.004747686              -0.001391074              -0.000887576               0.001878404               0.000990828               0.000000000               0.000000000               0.000000000               0.000000000              -0.000259902               0.004965249              -0.001278423              -0.000718118               0.001894439               0.001176321               0.000000000               0.000000000               0.000000000               0.000000000               0.000263934               0.005104382              -0.001167680              -0.000539072               0.001881134               0.001342062               0.000000000               0.000000000               0.000000000               0.000000000               0.000792064               0.005179830              -0.001056360              -0.000350454               0.001843411               0.001492956               0.000000000               0.000000000               0.000000000               0.000000000               0.001328973               0.005212504              -0.000936495              -0.000153198               0.001788550               0.001635352               0.000000000               0.000000000               0.000000000               0.000000000               0.001880996               0.005211521              -0.000792057               0.000053932               0.001719179               0.001773111               0.000000000               0.000000000               0.000000000               0.000000000               0.002449788               0.005176553              -0.000602585               0.000271598               0.001634968               0.001906566               0.000000000               0.000000000               0.000000000               0.000000000               0.003034496               0.005103144              -0.000337954               0.000500038               0.001534352               0.002034390               0.000000000               0.000000000               0.000000000               0.000000000               0.003444895               0.005097707              -0.000198659               0.000654616               0.001481014               0.002135629               0.000000000               0.000000000               0.000000000               0.000000000              -0.013941475              -0.001253237               0.000710177              -0.005071395               0.001272711              -0.003798684               0.000000000               0.000000000               0.000000000               0.000000000              -0.009518445              -0.000551698              -0.000033158              -0.003500452               0.000982912              -0.002517541               0.000000000               0.000000000               0.000000000               0.000000000              -0.006050929              -0.000081733              -0.000730656              -0.002258880               0.000725711              -0.001533169               0.000000000               0.000000000               0.000000000               0.000000000              -0.004181166               0.000831905              -0.000965386              -0.001671924               0.000834604              -0.000837320               0.000000000               0.000000000               0.000000000               0.000000000              -0.003028491               0.001763663              -0.001014336              -0.001356140               0.001039927              -0.000316213               0.000000000               0.000000000               0.000000000               0.000000000              -0.002223283               0.002587111              -0.000986545              -0.001157117               0.001248067               0.000090950               0.000000000               0.000000000               0.000000000               0.000000000              -0.001591074               0.003260407              -0.000925495              -0.001004201               0.001421525               0.000417323               0.000000000               0.000000000               0.000000000               0.000000000              -0.001040451               0.003787477              -0.000856300              -0.000863602               0.001550347               0.000686745               0.000000000               0.000000000               0.000000000               0.000000000              -0.000522611               0.004192684              -0.000791269              -0.000720063               0.001637568               0.000917505               0.000000000               0.000000000               0.000000000               0.000000000              -0.000011446               0.004508406              -0.000729091              -0.000567842               0.001692067               0.001124226               0.000000000               0.000000000               0.000000000               0.000000000               0.000513218               0.004753589              -0.000667407              -0.000401741               0.001718427               0.001316686               0.000000000               0.000000000               0.000000000               0.000000000               0.001066695               0.004931142              -0.000605420              -0.000216382               0.001715825               0.001499443               0.000000000               0.000000000               0.000000000               0.000000000               0.001657779               0.005049315              -0.000542391              -0.000009498               0.001686254               0.001676756               0.000000000               0.000000000               0.000000000               0.000000000               0.002297388               0.005113209              -0.000466342               0.000222367               0.001630263               0.001852631               0.000000000               0.000000000               0.000000000               0.000000000               0.002998084               0.005125099              -0.000359886               0.000483639               0.001547136               0.002030775               0.000000000               0.000000000               0.000000000               0.000000000               0.003779291               0.005078272              -0.000204996               0.000782442               0.001431926               0.002214369               0.000000000               0.000000000               0.000000000               0.000000000               0.004375552               0.005103351              -0.000125468               0.001002903               0.001366799               0.002369702               0.000000000               0.000000000               0.000000000               0.000000000              -0.014363000              -0.001285200               0.000000000              -0.005225472               0.001313415              -0.003912056               0.000000000               0.000000000               0.000000000               0.000000000              -0.009754399              -0.000706372              -0.000000000              -0.003569601               0.000954403              -0.002615198               0.000000000               0.000000000               0.000000000               0.000000000              -0.006097992              -0.000369973               0.000000000              -0.002240499               0.000623504              -0.001616995               0.000000000               0.000000000               0.000000000               0.000000000              -0.004133842               0.000503396               0.000000000              -0.001613113               0.000705498              -0.000907615               0.000000000               0.000000000               0.000000000               0.000000000              -0.002938416               0.001436902              -0.000000000              -0.001281517               0.000906133              -0.000375383               0.000000000               0.000000000               0.000000000               0.000000000              -0.002116538               0.002280522               0.000000000              -0.001078765               0.001119754               0.000040990               0.000000000               0.000000000               0.000000000               0.000000000              -0.001482447               0.002987659              -0.000000000              -0.000929373               0.001305667               0.000376295               0.000000000               0.000000000               0.000000000               0.000000000              -0.000931854               0.003550175              -0.000000000              -0.000793215               0.001447785               0.000654570               0.000000000               0.000000000               0.000000000               0.000000000              -0.000423161               0.003985561              -0.000000000              -0.000656879               0.001547467               0.000890588               0.000000000               0.000000000               0.000000000               0.000000000               0.000081521               0.004334268              -0.000000000              -0.000511212               0.001615145               0.001103933               0.000000000               0.000000000               0.000000000               0.000000000               0.000606021               0.004614636               0.000000000              -0.000349571               0.001654720               0.001305149               0.000000000               0.000000000               0.000000000               0.000000000               0.001168698               0.004832051              -0.000000000              -0.000165745               0.001665916               0.001500171               0.000000000               0.000000000               0.000000000               0.000000000               0.001781010               0.004989192              -0.000000000               0.000044229               0.001648304               0.001692534               0.000000000               0.000000000               0.000000000               0.000000000               0.002449109               0.005074572               0.000000000               0.000284092               0.001596810               0.001880901               0.000000000               0.000000000               0.000000000               0.000000000               0.003198172               0.005097229               0.000000000               0.000562155               0.001511674               0.002073830               0.000000000               0.000000000               0.000000000               0.000000000               0.004062123               0.005063833              -0.000000000               0.000890308               0.001391158               0.002281466               0.000000000               0.000000000               0.000000000               0.000000000               0.004734867               0.005104502               0.000000000               0.001137501               0.001322317               0.002459818               0.000000000               0.000000000               0.000000000               0.000000000               0.000000000               0.000000000               0.000000000               0.000000000               0.000000000               0.000000000               0.000000000               0.000000000               0.000000000               0.000000000               0.000000000               0.000000000               0.000000000               0.000000000               0.000000000               0.000000000               0.000000000               0.000000000               0.000000000               0.000000000               0.000000000               0.000000000               0.000000000               0.000000000               0.000000000               0.000000000               0.000000000               0.000000000               0.000000000               0.000000000               0.000000000               0.000000000               0.000000000               0.000000000               0.000000000               0.000000000               0.000000000               0.000000000               0.000000000               0.000000000               0.000000000               0.000000000               0.000000000               0.000000000               0.000000000               0.000000000               0.000000000               0.000000000               0.000000000               0.000000000               0.000000000               0.000000000               0.000000000               0.000000000               0.000000000               0.000000000               0.000000000               0.000000000               0.000000000               0.000000000               0.000000000               0.000000000               0.000000000               0.000000000               0.000000000               0.000000000               0.000000000               0.000000000               0.000000000               0.000000000               0.000000000               0.000000000               0.000000000               0.000000000               0.000000000               0.000000000               0.000000000               0.000000000               0.000000000               0.000000000               0.000000000               0.000000000               0.000000000               0.000000000               0.000000000               0.000000000               0.000000000               0.000000000               0.000000000               0.000000000               0.000000000               0.000000000               0.000000000               0.000000000               0.000000000               0.000000000               0.000000000               0.000000000               0.000000000               0.000000000               0.000000000               0.000000000               0.000000000               0.000000000               0.000000000               0.000000000               0.000000000               0.000000000               0.000000000               0.000000000               0.000000000               0.000000000               0.000000000               0.000000000               0.000000000               0.000000000               0.000000000               0.000000000               0.000000000               0.000000000               0.000000000               0.000000000               0.000000000               0.000000000               0.000000000               0.000000000               0.000000000               0.000000000               0.000000000               0.000000000               0.000000000               0.000000000               0.000000000               0.000000000               0.000000000               0.000000000               0.000000000               0.000000000               0.000000000               0.000000000               0.000000000               0.000000000               0.000000000               0.000000000               0.000000000               0.000000000               0.000000000               0.000000000               0.000000000               0.000000000               0.000000000               0.000000000               0.000000000               0.000000000               0.000000000               0.000000000               0.000000000               0.000000000               0.000000000               0.000000000               0.000000000               0.000000000               0.000000000               0.000000000               0.000000000               0.000000000               0.000000000               0.000000000               0.000000000               0.000000000               0.002286806               0.023326758               0.001569991              -0.002058288               0.008461604               0.006403316               0.000000000               0.000000000               0.000000000               0.000000000               0.002042050               0.017984180               0.000700029              -0.001482250               0.006488750               0.005006500               0.000000000               0.000000000               0.000000000               0.000000000               0.002481205               0.013700737              -0.000158674              -0.000782138               0.004827579               0.004045441               0.000000000               0.000000000               0.000000000               0.000000000               0.002197877               0.011284984              -0.000511969              -0.000586418               0.003957096               0.003370679               0.000000000               0.000000000               0.000000000               0.000000000               0.001737047               0.009749649              -0.000647789              -0.000567312               0.003438955               0.002871642               0.000000000               0.000000000               0.000000000               0.000000000               0.001281372               0.008662581              -0.000686507              -0.000602307               0.003088267               0.002485960               0.000000000               0.000000000               0.000000000               0.000000000               0.000894141               0.007814220              -0.000680805              -0.000641473               0.002818538               0.002177065               0.000000000               0.000000000               0.000000000               0.000000000               0.000586789               0.007090451              -0.000653034              -0.000666259               0.002585546               0.001919287               0.000000000               0.000000000               0.000000000               0.000000000               0.000353728               0.006430988              -0.000616326              -0.000671224               0.002367382               0.001696158               0.000000000               0.000000000               0.000000000               0.000000000               0.000181722               0.005803039              -0.000578828              -0.000657233               0.002153404               0.001496172               0.000000000               0.000000000               0.000000000               0.000000000               0.000054287               0.005183586              -0.000542480              -0.000627589               0.001937041               0.001309452               0.000000000               0.000000000               0.000000000               0.000000000              -0.000034143               0.004567137              -0.000508104              -0.000583695               0.001716929               0.001133234               0.000000000               0.000000000               0.000000000               0.000000000              -0.000092655               0.003946390              -0.000466547              -0.000528043               0.001491465               0.000963421               0.000000000               0.000000000               0.000000000               0.000000000              -0.000125145               0.003301956              -0.000403406              -0.000459673               0.001253865               0.000794192               0.000000000               0.000000000               0.000000000               0.000000000              -0.000121155               0.002611864              -0.000311211              -0.000371915               0.000994584               0.000622669               0.000000000               0.000000000               0.000000000               0.000000000              -0.000071651               0.001864044              -0.000179890              -0.000259874               0.000707967               0.000448092               0.000000000               0.000000000               0.000000000               0.000000000              -0.000093377               0.001310362              -0.000112901              -0.000198811               0.000503053               0.000304242               0.000000000               0.000000000               0.000000000               0.000000000               0.002426810               0.021864473               0.002898037              -0.001823002               0.007895752               0.006072750               0.000000000               0.000000000               0.000000000               0.000000000               0.001826892               0.017072182               0.001285573              -0.001448935               0.006173649               0.004724713               0.000000000               0.000000000               0.000000000               0.000000000               0.001890669               0.013353476              -0.000288464              -0.000960181               0.004771174               0.003810993               0.000000000               0.000000000               0.000000000               0.000000000               0.001481249               0.011214987              -0.000909604              -0.000846403               0.004020426               0.003174023               0.000000000               0.000000000               0.000000000               0.000000000               0.001015697               0.009812994              -0.001136813              -0.000845736               0.003552877               0.002707141               0.000000000               0.000000000               0.000000000               0.000000000               0.000614358               0.008786268              -0.001194677              -0.000867897               0.003218026               0.002350128               0.000000000               0.000000000               0.000000000               0.000000000               0.000299782               0.007963981              -0.001174488              -0.000883078               0.002948993               0.002065915               0.000000000               0.000000000               0.000000000               0.000000000               0.000066377               0.007254598              -0.001116918              -0.000881932               0.002712152               0.001830221               0.000000000               0.000000000               0.000000000               0.000000000              -0.000094345               0.006609913              -0.001045632              -0.000861617               0.002490488               0.001628871               0.000000000               0.000000000               0.000000000               0.000000000              -0.000201263               0.005996776              -0.000969777              -0.000825069               0.002273928               0.001448859               0.000000000               0.000000000               0.000000000               0.000000000              -0.000265661               0.005402755              -0.000896744              -0.000774965               0.002059222               0.001284257               0.000000000               0.000000000               0.000000000               0.000000000              -0.000292510               0.004826848              -0.000829578              -0.000713046               0.001846615               0.001133569               0.000000000               0.000000000               0.000000000               0.000000000              -0.000290284               0.004261638              -0.000750474              -0.000641560               0.001634385               0.000992825               0.000000000               0.000000000               0.000000000               0.000000000              -0.000255812               0.003699701              -0.000632810              -0.000558391               0.001419351               0.000860961               0.000000000               0.000000000               0.000000000               0.000000000              -0.000191185               0.003137968              -0.000472333              -0.000463939               0.001200625               0.000736686               0.000000000               0.000000000               0.000000000               0.000000000              -0.000103120               0.002585401              -0.000265848              -0.000361844               0.000982406               0.000620562               0.000000000               0.000000000               0.000000000               0.000000000              -0.000091515               0.002209989              -0.000162088              -0.000310566               0.000840178               0.000529612               0.000000000               0.000000000               0.000000000               0.000000000               0.002528915               0.019647659               0.003809169              -0.001507613               0.007051691               0.005544078               0.000000000               0.000000000               0.000000000               0.000000000               0.001435636               0.015709641               0.001686089              -0.001425339               0.005711607               0.004286269               0.000000000               0.000000000               0.000000000               0.000000000               0.000979722               0.012830360              -0.000353838              -0.001236396               0.004688876               0.003452479               0.000000000               0.000000000               0.000000000               0.000000000               0.000433685               0.011085612              -0.001109855              -0.001223067               0.004102856               0.002879789               0.000000000               0.000000000               0.000000000               0.000000000              -0.000002410               0.009863306              -0.001365398              -0.001233814               0.003699007               0.002465193               0.000000000               0.000000000               0.000000000               0.000000000              -0.000305068               0.008917234              -0.001414501              -0.001229052               0.003382065               0.002153013               0.000000000               0.000000000               0.000000000               0.000000000              -0.000499712               0.008131587              -0.001373028              -0.001203838               0.003111781               0.001907943               0.000000000               0.000000000               0.000000000               0.000000000              -0.000610691               0.007442964              -0.001290607              -0.001159377               0.002867422               0.001708045               0.000000000               0.000000000               0.000000000               0.000000000              -0.000657643               0.006812733              -0.001190681              -0.001098205               0.002636956               0.001538751               0.000000000               0.000000000               0.000000000               0.000000000              -0.000662369               0.006217910              -0.001089415              -0.001025625               0.002414491               0.001388866               0.000000000               0.000000000               0.000000000               0.000000000              -0.000635916               0.005663129              -0.000996251              -0.000946357               0.002203143               0.001256786               0.000000000               0.000000000               0.000000000               0.000000000              -0.000582311               0.005143792              -0.000907533              -0.000861339               0.002001693               0.001140354               0.000000000               0.000000000               0.000000000               0.000000000              -0.000502318               0.004653512              -0.000802523              -0.000770057               0.001807841               0.001037784               0.000000000               0.000000000               0.000000000               0.000000000              -0.000392671               0.004195049              -0.000659243              -0.000671631               0.001622213               0.000950581               0.000000000               0.000000000               0.000000000               0.000000000              -0.000260519               0.003785541              -0.000478997              -0.000570886               0.001452129               0.000881244               0.000000000               0.000000000               0.000000000               0.000000000              -0.000127747               0.003439339              -0.000261843              -0.000477821               0.001305709               0.000827887               0.000000000               0.000000000               0.000000000               0.000000000              -0.000082878               0.003236186              -0.000152215              -0.000435602               0.001223919               0.000788317               0.000000000               0.000000000               0.000000000               0.000000000               0.002457865               0.016943524               0.004222195              -0.001196241               0.006046531               0.004850290               0.000000000               0.000000000               0.000000000               0.000000000               0.000854998               0.014072905               0.001887475              -0.001438487               0.005170417               0.003731930               0.000000000               0.000000000               0.000000000               0.000000000              -0.000136684               0.012192272              -0.000316740              -0.001575287               0.004589145               0.003013859               0.000000000               0.000000000               0.000000000               0.000000000              -0.000759094               0.010878775              -0.001071668              -0.001644503               0.004174390               0.002529887               0.000000000               0.000000000               0.000000000               0.000000000              -0.001105318               0.009848002              -0.001301451              -0.001645491               0.003831131               0.002185641               0.000000000               0.000000000               0.000000000               0.000000000              -0.001261744               0.008992200              -0.001328280              -0.001597176               0.003529762               0.001932586               0.000000000               0.000000000               0.000000000               0.000000000              -0.001296303               0.008243969              -0.001272250              -0.001516606               0.003253497               0.001736891               0.000000000               0.000000000               0.000000000               0.000000000              -0.001253684               0.007570454              -0.001178757              -0.001416435               0.002995604               0.001579169               0.000000000               0.000000000               0.000000000               0.000000000              -0.001163113               0.006949901              -0.001069820              -0.001304902               0.002751578               0.001446676               0.000000000               0.000000000               0.000000000               0.000000000              -0.001048452               0.006382818              -0.000965311              -0.001191019               0.002524591               0.001333572               0.000000000               0.000000000               0.000000000               0.000000000              -0.000921767               0.005869919              -0.000872990              -0.001079400               0.002316420               0.001237020               0.000000000               0.000000000               0.000000000               0.000000000              -0.000779284               0.005410417              -0.000782162              -0.000968531               0.002126298               0.001157766               0.000000000               0.000000000               0.000000000               0.000000000              -0.000618478               0.004999513              -0.000673155              -0.000856866               0.001952110               0.001095243               0.000000000               0.000000000               0.000000000               0.000000000              -0.000445398               0.004643503              -0.000533984              -0.000747460               0.001796972               0.001049512               0.000000000               0.000000000               0.000000000               0.000000000              -0.000277245               0.004360162              -0.000372491              -0.000648985               0.001669701               0.001020716               0.000000000               0.000000000               0.000000000               0.000000000              -0.000128551               0.004166349              -0.000194317              -0.000568999               0.001578435               0.001009437               0.000000000               0.000000000               0.000000000               0.000000000              -0.000066264               0.004081705              -0.000105182              -0.000535061               0.001538908               0.001003848               0.000000000               0.000000000               0.000000000               0.000000000               0.002078403               0.014039321               0.004148643              -0.000975515               0.005004897               0.004029383               0.000000000               0.000000000               0.000000000               0.000000000               0.000088797               0.012347588               0.001918911              -0.001510147               0.004619204               0.003109056               0.000000000               0.000000000               0.000000000               0.000000000              -0.001324331               0.011495315              -0.000154100              -0.001933534               0.004476244               0.002542711               0.000000000               0.000000000               0.000000000               0.000000000              -0.001914659               0.010584679              -0.000805680              -0.002041077               0.004208550               0.002167473               0.000000000               0.000000000               0.000000000               0.000000000              -0.002094900               0.009728614              -0.000985409              -0.002001659               0.003910059               0.001908399               0.000000000               0.000000000               0.000000000               0.000000000              -0.002063554               0.008950007              -0.000995546              -0.001892579               0.003614165               0.001721586               0.000000000               0.000000000               0.000000000               0.000000000              -0.001922361               0.008232574              -0.000941484              -0.001749953               0.003327481               0.001577529               0.000000000               0.000000000               0.000000000               0.000000000              -0.001720616               0.007575065              -0.000860040              -0.001592110               0.003055700               0.001463590               0.000000000               0.000000000               0.000000000               0.000000000              -0.001489555               0.006978697              -0.000768904              -0.001430917               0.002803181               0.001372264               0.000000000               0.000000000               0.000000000               0.000000000              -0.001254676               0.006449799              -0.000685498              -0.001276725               0.002575486               0.001298761               0.000000000               0.000000000               0.000000000               0.000000000              -0.001033917               0.005983730              -0.000614997              -0.001135682               0.002373118               0.001237435               0.000000000               0.000000000               0.000000000               0.000000000              -0.000820195               0.005578340              -0.000543120              -0.001004863               0.002194382               0.001189519               0.000000000               0.000000000               0.000000000               0.000000000              -0.000607010               0.005232569              -0.000451042              -0.000881698               0.002038071               0.001156374               0.000000000               0.000000000               0.000000000               0.000000000              -0.000405613               0.004954018              -0.000338206              -0.000771355               0.001908441               0.001137086               0.000000000               0.000000000               0.000000000               0.000000000              -0.000236150               0.004754155              -0.000220168              -0.000682824               0.001812310               0.001129486               0.000000000               0.000000000               0.000000000               0.000000000              -0.000103111               0.004642523              -0.000106287              -0.000618980               0.001753819               0.001134839               0.000000000               0.000000000               0.000000000               0.000000000              -0.000047239               0.004609570              -0.000052109              -0.000593909               0.001734478               0.001140568               0.000000000               0.000000000               0.000000000               0.000000000               0.001322538               0.011184228               0.003676876              -0.000902078               0.004028730               0.003126653               0.000000000               0.000000000               0.000000000               0.000000000              -0.000825387               0.010680100               0.001839936              -0.001644530               0.004108174               0.002463644               0.000000000               0.000000000               0.000000000               0.000000000              -0.002454839               0.010769622               0.000141449              -0.002266762               0.004345425               0.002078664               0.000000000               0.000000000               0.000000000               0.000000000              -0.002888244               0.010189329              -0.000360334              -0.002356752               0.004181993               0.001825241               0.000000000               0.000000000               0.000000000               0.000000000              -0.002846284               0.009475370              -0.000500516              -0.002251772               0.003909016               0.001657244               0.000000000               0.000000000               0.000000000               0.000000000              -0.002606992               0.008761633              -0.000518627              -0.002072821               0.003611455               0.001538634               0.000000000               0.000000000               0.000000000               0.000000000              -0.002286713               0.008083733              -0.000490544              -0.001867979               0.003317210               0.001449231               0.000000000               0.000000000               0.000000000               0.000000000              -0.001934955               0.007457438              -0.000445939              -0.001657784               0.003038382               0.001380598               0.000000000               0.000000000               0.000000000               0.000000000              -0.001588109               0.006895172              -0.000397046              -0.001457434               0.002784179               0.001326745               0.000000000               0.000000000               0.000000000               0.000000000              -0.001262374               0.006408717              -0.000354025              -0.001274477               0.002561043               0.001286566               0.000000000               0.000000000               0.000000000               0.000000000              -0.000968735               0.005989539              -0.000317666              -0.001111965               0.002367148               0.001255183               0.000000000               0.000000000               0.000000000               0.000000000              -0.000709747               0.005627525              -0.000277295              -0.000969593               0.002199021               0.001229427               0.000000000               0.000000000               0.000000000               0.000000000              -0.000482970               0.005326952              -0.000218448              -0.000846981               0.002057960               0.001210979               0.000000000               0.000000000               0.000000000               0.000000000              -0.000294984               0.005097159              -0.000146390              -0.000747762               0.001948290               0.001200528               0.000000000               0.000000000               0.000000000               0.000000000              -0.000154954               0.004942935              -0.000081540              -0.000675973               0.001872953               0.001196980               0.000000000               0.000000000               0.000000000               0.000000000              -0.000060340               0.004861268              -0.000033160              -0.000630284               0.001830501               0.001200217               0.000000000               0.000000000               0.000000000               0.000000000              -0.000026901               0.004835035              -0.000015529              -0.000614466               0.001816484               0.001202018               0.000000000               0.000000000               0.000000000               0.000000000               0.000230163               0.008560378               0.002922739              -0.000983736               0.003181342               0.002197606               0.000000000               0.000000000               0.000000000               0.000000000              -0.001831876               0.009164734               0.001709664              -0.001832541               0.003665727               0.001833186               0.000000000               0.000000000               0.000000000               0.000000000              -0.003416631               0.010014721               0.000558425              -0.002533070               0.004182564               0.001649493               0.000000000               0.000000000               0.000000000               0.000000000              -0.003584799               0.009688400               0.000189584              -0.002555343               0.004081215               0.001525872               0.000000000               0.000000000               0.000000000               0.000000000              -0.003296969               0.009097560               0.000051417              -0.002373552               0.003823674               0.001450121               0.000000000               0.000000000               0.000000000               0.000000000              -0.002861156               0.008453005              -0.000003815              -0.002129554               0.003527492               0.001397938               0.000000000               0.000000000               0.000000000               0.000000000              -0.002382539               0.007824211              -0.000025131              -0.001871474               0.003231869               0.001360395               0.000000000               0.000000000               0.000000000               0.000000000              -0.001911184               0.007239832              -0.000034397              -0.001621669               0.002953809               0.001332141               0.000000000               0.000000000               0.000000000               0.000000000              -0.001479376               0.006720934              -0.000041274              -0.001394879               0.002705249               0.001310369               0.000000000               0.000000000               0.000000000               0.000000000              -0.001103007               0.006275853              -0.000047711              -0.001198106               0.002491299               0.001293193               0.000000000               0.000000000               0.000000000               0.000000000              -0.000775543               0.005892627              -0.000051064              -0.001027404               0.002306658               0.001279253               0.000000000               0.000000000               0.000000000               0.000000000              -0.000507146               0.005563598              -0.000047405              -0.000885627               0.002149723               0.001264096               0.000000000               0.000000000               0.000000000               0.000000000              -0.000305126               0.005292304              -0.000030129              -0.000775959               0.002022737               0.001246778               0.000000000               0.000000000               0.000000000               0.000000000              -0.000157332               0.005097768              -0.000009461              -0.000696219               0.001931312               0.001235093               0.000000000               0.000000000               0.000000000               0.000000000              -0.000062877               0.004983317               0.000000578              -0.000646492               0.001876586               0.001230095               0.000000000               0.000000000               0.000000000               0.000000000              -0.000016806               0.004929109               0.000001091              -0.000622439               0.001850500               0.001228060               0.000000000               0.000000000               0.000000000               0.000000000              -0.000006878               0.004911960              -0.000001559              -0.000616573               0.001842828               0.001226255               0.000000000               0.000000000               0.000000000               0.000000000              -0.001057706               0.006349425               0.002012500              -0.001190316               0.002513225               0.001322909               0.000000000               0.000000000               0.000000000               0.000000000              -0.002814575               0.007807449               0.001572883              -0.002031392               0.003279587               0.001248195               0.000000000               0.000000000               0.000000000               0.000000000              -0.004170583               0.009249234               0.001058753              -0.002720116               0.003989753               0.001269636               0.000000000               0.000000000               0.000000000               0.000000000              -0.004057659               0.009191640               0.000771233              -0.002670571               0.003954040               0.001283469               0.000000000               0.000000000               0.000000000               0.000000000              -0.003564985               0.008749692               0.000602374              -0.002430575               0.003726726               0.001296152               0.000000000               0.000000000               0.000000000               0.000000000              -0.002971775               0.008198785               0.000493297              -0.002139258               0.003445987               0.001306729               0.000000000               0.000000000               0.000000000               0.000000000              -0.002370891               0.007635687               0.000411215              -0.001843540               0.003159717               0.001316176               0.000000000               0.000000000               0.000000000               0.000000000              -0.001813083               0.007102358               0.000339658              -0.001567697               0.002889995               0.001322298               0.000000000               0.000000000               0.000000000               0.000000000              -0.001324967               0.006630943               0.000278911              -0.001325727               0.002652201               0.001326474               0.000000000               0.000000000               0.000000000               0.000000000              -0.000915375               0.006214954               0.000226543              -0.001120132               0.002445008               0.001324876               0.000000000               0.000000000               0.000000000               0.000000000              -0.000577985               0.005845991               0.000181141              -0.000947491               0.002264475               0.001316984               0.000000000               0.000000000               0.000000000               0.000000000              -0.000315972               0.005523626               0.000144024              -0.000808941               0.002110837               0.001301896               0.000000000               0.000000000               0.000000000               0.000000000              -0.000136474               0.005260520               0.000110457              -0.000708741               0.001989736               0.001280995               0.000000000               0.000000000               0.000000000               0.000000000              -0.000025524               0.005090283               0.000070427              -0.000645855               0.001912029               0.001266174               0.000000000               0.000000000               0.000000000               0.000000000               0.000023755               0.005004184               0.000029491              -0.000616613               0.001873582               0.001256969               0.000000000               0.000000000               0.000000000               0.000000000               0.000025534               0.004969964               0.000002442              -0.000611669               0.001860528               0.001248859               0.000000000               0.000000000               0.000000000               0.000000000               0.000016263               0.004962295              -0.000006716              -0.000614187               0.001858811               0.001244624               0.000000000               0.000000000               0.000000000               0.000000000              -0.002537717               0.004297550               0.001061837              -0.001488834               0.001928780               0.000439946               0.000000000               0.000000000               0.000000000               0.000000000              -0.003633867               0.006221518               0.001423254              -0.002140385               0.002787280               0.000646895               0.000000000               0.000000000               0.000000000               0.000000000              -0.004621934               0.008093758               0.001581285              -0.002744938               0.003612871               0.000867933               0.000000000               0.000000000               0.000000000               0.000000000              -0.004355812               0.008444051               0.001383154              -0.002688929               0.003710965               0.001022036               0.000000000               0.000000000               0.000000000               0.000000000              -0.003780161               0.008283859               0.001182040              -0.002453037               0.003578938               0.001125901               0.000000000               0.000000000               0.000000000               0.000000000              -0.003135233               0.007939201               0.001014894              -0.002168107               0.003369076               0.001200969               0.000000000               0.000000000               0.000000000               0.000000000              -0.002500299               0.007529152               0.000869812              -0.001878752               0.003135943               0.001257191               0.000000000               0.000000000               0.000000000               0.000000000              -0.001910122               0.007107982               0.000740291              -0.001604790               0.002904233               0.001299444               0.000000000               0.000000000               0.000000000               0.000000000              -0.001388664               0.006708126               0.000630093              -0.001359262               0.002689107               0.001329845               0.000000000               0.000000000               0.000000000               0.000000000              -0.000947718               0.006330713               0.000532828              -0.001146730               0.002492460               0.001345730               0.000000000               0.000000000               0.000000000               0.000000000              -0.000587829               0.005978799               0.000442990              -0.000967783               0.002315507               0.001347724               0.000000000               0.000000000               0.000000000               0.000000000              -0.000308937               0.005652179               0.000357470              -0.000822372               0.002158165               0.001335793               0.000000000               0.000000000               0.000000000               0.000000000              -0.000109121               0.005375918               0.000266341              -0.000712908               0.002029591               0.001316682               0.000000000               0.000000000               0.000000000               0.000000000               0.000015617               0.005176395               0.000167991              -0.000641191               0.001939178               0.001297987               0.000000000               0.000000000               0.000000000               0.000000000               0.000070429               0.005053640               0.000081565              -0.000605293               0.001886294               0.001281001               0.000000000               0.000000000               0.000000000               0.000000000               0.000075267               0.005001686               0.000026377              -0.000596984               0.001866207               0.001269222               0.000000000               0.000000000               0.000000000               0.000000000               0.000060121               0.004985736               0.000004657              -0.000600670               0.001862119               0.001261449               0.000000000               0.000000000               0.000000000               0.000000000              -0.004411510               0.002452815               0.000145253              -0.001960915               0.001471233              -0.000489681               0.000000000               0.000000000               0.000000000               0.000000000              -0.004553818               0.004621681               0.001208242              -0.002285387               0.002302340               0.000016953               0.000000000               0.000000000               0.000000000               0.000000000              -0.004978788               0.006717249               0.002000957              -0.002706695               0.003141292               0.000434597               0.000000000               0.000000000               0.000000000               0.000000000              -0.004580667               0.007449165               0.001964836              -0.002648889               0.003365993               0.000717103               0.000000000               0.000000000               0.000000000               0.000000000              -0.003963602               0.007613773               0.001765104              -0.002438067               0.003350588               0.000912521               0.000000000               0.000000000               0.000000000               0.000000000              -0.003305139               0.007525283               0.001554748              -0.002180083               0.003235097               0.001055014               0.000000000               0.000000000               0.000000000               0.000000000              -0.002658562               0.007314030               0.001360323              -0.001911210               0.003075055               0.001163845               0.000000000               0.000000000               0.000000000               0.000000000              -0.002046598               0.007039153               0.001186061              -0.001647365               0.002895482               0.001248118               0.000000000               0.000000000               0.000000000               0.000000000              -0.001494080               0.006733181               0.001034614              -0.001401925               0.002711679               0.001309755               0.000000000               0.000000000               0.000000000               0.000000000              -0.001013629               0.006419665               0.000898160              -0.001182566               0.002534056               0.001351489               0.000000000               0.000000000               0.000000000               0.000000000              -0.000611005               0.006112682               0.000767256              -0.000993210               0.002368610               0.001375400               0.000000000               0.000000000               0.000000000               0.000000000              -0.000290422               0.005812194               0.000638515              -0.000835430               0.002215855               0.001380425               0.000000000               0.000000000               0.000000000               0.000000000              -0.000042680               0.005533116               0.000503870              -0.000707643               0.002080234               0.001372591               0.000000000               0.000000000               0.000000000               0.000000000               0.000132818               0.005297239               0.000355001              -0.000612346               0.001969844               0.001357498               0.000000000               0.000000000               0.000000000               0.000000000               0.000226208               0.005128622               0.000208076              -0.000556248               0.001894940               0.001338691               0.000000000               0.000000000               0.000000000               0.000000000               0.000237681               0.005036884               0.000088249              -0.000540479               0.001859104               0.001318625               0.000000000               0.000000000               0.000000000               0.000000000               0.000207074               0.004999255               0.000031577              -0.000547253               0.001848819               0.001301567               0.000000000               0.000000000               0.000000000               0.000000000              -0.006551810               0.000954949              -0.000647114              -0.002576294               0.001177073              -0.001399221               0.000000000               0.000000000               0.000000000               0.000000000              -0.005619479               0.003108372               0.000919039              -0.002495847               0.001868060              -0.000627787               0.000000000               0.000000000               0.000000000               0.000000000              -0.005266760               0.005140955               0.002206623              -0.002617649               0.002586183              -0.000031466               0.000000000               0.000000000               0.000000000               0.000000000              -0.004651088               0.006137139               0.002371659              -0.002511295               0.002882790               0.000371495               0.000000000               0.000000000               0.000000000               0.000000000              -0.003981110               0.006601854               0.002226226              -0.002318143               0.002973310               0.000655167               0.000000000               0.000000000               0.000000000               0.000000000              -0.003313572               0.006785815               0.002011987              -0.002090812               0.002958852               0.000868041               0.000000000               0.000000000               0.000000000               0.000000000              -0.002667959               0.006798501               0.001796173              -0.001850293               0.002882908               0.001032615               0.000000000               0.000000000               0.000000000               0.000000000              -0.002055816               0.006700410               0.001594973              -0.001608479               0.002769607               0.001161128               0.000000000               0.000000000               0.000000000               0.000000000              -0.001492718               0.006528773               0.001415635              -0.001375863               0.002634857               0.001258994               0.000000000               0.000000000               0.000000000               0.000000000              -0.000986311               0.006320304               0.001253546              -0.001159902               0.002493381               0.001333479               0.000000000               0.000000000               0.000000000               0.000000000              -0.000540697               0.006095905               0.001096093              -0.000964747               0.002353530               0.001388783               0.000000000               0.000000000               0.000000000               0.000000000              -0.000163714               0.005858276               0.000942887              -0.000793676               0.002217298               0.001423622               0.000000000               0.000000000               0.000000000               0.000000000               0.000143452               0.005614251               0.000782507              -0.000647985               0.002087393               0.001439408               0.000000000               0.000000000               0.000000000               0.000000000               0.000379763               0.005383929               0.000593885              -0.000530579               0.001971485               0.001440906               0.000000000               0.000000000               0.000000000               0.000000000               0.000532118               0.005195118               0.000384357              -0.000449845               0.001881637               0.001431792               0.000000000               0.000000000               0.000000000               0.000000000               0.000584237               0.005073445               0.000182908              -0.000415091               0.001829495               0.001414404               0.000000000               0.000000000               0.000000000               0.000000000               0.000562888               0.005020446               0.000081909              -0.000416472               0.001812289               0.001395818               0.000000000               0.000000000               0.000000000               0.000000000              -0.008798844              -0.000119108              -0.001199018              -0.003284675               0.001055182              -0.002229494               0.000000000               0.000000000               0.000000000               0.000000000              -0.006765674               0.001768581               0.000603971              -0.002758197               0.001508915              -0.001249281               0.000000000               0.000000000               0.000000000               0.000000000              -0.005517875               0.003507660               0.002168218              -0.002507656               0.002005091              -0.000502565               0.000000000               0.000000000               0.000000000               0.000000000              -0.004599171               0.004626027               0.002507074              -0.002302938               0.002309638               0.000006700               0.000000000               0.000000000               0.000000000               0.000000000              -0.003836590               0.005325667               0.002448377              -0.002104425               0.002476679               0.000372253               0.000000000               0.000000000               0.000000000               0.000000000              -0.003150876               0.005757831               0.002270307              -0.001901303               0.002553025               0.000651721               0.000000000               0.000000000               0.000000000               0.000000000              -0.002515406               0.005996093               0.002063638              -0.001692786               0.002562939               0.000870153               0.000000000               0.000000000               0.000000000               0.000000000              -0.001922567               0.006092120               0.001857969              -0.001482475               0.002524844               0.001042370               0.000000000               0.000000000               0.000000000               0.000000000              -0.001365357               0.006089319               0.001671324              -0.001273171               0.002454143               0.001180971               0.000000000               0.000000000               0.000000000               0.000000000              -0.000841182               0.006019328               0.001504810              -0.001067857               0.002362375               0.001294517               0.000000000               0.000000000               0.000000000               0.000000000              -0.000355394               0.005900708               0.001344691              -0.000870860               0.002257169               0.001386310               0.000000000               0.000000000               0.000000000               0.000000000               0.000083538               0.005753053               0.001184585              -0.000687804               0.002146933               0.001459129               0.000000000               0.000000000               0.000000000               0.000000000               0.000463951               0.005579828               0.001013215              -0.000523496               0.002034423               0.001510927               0.000000000               0.000000000               0.000000000               0.000000000               0.000784829               0.005397339               0.000808281              -0.000380356               0.001925880               0.001545524               0.000000000               0.000000000               0.000000000               0.000000000               0.001041355               0.005230675               0.000562567              -0.000263326               0.001831316               0.001567990               0.000000000               0.000000000               0.000000000               0.000000000               0.001203697               0.005102203               0.000289009              -0.000186389               0.001762847               0.001576458               0.000000000               0.000000000               0.000000000               0.000000000               0.001252225               0.005047010               0.000146728              -0.000161291               0.001736084               0.001574792               0.000000000               0.000000000               0.000000000               0.000000000              -0.010944983              -0.000776314              -0.001405308              -0.004007327               0.001076997              -0.002930330               0.000000000               0.000000000               0.000000000               0.000000000              -0.007892510               0.000690158               0.000325282              -0.003045958               0.001245363              -0.001800595               0.000000000               0.000000000               0.000000000               0.000000000              -0.005739923               0.001983686               0.001884463              -0.002400429               0.001461361              -0.000939068               0.000000000               0.000000000               0.000000000               0.000000000              -0.004468557               0.003092748               0.002311134              -0.002062299               0.001718336              -0.000343962               0.000000000               0.000000000               0.000000000               0.000000000              -0.003573759               0.003938372               0.002333670              -0.001832453               0.001923594               0.000091141               0.000000000               0.000000000               0.000000000               0.000000000              -0.002854450               0.004564315               0.002212007              -0.001640955               0.002068407               0.000427452               0.000000000               0.000000000               0.000000000               0.000000000              -0.002229358               0.005001701               0.002039155              -0.001461219               0.002154289               0.000693070               0.000000000               0.000000000               0.000000000               0.000000000              -0.001655342               0.005283867               0.001855820              -0.001281234               0.002188349               0.000907115               0.000000000               0.000000000               0.000000000               0.000000000              -0.001107730               0.005452268               0.001689317              -0.001096930               0.002183048               0.001086117               0.000000000               0.000000000               0.000000000               0.000000000              -0.000575639               0.005531048               0.001541160              -0.000907244               0.002146078               0.001238834               0.000000000               0.000000000               0.000000000               0.000000000              -0.000061779               0.005535009               0.001397464              -0.000715042               0.002083332               0.001368290               0.000000000               0.000000000               0.000000000               0.000000000               0.000428275               0.005492052               0.001251659              -0.000525903               0.002005966               0.001480064               0.000000000               0.000000000               0.000000000               0.000000000               0.000891637               0.005421203               0.001092541              -0.000343286               0.001921478               0.001578192               0.000000000               0.000000000               0.000000000               0.000000000               0.001325006               0.005327644               0.000902241              -0.000169078               0.001832223               0.001663144               0.000000000               0.000000000               0.000000000               0.000000000               0.001729121               0.005222392               0.000660878              -0.000004379               0.001742240               0.001737860               0.000000000               0.000000000               0.000000000               0.000000000               0.002082087               0.005113792               0.000357054               0.000141557               0.001657395               0.001798952               0.000000000               0.000000000               0.000000000               0.000000000               0.002283452               0.005074528               0.000198368               0.000221976               0.001617500               0.001839477               0.000000000               0.000000000               0.000000000               0.000000000              -0.012742268              -0.001114791              -0.001224783              -0.004638999               0.001174728              -0.003464271               0.000000000               0.000000000               0.000000000               0.000000000              -0.008859097              -0.000087254               0.000131293              -0.003311252               0.001074659              -0.002236594               0.000000000               0.000000000               0.000000000               0.000000000              -0.005923564               0.000737070               0.001385476              -0.002313468               0.001016838              -0.001296629               0.000000000               0.000000000               0.000000000               0.000000000              -0.004308135               0.001753716               0.001777707              -0.001834763               0.001196151              -0.000638612               0.000000000               0.000000000               0.000000000               0.000000000              -0.003268496               0.002667086               0.001839643              -0.001559069               0.001408708              -0.000150361               0.000000000               0.000000000               0.000000000               0.000000000              -0.002504959               0.003420473               0.001771529              -0.001366916               0.001595784               0.000228868               0.000000000               0.000000000               0.000000000               0.000000000              -0.001879221               0.004003350               0.001650826              -0.001205124               0.001736144               0.000531020               0.000000000               0.000000000               0.000000000               0.000000000              -0.001319952               0.004434430               0.001515879              -0.001049284               0.001827889               0.000778606               0.000000000               0.000000000               0.000000000               0.000000000              -0.000784311               0.004747686               0.001391074              -0.000887576               0.001878404               0.000990828               0.000000000               0.000000000               0.000000000               0.000000000              -0.000259902               0.004965249               0.001278423              -0.000718118               0.001894439               0.001176321               0.000000000               0.000000000               0.000000000               0.000000000               0.000263934               0.005104382               0.001167680              -0.000539072               0.001881134               0.001342062               0.000000000               0.000000000               0.000000000               0.000000000               0.000792064               0.005179830               0.001056360              -0.000350454               0.001843411               0.001492956               0.000000000               0.000000000               0.000000000               0.000000000               0.001328973               0.005212504               0.000936495              -0.000153198               0.001788550               0.001635352               0.000000000               0.000000000               0.000000000               0.000000000               0.001880996               0.005211521               0.000792057               0.000053932               0.001719179               0.001773111               0.000000000               0.000000000               0.000000000               0.000000000               0.002449788               0.005176553               0.000602585               0.000271598               0.001634968               0.001906566               0.000000000               0.000000000               0.000000000               0.000000000               0.003034496               0.005103144               0.000337954               0.000500038               0.001534352               0.002034390               0.000000000               0.000000000               0.000000000               0.000000000               0.003444895               0.005097707               0.000198659               0.000654616               0.001481014               0.002135629               0.000000000               0.000000000               0.000000000               0.000000000              -0.013941475              -0.001253237              -0.000710177              -0.005071395               0.001272711              -0.003798684               0.000000000               0.000000000               0.000000000               0.000000000              -0.009518445              -0.000551698               0.000033158              -0.003500452               0.000982912              -0.002517541               0.000000000               0.000000000               0.000000000               0.000000000              -0.006050929              -0.000081733               0.000730656              -0.002258880               0.000725711              -0.001533169               0.000000000               0.000000000               0.000000000               0.000000000              -0.004181166               0.000831905               0.000965386              -0.001671924               0.000834604              -0.000837320               0.000000000               0.000000000               0.000000000               0.000000000              -0.003028491               0.001763663               0.001014336              -0.001356140               0.001039927              -0.000316213               0.000000000               0.000000000               0.000000000               0.000000000              -0.002223283               0.002587111               0.000986545              -0.001157117               0.001248067               0.000090950               0.000000000               0.000000000               0.000000000               0.000000000              -0.001591074               0.003260407               0.000925495              -0.001004201               0.001421525               0.000417323               0.000000000               0.000000000               0.000000000               0.000000000              -0.001040451               0.003787477               0.000856300              -0.000863602               0.001550347               0.000686745               0.000000000               0.000000000               0.000000000               0.000000000              -0.000522611               0.004192684               0.000791269              -0.000720063               0.001637568               0.000917505               0.000000000               0.000000000               0.000000000               0.000000000              -0.000011446               0.004508406               0.000729091              -0.000567842               0.001692067               0.001124226               0.000000000               0.000000000               0.000000000               0.000000000               0.000513218               0.004753589               0.000667407              -0.000401741               0.001718427               0.001316686               0.000000000               0.000000000               0.000000000               0.000000000               0.001066695               0.004931142               0.000605420              -0.000216382               0.001715825               0.001499443               0.000000000               0.000000000               0.000000000               0.000000000               0.001657779               0.005049315               0.000542391              -0.000009498               0.001686254               0.001676756               0.000000000               0.000000000               0.000000000               0.000000000               0.002297388               0.005113209               0.000466342               0.000222367               0.001630263               0.001852631               0.000000000               0.000000000               0.000000000               0.000000000               0.002998084               0.005125099               0.000359886               0.000483639               0.001547136               0.002030775               0.000000000               0.000000000               0.000000000               0.000000000               0.003779291               0.005078272               0.000204996               0.000782442               0.001431926               0.002214369               0.000000000               0.000000000               0.000000000               0.000000000               0.004375552               0.005103351               0.000125468               0.001002903               0.001366799               0.002369702               0.000000000               0.000000000               0.000000000               0.000000000              -0.014363000              -0.001285200              -0.000000000              -0.005225472               0.001313415              -0.003912056               0.000000000               0.000000000               0.000000000               0.000000000              -0.009754399              -0.000706372              -0.000000000              -0.003569601               0.000954403              -0.002615198               0.000000000               0.000000000               0.000000000               0.000000000              -0.006097992              -0.000369973              -0.000000000              -0.002240499               0.000623504              -0.001616995               0.000000000               0.000000000               0.000000000               0.000000000              -0.004133842               0.000503396              -0.000000000              -0.001613113               0.000705498              -0.000907615               0.000000000               0.000000000               0.000000000               0.000000000              -0.002938416               0.001436902               0.000000000              -0.001281517               0.000906133              -0.000375383               0.000000000               0.000000000               0.000000000               0.000000000              -0.002116538               0.002280522              -0.000000000              -0.001078765               0.001119754               0.000040990               0.000000000               0.000000000               0.000000000               0.000000000              -0.001482447               0.002987659               0.000000000              -0.000929373               0.001305667               0.000376295               0.000000000               0.000000000               0.000000000               0.000000000              -0.000931854               0.003550175               0.000000000              -0.000793215               0.001447785               0.000654570               0.000000000               0.000000000               0.000000000               0.000000000              -0.000423161               0.003985561              -0.000000000              -0.000656879               0.001547467               0.000890588               0.000000000               0.000000000               0.000000000               0.000000000               0.000081521               0.004334268              -0.000000000              -0.000511212               0.001615145               0.001103933               0.000000000               0.000000000               0.000000000               0.000000000               0.000606021               0.004614636              -0.000000000              -0.000349571               0.001654720               0.001305149               0.000000000               0.000000000               0.000000000               0.000000000               0.001168698               0.004832051               0.000000000              -0.000165745               0.001665916               0.001500171               0.000000000               0.000000000               0.000000000               0.000000000               0.001781010               0.004989192               0.000000000               0.000044229               0.001648304               0.001692534               0.000000000               0.000000000               0.000000000               0.000000000               0.002449109               0.005074572              -0.000000000               0.000284092               0.001596810               0.001880901               0.000000000               0.000000000               0.000000000               0.000000000               0.003198172               0.005097229              -0.000000000               0.000562155               0.001511674               0.002073830               0.000000000               0.000000000               0.000000000               0.000000000               0.004062123               0.005063833              -0.000000000               0.000890308               0.001391158               0.002281466               0.000000000               0.000000000               0.000000000               0.000000000               0.004734867               0.005104502              -0.000000000               0.001137501               0.001322317               0.002459818               0.000000000               0.000000000               0.000000000               0.000000000               0.002222850               0.023839178               0.000000000              -0.002146323               0.008661754               0.006515431               0.000000000               0.000000000               0.000000000               0.000000000               0.002108930               0.018307118               0.000000000              -0.001497537               0.006601491               0.005103953               0.000000000               0.000000000               0.000000000               0.000000000               0.002685172               0.013822854              -0.000000000              -0.000720915               0.004847877               0.004126962               0.000000000               0.000000000               0.000000000               0.000000000               0.002450785               0.011308198              -0.000000000              -0.000494479               0.003934188               0.003439709               0.000000000               0.000000000               0.000000000               0.000000000               0.001997071               0.009723724              -0.000000000              -0.000466563               0.003396730               0.002930167               0.000000000               0.000000000               0.000000000               0.000000000               0.001527041               0.008612574              -0.000000000              -0.000503930               0.003038806               0.002534876               0.000000000               0.000000000               0.000000000               0.000000000               0.001117272               0.007753027               0.000000000              -0.000550150               0.002767700               0.002217550               0.000000000               0.000000000               0.000000000               0.000000000               0.000786114               0.007025565              -0.000000000              -0.000583402               0.002536299               0.001952897               0.000000000               0.000000000               0.000000000               0.000000000               0.000523278               0.006359776              -0.000000000              -0.000598741               0.002319484               0.001720743               0.000000000               0.000000000               0.000000000               0.000000000               0.000324783               0.005722101               0.000000000              -0.000593468               0.002105171               0.001511703               0.000000000               0.000000000               0.000000000               0.000000000               0.000176887               0.005096239              -0.000000000              -0.000570696               0.001888961               0.001318266               0.000000000               0.000000000               0.000000000               0.000000000               0.000065245               0.004468181              -0.000000000              -0.000534055               0.001667397               0.001133342               0.000000000               0.000000000               0.000000000               0.000000000              -0.000018696               0.003826171              -0.000000000              -0.000485281               0.001437138               0.000951857               0.000000000               0.000000000               0.000000000               0.000000000              -0.000078402               0.003146800              -0.000000000              -0.000422750               0.001189839               0.000767089               0.000000000               0.000000000               0.000000000               0.000000000              -0.000094611               0.002407256              -0.000000000              -0.000336385               0.000914539               0.000578154               0.000000000               0.000000000               0.000000000               0.000000000              -0.000057069               0.001577372               0.000000000              -0.000218572               0.000598643               0.000380071               0.000000000               0.000000000               0.000000000               0.000000000              -0.000093626               0.000941270               0.000000000              -0.000152768               0.000364676               0.000211908               0.000000000               0.000000000               0.000000000               0.000000000               0.002286806               0.023326758              -0.001569991              -0.002058288               0.008461604               0.006403316               0.000000000               0.000000000               0.000000000               0.000000000               0.002042050               0.017984180              -0.000700029              -0.001482250               0.006488750               0.005006500               0.000000000               0.000000000               0.000000000               0.000000000               0.002481205               0.013700737               0.000158674              -0.000782138               0.004827579               0.004045441               0.000000000               0.000000000               0.000000000               0.000000000               0.002197877               0.011284984               0.000511969              -0.000586418               0.003957096               0.003370679               0.000000000               0.000000000               0.000000000               0.000000000               0.001737047               0.009749649               0.000647789              -0.000567312               0.003438955               0.002871642               0.000000000               0.000000000               0.000000000               0.000000000               0.001281372               0.008662581               0.000686507              -0.000602307               0.003088267               0.002485960               0.000000000               0.000000000               0.000000000               0.000000000               0.000894141               0.007814220               0.000680805              -0.000641473               0.002818538               0.002177065               0.000000000               0.000000000               0.000000000               0.000000000               0.000586789               0.007090451               0.000653034              -0.000666259               0.002585546               0.001919287               0.000000000               0.000000000               0.000000000               0.000000000               0.000353728               0.006430988               0.000616326              -0.000671224               0.002367382               0.001696158               0.000000000               0.000000000               0.000000000               0.000000000               0.000181722               0.005803039               0.000578828              -0.000657233               0.002153404               0.001496172               0.000000000               0.000000000               0.000000000               0.000000000               0.000054287               0.005183586               0.000542480              -0.000627589               0.001937041               0.001309452               0.000000000               0.000000000               0.000000000               0.000000000              -0.000034143               0.004567137               0.000508104              -0.000583695               0.001716929               0.001133234               0.000000000               0.000000000               0.000000000               0.000000000              -0.000092655               0.003946390               0.000466547              -0.000528043               0.001491465               0.000963421               0.000000000               0.000000000               0.000000000               0.000000000              -0.000125145               0.003301956               0.000403406              -0.000459673               0.001253865               0.000794192               0.000000000               0.000000000               0.000000000               0.000000000              -0.000121155               0.002611864               0.000311211              -0.000371915               0.000994584               0.000622669               0.000000000               0.000000000               0.000000000               0.000000000              -0.000071651               0.001864044               0.000179890              -0.000259874               0.000707967               0.000448092               0.000000000               0.000000000               0.000000000               0.000000000              -0.000093377               0.001310362               0.000112901              -0.000198811               0.000503053               0.000304242               0.000000000               0.000000000               0.000000000               0.000000000               0.002426810               0.021864473              -0.002898037              -0.001823002               0.007895752               0.006072750               0.000000000               0.000000000               0.000000000               0.000000000               0.001826892               0.017072182              -0.001285573              -0.001448935               0.006173649               0.004724713               0.000000000               0.000000000               0.000000000               0.000000000               0.001890669               0.013353476               0.000288464              -0.000960181               0.004771174               0.003810993               0.000000000               0.000000000               0.000000000               0.000000000               0.001481249               0.011214987               0.000909604              -0.000846403               0.004020426               0.003174023               0.000000000               0.000000000               0.000000000               0.000000000               0.001015697               0.009812994               0.001136813              -0.000845736               0.003552877               0.002707141               0.000000000               0.000000000               0.000000000               0.000000000               0.000614358               0.008786268               0.001194677              -0.000867897               0.003218026               0.002350128               0.000000000               0.000000000               0.000000000               0.000000000               0.000299782               0.007963981               0.001174488              -0.000883078               0.002948993               0.002065915               0.000000000               0.000000000               0.000000000               0.000000000               0.000066377               0.007254598               0.001116918              -0.000881932               0.002712152               0.001830221               0.000000000               0.000000000               0.000000000               0.000000000              -0.000094345               0.006609913               0.001045632              -0.000861617               0.002490488               0.001628871               0.000000000               0.000000000               0.000000000               0.000000000              -0.000201263               0.005996776               0.000969777              -0.000825069               0.002273928               0.001448859               0.000000000               0.000000000               0.000000000               0.000000000              -0.000265661               0.005402755               0.000896744              -0.000774965               0.002059222               0.001284257               0.000000000               0.000000000               0.000000000               0.000000000              -0.000292510               0.004826848               0.000829578              -0.000713046               0.001846615               0.001133569               0.000000000               0.000000000               0.000000000               0.000000000              -0.000290284               0.004261638               0.000750474              -0.000641560               0.001634385               0.000992825               0.000000000               0.000000000               0.000000000               0.000000000              -0.000255812               0.003699701               0.000632810              -0.000558391               0.001419351               0.000860961               0.000000000               0.000000000               0.000000000               0.000000000              -0.000191185               0.003137968               0.000472333              -0.000463939               0.001200625               0.000736686               0.000000000               0.000000000               0.000000000               0.000000000              -0.000103120               0.002585401               0.000265848              -0.000361844               0.000982406               0.000620562               0.000000000               0.000000000               0.000000000               0.000000000              -0.000091515               0.002209989               0.000162088              -0.000310566               0.000840178               0.000529612               0.000000000               0.000000000               0.000000000               0.000000000               0.002528915               0.019647659              -0.003809169              -0.001507613               0.007051691               0.005544078               0.000000000               0.000000000               0.000000000               0.000000000               0.001435636               0.015709641              -0.001686089              -0.001425339               0.005711607               0.004286269               0.000000000               0.000000000               0.000000000               0.000000000               0.000979722               0.012830360               0.000353838              -0.001236396               0.004688876               0.003452479               0.000000000               0.000000000               0.000000000               0.000000000               0.000433685               0.011085612               0.001109855              -0.001223067               0.004102856               0.002879789               0.000000000               0.000000000               0.000000000               0.000000000              -0.000002410               0.009863306               0.001365398              -0.001233814               0.003699007               0.002465193               0.000000000               0.000000000               0.000000000               0.000000000              -0.000305068               0.008917234               0.001414501              -0.001229052               0.003382065               0.002153013               0.000000000               0.000000000               0.000000000               0.000000000              -0.000499712               0.008131587               0.001373028              -0.001203838               0.003111781               0.001907943               0.000000000               0.000000000               0.000000000               0.000000000              -0.000610691               0.007442964               0.001290607              -0.001159377               0.002867422               0.001708045               0.000000000               0.000000000               0.000000000               0.000000000              -0.000657643               0.006812733               0.001190681              -0.001098205               0.002636956               0.001538751               0.000000000               0.000000000               0.000000000               0.000000000              -0.000662369               0.006217910               0.001089415              -0.001025625               0.002414491               0.001388866               0.000000000               0.000000000               0.000000000               0.000000000              -0.000635916               0.005663129               0.000996251              -0.000946357               0.002203143               0.001256786               0.000000000               0.000000000               0.000000000               0.000000000              -0.000582311               0.005143792               0.000907533              -0.000861339               0.002001693               0.001140354               0.000000000               0.000000000               0.000000000               0.000000000              -0.000502318               0.004653512               0.000802523              -0.000770057               0.001807841               0.001037784               0.000000000               0.000000000               0.000000000               0.000000000              -0.000392671               0.004195049               0.000659243              -0.000671631               0.001622213               0.000950581               0.000000000               0.000000000               0.000000000               0.000000000              -0.000260519               0.003785541               0.000478997              -0.000570886               0.001452129               0.000881244               0.000000000               0.000000000               0.000000000               0.000000000              -0.000127747               0.003439339               0.000261843              -0.000477821               0.001305709               0.000827887               0.000000000               0.000000000               0.000000000               0.000000000              -0.000082878               0.003236186               0.000152215              -0.000435602               0.001223919               0.000788317               0.000000000               0.000000000               0.000000000               0.000000000               0.002457865               0.016943524              -0.004222195              -0.001196241               0.006046531               0.004850290               0.000000000               0.000000000               0.000000000               0.000000000               0.000854998               0.014072905              -0.001887475              -0.001438487               0.005170417               0.003731930               0.000000000               0.000000000               0.000000000               0.000000000              -0.000136684               0.012192272               0.000316740              -0.001575287               0.004589145               0.003013859               0.000000000               0.000000000               0.000000000               0.000000000              -0.000759094               0.010878775               0.001071668              -0.001644503               0.004174390               0.002529887               0.000000000               0.000000000               0.000000000               0.000000000              -0.001105318               0.009848002               0.001301451              -0.001645491               0.003831131               0.002185641               0.000000000               0.000000000               0.000000000               0.000000000              -0.001261744               0.008992200               0.001328280              -0.001597176               0.003529762               0.001932586               0.000000000               0.000000000               0.000000000               0.000000000              -0.001296303               0.008243969               0.001272250              -0.001516606               0.003253497               0.001736891               0.000000000               0.000000000               0.000000000               0.000000000              -0.001253684               0.007570454               0.001178757              -0.001416435               0.002995604               0.001579169               0.000000000               0.000000000               0.000000000               0.000000000              -0.001163113               0.006949901               0.001069820              -0.001304902               0.002751578               0.001446676               0.000000000               0.000000000               0.000000000               0.000000000              -0.001048452               0.006382818               0.000965311              -0.001191019               0.002524591               0.001333572               0.000000000               0.000000000               0.000000000               0.000000000              -0.000921767               0.005869919               0.000872990              -0.001079400               0.002316420               0.001237020               0.000000000               0.000000000               0.000000000               0.000000000              -0.000779284               0.005410417               0.000782162              -0.000968531               0.002126298               0.001157766               0.000000000               0.000000000               0.000000000               0.000000000              -0.000618478               0.004999513               0.000673155              -0.000856866               0.001952110               0.001095243               0.000000000               0.000000000               0.000000000               0.000000000              -0.000445398               0.004643503               0.000533984              -0.000747460               0.001796972               0.001049512               0.000000000               0.000000000               0.000000000               0.000000000              -0.000277245               0.004360162               0.000372491              -0.000648985               0.001669701               0.001020716               0.000000000               0.000000000               0.000000000               0.000000000              -0.000128551               0.004166349               0.000194317              -0.000568999               0.001578435               0.001009437               0.000000000               0.000000000               0.000000000               0.000000000              -0.000066264               0.004081705               0.000105182              -0.000535061               0.001538908               0.001003848               0.000000000               0.000000000               0.000000000               0.000000000               0.002078403               0.014039321              -0.004148643              -0.000975515               0.005004897               0.004029383               0.000000000               0.000000000               0.000000000               0.000000000               0.000088797               0.012347588              -0.001918911              -0.001510147               0.004619204               0.003109056               0.000000000               0.000000000               0.000000000               0.000000000              -0.001324331               0.011495315               0.000154100              -0.001933534               0.004476244               0.002542711               0.000000000               0.000000000               0.000000000               0.000000000              -0.001914659               0.010584679               0.000805680              -0.002041077               0.004208550               0.002167473               0.000000000               0.000000000               0.000000000               0.000000000              -0.002094900               0.009728614               0.000985409              -0.002001659               0.003910059               0.001908399               0.000000000               0.000000000               0.000000000               0.000000000              -0.002063554               0.008950007               0.000995546              -0.001892579               0.003614165               0.001721586               0.000000000               0.000000000               0.000000000               0.000000000              -0.001922361               0.008232574               0.000941484              -0.001749953               0.003327481               0.001577529               0.000000000               0.000000000               0.000000000               0.000000000              -0.001720616               0.007575065               0.000860040              -0.001592110               0.003055700               0.001463590               0.000000000               0.000000000               0.000000000               0.000000000              -0.001489555               0.006978697               0.000768904              -0.001430917               0.002803181               0.001372264               0.000000000               0.000000000               0.000000000               0.000000000              -0.001254676               0.006449799               0.000685498              -0.001276725               0.002575486               0.001298761               0.000000000               0.000000000               0.000000000               0.000000000              -0.001033917               0.005983730               0.000614997              -0.001135682               0.002373118               0.001237435               0.000000000               0.000000000               0.000000000               0.000000000              -0.000820195               0.005578340               0.000543120              -0.001004863               0.002194382               0.001189519               0.000000000               0.000000000               0.000000000               0.000000000              -0.000607010               0.005232569               0.000451042              -0.000881698               0.002038071               0.001156374               0.000000000               0.000000000               0.000000000               0.000000000              -0.000405613               0.004954018               0.000338206              -0.000771355               0.001908441               0.001137086               0.000000000               0.000000000               0.000000000               0.000000000              -0.000236150               0.004754155               0.000220168              -0.000682824               0.001812310               0.001129486               0.000000000               0.000000000               0.000000000               0.000000000              -0.000103111               0.004642523               0.000106287              -0.000618980               0.001753819               0.001134839               0.000000000               0.000000000               0.000000000               0.000000000              -0.000047239               0.004609570               0.000052109              -0.000593909               0.001734478               0.001140568               0.000000000               0.000000000               0.000000000               0.000000000               0.001322538               0.011184228              -0.003676876              -0.000902078               0.004028730               0.003126653               0.000000000               0.000000000               0.000000000               0.000000000              -0.000825387               0.010680100              -0.001839936              -0.001644530               0.004108174               0.002463644               0.000000000               0.000000000               0.000000000               0.000000000              -0.002454839               0.010769622              -0.000141449              -0.002266762               0.004345425               0.002078664               0.000000000               0.000000000               0.000000000               0.000000000              -0.002888244               0.010189329               0.000360334              -0.002356752               0.004181993               0.001825241               0.000000000               0.000000000               0.000000000               0.000000000              -0.002846284               0.009475370               0.000500516              -0.002251772               0.003909016               0.001657244               0.000000000               0.000000000               0.000000000               0.000000000              -0.002606992               0.008761633               0.000518627              -0.002072821               0.003611455               0.001538634               0.000000000               0.000000000               0.000000000               0.000000000              -0.002286713               0.008083733               0.000490544              -0.001867979               0.003317210               0.001449231               0.000000000               0.000000000               0.000000000               0.000000000              -0.001934955               0.007457438               0.000445939              -0.001657784               0.003038382               0.001380598               0.000000000               0.000000000               0.000000000               0.000000000              -0.001588109               0.006895172               0.000397046              -0.001457434               0.002784179               0.001326745               0.000000000               0.000000000               0.000000000               0.000000000              -0.001262374               0.006408717               0.000354025              -0.001274477               0.002561043               0.001286566               0.000000000               0.000000000               0.000000000               0.000000000              -0.000968735               0.005989539               0.000317666              -0.001111965               0.002367148               0.001255183               0.000000000               0.000000000               0.000000000               0.000000000              -0.000709747               0.005627525               0.000277295              -0.000969593               0.002199021               0.001229427               0.000000000               0.000000000               0.000000000               0.000000000              -0.000482970               0.005326952               0.000218448              -0.000846981               0.002057960               0.001210979               0.000000000               0.000000000               0.000000000               0.000000000              -0.000294984               0.005097159               0.000146390              -0.000747762               0.001948290               0.001200528               0.000000000               0.000000000               0.000000000               0.000000000              -0.000154954               0.004942935               0.000081540              -0.000675973               0.001872953               0.001196980               0.000000000               0.000000000               0.000000000               0.000000000              -0.000060340               0.004861268               0.000033160              -0.000630284               0.001830501               0.001200217               0.000000000               0.000000000               0.000000000               0.000000000              -0.000026901               0.004835035               0.000015529              -0.000614466               0.001816484               0.001202018               0.000000000               0.000000000               0.000000000               0.000000000               0.000230163               0.008560378              -0.002922739              -0.000983736               0.003181342               0.002197606               0.000000000               0.000000000               0.000000000               0.000000000              -0.001831876               0.009164734              -0.001709664              -0.001832541               0.003665727               0.001833186               0.000000000               0.000000000               0.000000000               0.000000000              -0.003416631               0.010014721              -0.000558425              -0.002533070               0.004182564               0.001649493               0.000000000               0.000000000               0.000000000               0.000000000              -0.003584799               0.009688400              -0.000189584              -0.002555343               0.004081215               0.001525872               0.000000000               0.000000000               0.000000000               0.000000000              -0.003296969               0.009097560              -0.000051417              -0.002373552               0.003823674               0.001450121               0.000000000               0.000000000               0.000000000               0.000000000              -0.002861156               0.008453005               0.000003815              -0.002129554               0.003527492               0.001397938               0.000000000               0.000000000               0.000000000               0.000000000              -0.002382539               0.007824211               0.000025131              -0.001871474               0.003231869               0.001360395               0.000000000               0.000000000               0.000000000               0.000000000              -0.001911184               0.007239832               0.000034397              -0.001621669               0.002953809               0.001332141               0.000000000               0.000000000               0.000000000               0.000000000              -0.001479376               0.006720934               0.000041274              -0.001394879               0.002705249               0.001310369               0.000000000               0.000000000               0.000000000               0.000000000              -0.001103007               0.006275853               0.000047711              -0.001198106               0.002491299               0.001293193               0.000000000               0.000000000               0.000000000               0.000000000              -0.000775543               0.005892627               0.000051064              -0.001027404               0.002306658               0.001279253               0.000000000               0.000000000               0.000000000               0.000000000              -0.000507146               0.005563598               0.000047405              -0.000885627               0.002149723               0.001264096               0.000000000               0.000000000               0.000000000               0.000000000              -0.000305126               0.005292304               0.000030129              -0.000775959               0.002022737               0.001246778               0.000000000               0.000000000               0.000000000               0.000000000              -0.000157332               0.005097768               0.000009461              -0.000696219               0.001931312               0.001235093               0.000000000               0.000000000               0.000000000               0.000000000              -0.000062877               0.004983317              -0.000000578              -0.000646492               0.001876586               0.001230095               0.000000000               0.000000000               0.000000000               0.000000000              -0.000016806               0.004929109              -0.000001091              -0.000622439               0.001850500               0.001228060               0.000000000               0.000000000               0.000000000               0.000000000              -0.000006878               0.004911960               0.000001559              -0.000616573               0.001842828               0.001226255               0.000000000               0.000000000               0.000000000               0.000000000              -0.001057706               0.006349425              -0.002012500              -0.001190316               0.002513225               0.001322909               0.000000000               0.000000000               0.000000000               0.000000000              -0.002814575               0.007807449              -0.001572883              -0.002031392               0.003279587               0.001248195               0.000000000               0.000000000               0.000000000               0.000000000              -0.004170583               0.009249234              -0.001058753              -0.002720116               0.003989753               0.001269636               0.000000000               0.000000000               0.000000000               0.000000000              -0.004057659               0.009191640              -0.000771233              -0.002670571               0.003954040               0.001283469               0.000000000               0.000000000               0.000000000               0.000000000              -0.003564985               0.008749692              -0.000602374              -0.002430575               0.003726726               0.001296152               0.000000000               0.000000000               0.000000000               0.000000000              -0.002971775               0.008198785              -0.000493297              -0.002139258               0.003445987               0.001306729               0.000000000               0.000000000               0.000000000               0.000000000              -0.002370891               0.007635687              -0.000411215              -0.001843540               0.003159717               0.001316176               0.000000000               0.000000000               0.000000000               0.000000000              -0.001813083               0.007102358              -0.000339658              -0.001567697               0.002889995               0.001322298               0.000000000               0.000000000               0.000000000               0.000000000              -0.001324967               0.006630943              -0.000278911              -0.001325727               0.002652201               0.001326474               0.000000000               0.000000000               0.000000000               0.000000000              -0.000915375               0.006214954              -0.000226543              -0.001120132               0.002445008               0.001324876               0.000000000               0.000000000               0.000000000               0.000000000              -0.000577985               0.005845991              -0.000181141              -0.000947491               0.002264475               0.001316984               0.000000000               0.000000000               0.000000000               0.000000000              -0.000315972               0.005523626              -0.000144024              -0.000808941               0.002110837               0.001301896               0.000000000               0.000000000               0.000000000               0.000000000              -0.000136474               0.005260520              -0.000110457              -0.000708741               0.001989736               0.001280995               0.000000000               0.000000000               0.000000000               0.000000000              -0.000025524               0.005090283              -0.000070427              -0.000645855               0.001912029               0.001266174               0.000000000               0.000000000               0.000000000               0.000000000               0.000023755               0.005004184              -0.000029491              -0.000616613               0.001873582               0.001256969               0.000000000               0.000000000               0.000000000               0.000000000               0.000025534               0.004969964              -0.000002442              -0.000611669               0.001860528               0.001248859               0.000000000               0.000000000               0.000000000               0.000000000               0.000016263               0.004962295               0.000006716              -0.000614187               0.001858811               0.001244624               0.000000000               0.000000000               0.000000000               0.000000000              -0.002537717               0.004297550              -0.001061837              -0.001488834               0.001928780               0.000439946               0.000000000               0.000000000               0.000000000               0.000000000              -0.003633867               0.006221518              -0.001423254              -0.002140385               0.002787280               0.000646895               0.000000000               0.000000000               0.000000000               0.000000000              -0.004621934               0.008093758              -0.001581285              -0.002744938               0.003612871               0.000867933               0.000000000               0.000000000               0.000000000               0.000000000              -0.004355812               0.008444051              -0.001383154              -0.002688929               0.003710965               0.001022036               0.000000000               0.000000000               0.000000000               0.000000000              -0.003780161               0.008283859              -0.001182040              -0.002453037               0.003578938               0.001125901               0.000000000               0.000000000               0.000000000               0.000000000              -0.003135233               0.007939201              -0.001014894              -0.002168107               0.003369076               0.001200969               0.000000000               0.000000000               0.000000000               0.000000000              -0.002500299               0.007529152              -0.000869812              -0.001878752               0.003135943               0.001257191               0.000000000               0.000000000               0.000000000               0.000000000              -0.001910122               0.007107982              -0.000740291              -0.001604790               0.002904233               0.001299444               0.000000000               0.000000000               0.000000000               0.000000000              -0.001388664               0.006708126              -0.000630093              -0.001359262               0.002689107               0.001329845               0.000000000               0.000000000               0.000000000               0.000000000              -0.000947718               0.006330713              -0.000532828              -0.001146730               0.002492460               0.001345730               0.000000000               0.000000000               0.000000000               0.000000000              -0.000587829               0.005978799              -0.000442990              -0.000967783               0.002315507               0.001347724               0.000000000               0.000000000               0.000000000               0.000000000              -0.000308937               0.005652179              -0.000357470              -0.000822372               0.002158165               0.001335793               0.000000000               0.000000000               0.000000000               0.000000000              -0.000109121               0.005375918              -0.000266341              -0.000712908               0.002029591               0.001316682               0.000000000               0.000000000               0.000000000               0.000000000               0.000015617               0.005176395              -0.000167991              -0.000641191               0.001939178               0.001297987               0.000000000               0.000000000               0.000000000               0.000000000               0.000070429               0.005053640              -0.000081565              -0.000605293               0.001886294               0.001281001               0.000000000               0.000000000               0.000000000               0.000000000               0.000075267               0.005001686              -0.000026377              -0.000596984               0.001866207               0.001269222               0.000000000               0.000000000               0.000000000               0.000000000               0.000060121               0.004985736              -0.000004657              -0.000600670               0.001862119               0.001261449               0.000000000               0.000000000               0.000000000               0.000000000              -0.004411510               0.002452815              -0.000145253              -0.001960915               0.001471233              -0.000489681               0.000000000               0.000000000               0.000000000               0.000000000              -0.004553818               0.004621681              -0.001208242              -0.002285387               0.002302340               0.000016953               0.000000000               0.000000000               0.000000000               0.000000000              -0.004978788               0.006717249              -0.002000957              -0.002706695               0.003141292               0.000434597               0.000000000               0.000000000               0.000000000               0.000000000              -0.004580667               0.007449165              -0.001964836              -0.002648889               0.003365993               0.000717103               0.000000000               0.000000000               0.000000000               0.000000000              -0.003963602               0.007613773              -0.001765104              -0.002438067               0.003350588               0.000912521               0.000000000               0.000000000               0.000000000               0.000000000              -0.003305139               0.007525283              -0.001554748              -0.002180083               0.003235097               0.001055014               0.000000000               0.000000000               0.000000000               0.000000000              -0.002658562               0.007314030              -0.001360323              -0.001911210               0.003075055               0.001163845               0.000000000               0.000000000               0.000000000               0.000000000              -0.002046598               0.007039153              -0.001186061              -0.001647365               0.002895482               0.001248118               0.000000000               0.000000000               0.000000000               0.000000000              -0.001494080               0.006733181              -0.001034614              -0.001401925               0.002711679               0.001309755               0.000000000               0.000000000               0.000000000               0.000000000              -0.001013629               0.006419665              -0.000898160              -0.001182566               0.002534056               0.001351489               0.000000000               0.000000000               0.000000000               0.000000000              -0.000611005               0.006112682              -0.000767256              -0.000993210               0.002368610               0.001375400               0.000000000               0.000000000               0.000000000               0.000000000              -0.000290422               0.005812194              -0.000638515              -0.000835430               0.002215855               0.001380425               0.000000000               0.000000000               0.000000000               0.000000000              -0.000042680               0.005533116              -0.000503870              -0.000707643               0.002080234               0.001372591               0.000000000               0.000000000               0.000000000               0.000000000               0.000132818               0.005297239              -0.000355001              -0.000612346               0.001969844               0.001357498               0.000000000               0.000000000               0.000000000               0.000000000               0.000226208               0.005128622              -0.000208076              -0.000556248               0.001894940               0.001338691               0.000000000               0.000000000               0.000000000               0.000000000               0.000237681               0.005036884              -0.000088249              -0.000540479               0.001859104               0.001318625               0.000000000               0.000000000               0.000000000               0.000000000               0.000207074               0.004999255              -0.000031577              -0.000547253               0.001848819               0.001301567               0.000000000               0.000000000               0.000000000               0.000000000              -0.006551810               0.000954949               0.000647114              -0.002576294               0.001177073              -0.001399221               0.000000000               0.000000000               0.000000000               0.000000000              -0.005619479               0.003108372              -0.000919039              -0.002495847               0.001868060              -0.000627787               0.000000000               0.000000000               0.000000000               0.000000000              -0.005266760               0.005140955              -0.002206623              -0.002617649               0.002586183              -0.000031466               0.000000000               0.000000000               0.000000000               0.000000000              -0.004651088               0.006137139              -0.002371659              -0.002511295               0.002882790               0.000371495               0.000000000               0.000000000               0.000000000               0.000000000              -0.003981110               0.006601854              -0.002226226              -0.002318143               0.002973310               0.000655167               0.000000000               0.000000000               0.000000000               0.000000000              -0.003313572               0.006785815              -0.002011987              -0.002090812               0.002958852               0.000868041               0.000000000               0.000000000               0.000000000               0.000000000              -0.002667959               0.006798501              -0.001796173              -0.001850293               0.002882908               0.001032615               0.000000000               0.000000000               0.000000000               0.000000000              -0.002055816               0.006700410              -0.001594973              -0.001608479               0.002769607               0.001161128               0.000000000               0.000000000               0.000000000               0.000000000              -0.001492718               0.006528773              -0.001415635              -0.001375863               0.002634857               0.001258994               0.000000000               0.000000000               0.000000000               0.000000000              -0.000986311               0.006320304              -0.001253546              -0.001159902               0.002493381               0.001333479               0.000000000               0.000000000               0.000000000               0.000000000              -0.000540697               0.006095905              -0.001096093              -0.000964747               0.002353530               0.001388783               0.000000000               0.000000000               0.000000000               0.000000000              -0.000163714               0.005858276              -0.000942887              -0.000793676               0.002217298               0.001423622               0.000000000               0.000000000               0.000000000               0.000000000               0.000143452               0.005614251              -0.000782507              -0.000647985               0.002087393               0.001439408               0.000000000               0.000000000               0.000000000               0.000000000               0.000379763               0.005383929              -0.000593885              -0.000530579               0.001971485               0.001440906               0.000000000               0.000000000               0.000000000               0.000000000               0.000532118               0.005195118              -0.000384357              -0.000449845               0.001881637               0.001431792               0.000000000               0.000000000               0.000000000               0.000000000               0.000584237               0.005073445              -0.000182908              -0.000415091               0.001829495               0.001414404               0.000000000               0.000000000               0.000000000               0.000000000               0.000562888               0.005020446              -0.000081909              -0.000416472               0.001812289               0.001395818               0.000000000               0.000000000               0.000000000               0.000000000              -0.008798844              -0.000119108               0.001199018              -0.003284675               0.001055182              -0.002229494               0.000000000               0.000000000               0.000000000               0.000000000              -0.006765674               0.001768581              -0.000603971              -0.002758197               0.001508915              -0.001249281               0.000000000               0.000000000               0.000000000               0.000000000              -0.005517875               0.003507660              -0.002168218              -0.002507656               0.002005091              -0.000502565               0.000000000               0.000000000               0.000000000               0.000000000              -0.004599171               0.004626027              -0.002507074              -0.002302938               0.002309638               0.000006700               0.000000000               0.000000000               0.000000000               0.000000000              -0.003836590               0.005325667              -0.002448377              -0.002104425               0.002476679               0.000372253               0.000000000               0.000000000               0.000000000               0.000000000              -0.003150876               0.005757831              -0.002270307              -0.001901303               0.002553025               0.000651721               0.000000000               0.000000000               0.000000000               0.000000000              -0.002515406               0.005996093              -0.002063638              -0.001692786               0.002562939               0.000870153               0.000000000               0.000000000               0.000000000               0.000000000              -0.001922567               0.006092120              -0.001857969              -0.001482475               0.002524844               0.001042370               0.000000000               0.000000000               0.000000000               0.000000000              -0.001365357               0.006089319              -0.001671324              -0.001273171               0.002454143               0.001180971               0.000000000               0.000000000               0.000000000               0.000000000              -0.000841182               0.006019328              -0.001504810              -0.001067857               0.002362375               0.001294517               0.000000000               0.000000000               0.000000000               0.000000000              -0.000355394               0.005900708              -0.001344691              -0.000870860               0.002257169               0.001386310               0.000000000               0.000000000               0.000000000               0.000000000               0.000083538               0.005753053              -0.001184585              -0.000687804               0.002146933               0.001459129               0.000000000               0.000000000               0.000000000               0.000000000               0.000463951               0.005579828              -0.001013215              -0.000523496               0.002034423               0.001510927               0.000000000               0.000000000               0.000000000               0.000000000               0.000784829               0.005397339              -0.000808281              -0.000380356               0.001925880               0.001545524               0.000000000               0.000000000               0.000000000               0.000000000               0.001041355               0.005230675              -0.000562567              -0.000263326               0.001831316               0.001567990               0.000000000               0.000000000               0.000000000               0.000000000               0.001203697               0.005102203              -0.000289009              -0.000186389               0.001762847               0.001576458               0.000000000               0.000000000               0.000000000               0.000000000               0.001252225               0.005047010              -0.000146728              -0.000161291               0.001736084               0.001574792               0.000000000               0.000000000               0.000000000               0.000000000              -0.010944983              -0.000776314               0.001405308              -0.004007327               0.001076997              -0.002930330               0.000000000               0.000000000               0.000000000               0.000000000              -0.007892510               0.000690158              -0.000325282              -0.003045958               0.001245363              -0.001800595               0.000000000               0.000000000               0.000000000               0.000000000              -0.005739923               0.001983686              -0.001884463              -0.002400429               0.001461361              -0.000939068               0.000000000               0.000000000               0.000000000               0.000000000              -0.004468557               0.003092748              -0.002311134              -0.002062299               0.001718336              -0.000343962               0.000000000               0.000000000               0.000000000               0.000000000              -0.003573759               0.003938372              -0.002333670              -0.001832453               0.001923594               0.000091141               0.000000000               0.000000000               0.000000000               0.000000000              -0.002854450               0.004564315              -0.002212007              -0.001640955               0.002068407               0.000427452               0.000000000               0.000000000               0.000000000               0.000000000              -0.002229358               0.005001701              -0.002039155              -0.001461219               0.002154289               0.000693070               0.000000000               0.000000000               0.000000000               0.000000000              -0.001655342               0.005283867              -0.001855820              -0.001281234               0.002188349               0.000907115               0.000000000               0.000000000               0.000000000               0.000000000              -0.001107730               0.005452268              -0.001689317              -0.001096930               0.002183048               0.001086117               0.000000000               0.000000000               0.000000000               0.000000000              -0.000575639               0.005531048              -0.001541160              -0.000907244               0.002146078               0.001238834               0.000000000               0.000000000               0.000000000               0.000000000              -0.000061779               0.005535009              -0.001397464              -0.000715042               0.002083332               0.001368290               0.000000000               0.000000000               0.000000000               0.000000000               0.000428275               0.005492052              -0.001251659              -0.000525903               0.002005966               0.001480064               0.000000000               0.000000000               0.000000000               0.000000000               0.000891637               0.005421203              -0.001092541              -0.000343286               0.001921478               0.001578192               0.000000000               0.000000000               0.000000000               0.000000000               0.001325006               0.005327644              -0.000902241              -0.000169078               0.001832223               0.001663144               0.000000000               0.000000000               0.000000000               0.000000000               0.001729121               0.005222392              -0.000660878              -0.000004379               0.001742240               0.001737860               0.000000000               0.000000000               0.000000000               0.000000000               0.002082087               0.005113792              -0.000357054               0.000141557               0.001657395               0.001798952               0.000000000               0.000000000               0.000000000               0.000000000               0.002283452               0.005074528              -0.000198368               0.000221976               0.001617500               0.001839477               0.000000000               0.000000000               0.000000000               0.000000000              -0.012742268              -0.001114791               0.001224783              -0.004638999               0.001174728              -0.003464271               0.000000000               0.000000000               0.000000000               0.000000000              -0.008859097              -0.000087254              -0.000131293              -0.003311252               0.001074659              -0.002236594               0.000000000               0.000000000               0.000000000               0.000000000              -0.005923564               0.000737070              -0.001385476              -0.002313468               0.001016838              -0.001296629               0.000000000               0.000000000               0.000000000               0.000000000              -0.004308135               0.001753716              -0.001777707              -0.001834763               0.001196151              -0.000638612               0.000000000               0.000000000               0.000000000               0.000000000              -0.003268496               0.002667086              -0.001839643              -0.001559069               0.001408708              -0.000150361               0.000000000               0.000000000               0.000000000               0.000000000              -0.002504959               0.003420473              -0.001771529              -0.001366916               0.001595784               0.000228868               0.000000000               0.000000000               0.000000000               0.000000000              -0.001879221               0.004003350              -0.001650826              -0.001205124               0.001736144               0.000531020               0.000000000               0.000000000               0.000000000               0.000000000              -0.001319952               0.004434430              -0.001515879              -0.001049284               0.001827889               0.000778606               0.000000000               0.000000000               0.000000000               0.000000000              -0.000784311               0.004747686              -0.001391074              -0.000887576               0.001878404               0.000990828               0.000000000               0.000000000               0.000000000               0.000000000              -0.000259902               0.004965249              -0.001278423              -0.000718118               0.001894439               0.001176321               0.000000000               0.000000000               0.000000000               0.000000000               0.000263934               0.005104382              -0.001167680              -0.000539072               0.001881134               0.001342062               0.000000000               0.000000000               0.000000000               0.000000000               0.000792064               0.005179830              -0.001056360              -0.000350454               0.001843411               0.001492956               0.000000000               0.000000000               0.000000000               0.000000000               0.001328973               0.005212504              -0.000936495              -0.000153198               0.001788550               0.001635352               0.000000000               0.000000000               0.000000000               0.000000000               0.001880996               0.005211521              -0.000792057               0.000053932               0.001719179               0.001773111               0.000000000               0.000000000               0.000000000               0.000000000               0.002449788               0.005176553              -0.000602585               0.000271598               0.001634968               0.001906566               0.000000000               0.000000000               0.000000000               0.000000000               0.003034496               0.005103144              -0.000337954               0.000500038               0.001534352               0.002034390               0.000000000               0.000000000               0.000000000               0.000000000               0.003444895               0.005097707              -0.000198659               0.000654616               0.001481014               0.002135629               0.000000000               0.000000000               0.000000000               0.000000000              -0.013941475              -0.001253237               0.000710177              -0.005071395               0.001272711              -0.003798684               0.000000000               0.000000000               0.000000000               0.000000000              -0.009518445              -0.000551698              -0.000033158              -0.003500452               0.000982912              -0.002517541               0.000000000               0.000000000               0.000000000               0.000000000              -0.006050929              -0.000081733              -0.000730656              -0.002258880               0.000725711              -0.001533169               0.000000000               0.000000000               0.000000000               0.000000000              -0.004181166               0.000831905              -0.000965386              -0.001671924               0.000834604              -0.000837320               0.000000000               0.000000000               0.000000000               0.000000000              -0.003028491               0.001763663              -0.001014336              -0.001356140               0.001039927              -0.000316213               0.000000000               0.000000000               0.000000000               0.000000000              -0.002223283               0.002587111              -0.000986545              -0.001157117               0.001248067               0.000090950               0.000000000               0.000000000               0.000000000               0.000000000              -0.001591074               0.003260407              -0.000925495              -0.001004201               0.001421525               0.000417323               0.000000000               0.000000000               0.000000000               0.000000000              -0.001040451               0.003787477              -0.000856300              -0.000863602               0.001550347               0.000686745               0.000000000               0.000000000               0.000000000               0.000000000              -0.000522611               0.004192684              -0.000791269              -0.000720063               0.001637568               0.000917505               0.000000000               0.000000000               0.000000000               0.000000000              -0.000011446               0.004508406              -0.000729091              -0.000567842               0.001692067               0.001124226               0.000000000               0.000000000               0.000000000               0.000000000               0.000513218               0.004753589              -0.000667407              -0.000401741               0.001718427               0.001316686               0.000000000               0.000000000               0.000000000               0.000000000               0.001066695               0.004931142              -0.000605420              -0.000216382               0.001715825               0.001499443               0.000000000               0.000000000               0.000000000               0.000000000               0.001657779               0.005049315              -0.000542391              -0.000009498               0.001686254               0.001676756               0.000000000               0.000000000               0.000000000               0.000000000               0.002297388               0.005113209              -0.000466342               0.000222367               0.001630263               0.001852631               0.000000000               0.000000000               0.000000000               0.000000000               0.002998084               0.005125099              -0.000359886               0.000483639               0.001547136               0.002030775               0.000000000               0.000000000               0.000000000               0.000000000               0.003779291               0.005078272              -0.000204996               0.000782442               0.001431926               0.002214369               0.000000000               0.000000000               0.000000000               0.000000000               0.004375552               0.005103351              -0.000125468               0.001002903               0.001366799               0.002369702               0.000000000               0.000000000               0.000000000               0.000000000               0.000000000               0.000000000               0.000000000               0.000000000               0.000000000               0.000000000               0.000000000               0.000000000               0.000000000               0.000000000               0.000000000               0.000000000               0.000000000               0.000000000               0.000000000               0.000000000               0.000000000               0.000000000               0.000000000               0.000000000               0.000000000               0.000000000               0.000000000               0.000000000               0.000000000               0.000000000               0.000000000               0.000000000               0.000000000               0.000000000               0.000000000               0.000000000               0.000000000               0.000000000               0.000000000               0.000000000               0.000000000               0.000000000               0.000000000               0.000000000               0.000000000               0.000000000               0.000000000               0.000000000               0.000000000               0.000000000               0.000000000               0.000000000               0.000000000               0.000000000               0.000000000               0.000000000               0.000000000               0.000000000               0.000000000               0.000000000               0.000000000               0.000000000               0.000000000               0.000000000               0.000000000               0.000000000               0.000000000               0.000000000               0.000000000               0.000000000               0.000000000               0.000000000               0.000000000               0.000000000               0.000000000               0.000000000               0.000000000               0.000000000               0.000000000               0.000000000               0.000000000               0.000000000               0.000000000               0.000000000               0.000000000               0.000000000               0.000000000               0.000000000               0.000000000               0.000000000               0.000000000               0.000000000               0.000000000               0.000000000               0.000000000               0.000000000               0.000000000               0.000000000               0.000000000               0.000000000               0.000000000               0.000000000               0.000000000               0.000000000               0.000000000               0.000000000               0.000000000               0.000000000               0.000000000               0.000000000               0.000000000               0.000000000               0.000000000               0.000000000               0.000000000               0.000000000               0.000000000               0.000000000               0.000000000               0.000000000               0.000000000               0.000000000               0.000000000               0.000000000               0.000000000               0.000000000               0.000000000               0.000000000               0.000000000               0.000000000               0.000000000               0.000000000               0.000000000               0.000000000               0.000000000               0.000000000               0.000000000               0.000000000               0.000000000               0.000000000               0.000000000               0.000000000               0.000000000               0.000000000               0.000000000               0.000000000               0.000000000               0.000000000               0.000000000               0.000000000               0.000000000               0.000000000               0.000000000               0.000000000               0.000000000               0.000000000               0.000000000               0.000000000               0.000000000               0.000000000               0.000000000               0.000000000               0.000000000               0.000000000               0.000000000               0.000000000               0.000000000               0.000000000               0.000000000               0.000000000               0.000000000               0.000000000               0.000000000               0.000000000               0.000000000               0.000000000               0.000000000               0.000000000               0.000000000               0.000000000               0.000000000               0.000000000               0.000000000               0.000000000               0.000000000               0.000000000               0.000000000               0.000000000               0.000000000               0.000000000               0.000000000               0.000000000               0.000000000               0.000000000               0.000000000               0.000000000               0.000000000               0.000000000               0.000000000               0.000000000               0.000000000               0.000000000               0.000000000               0.000000000               0.000000000               0.000000000               0.000000000               0.000000000               0.000000000               0.000000000               0.000000000               0.000000000               0.000000000               0.000000000               0.000000000               0.000000000               0.000000000               0.000000000               0.000000000               0.000000000               0.000000000               0.000000000               0.000000000               0.000000000               0.000000000               0.000000000               0.000000000               0.000000000               0.000000000               0.000000000               0.000000000               0.000000000               0.000000000               0.000000000               0.000000000               0.000000000               0.000000000               0.000000000               0.000000000               0.000000000               0.000000000               0.000000000               0.000000000               0.000000000               0.000000000               0.000000000               0.000000000               0.000000000               0.000000000               0.000000000               0.000000000               0.000000000               0.000000000               0.000000000               0.000000000               0.000000000               0.000000000               0.000000000               0.000000000               0.000000000               0.000000000               0.000000000               0.000000000               0.000000000               0.000000000               0.000000000               0.000000000               0.000000000               0.000000000               0.000000000               0.000000000               0.000000000               0.000000000               0.000000000               0.000000000               0.000000000               0.000000000               0.000000000               0.000000000               0.000000000               0.000000000               0.000000000               0.000000000               0.000000000               0.000000000               0.000000000               0.000000000               0.000000000               0.000000000               0.000000000               0.000000000               0.000000000               0.000000000               0.000000000               0.000000000               0.000000000               0.000000000               0.000000000               0.000000000               0.000000000               0.000000000               0.000000000               0.000000000               0.000000000               0.000000000               0.000000000               0.000000000               0.000000000               0.000000000               0.000000000               0.000000000               0.000000000               0.000000000               0.000000000               0.000000000               0.000000000               0.000000000               0.000000000               0.000000000               0.000000000               0.000000000               0.000000000               0.000000000               0.000000000               0.000000000               0.000000000               0.000000000               0.000000000               0.000000000               0.000000000               0.000000000               0.000000000               0.000000000               0.000000000               0.000000000               0.000000000               0.000000000               0.000000000               0.000000000               0.000000000               0.000000000               0.000000000               0.000000000               0.000000000               0.002286806               0.023326758               0.001569991              -0.002058288               0.008461604               0.006403316               0.000000000               0.000000000               0.000000000               0.000000000               0.002042050               0.017984180               0.000700029              -0.001482250               0.006488750               0.005006500               0.000000000               0.000000000               0.000000000               0.000000000               0.002481205               0.013700737              -0.000158674              -0.000782138               0.004827579               0.004045441               0.000000000               0.000000000               0.000000000               0.000000000               0.002197877               0.011284984              -0.000511969              -0.000586418               0.003957096               0.003370679               0.000000000               0.000000000               0.000000000               0.000000000               0.001737047               0.009749649              -0.000647789              -0.000567312               0.003438955               0.002871642               0.000000000               0.000000000               0.000000000               0.000000000               0.001281372               0.008662581              -0.000686507              -0.000602307               0.003088267               0.002485960               0.000000000               0.000000000               0.000000000               0.000000000               0.000894141               0.007814220              -0.000680805              -0.000641473               0.002818538               0.002177065               0.000000000               0.000000000               0.000000000               0.000000000               0.000586789               0.007090451              -0.000653034              -0.000666259               0.002585546               0.001919287               0.000000000               0.000000000               0.000000000               0.000000000               0.000353728               0.006430988              -0.000616326              -0.000671224               0.002367382               0.001696158               0.000000000               0.000000000               0.000000000               0.000000000               0.000181722               0.005803039              -0.000578828              -0.000657233               0.002153404               0.001496172               0.000000000               0.000000000               0.000000000               0.000000000               0.000054287               0.005183586              -0.000542480              -0.000627589               0.001937041               0.001309452               0.000000000               0.000000000               0.000000000               0.000000000              -0.000034143               0.004567137              -0.000508104              -0.000583695               0.001716929               0.001133234               0.000000000               0.000000000               0.000000000               0.000000000              -0.000092655               0.003946390              -0.000466547              -0.000528043               0.001491465               0.000963421               0.000000000               0.000000000               0.000000000               0.000000000              -0.000125145               0.003301956              -0.000403406              -0.000459673               0.001253865               0.000794192               0.000000000               0.000000000               0.000000000               0.000000000              -0.000121155               0.002611864              -0.000311211              -0.000371915               0.000994584               0.000622669               0.000000000               0.000000000               0.000000000               0.000000000              -0.000071651               0.001864044              -0.000179890              -0.000259874               0.000707967               0.000448092               0.000000000               0.000000000               0.000000000               0.000000000              -0.000093377               0.001310362              -0.000112901              -0.000198811               0.000503053               0.000304242               0.000000000               0.000000000               0.000000000               0.000000000               0.002426810               0.021864473               0.002898037              -0.001823002               0.007895752               0.006072750               0.000000000               0.000000000               0.000000000               0.000000000               0.001826892               0.017072182               0.001285573              -0.001448935               0.006173649               0.004724713               0.000000000               0.000000000               0.000000000               0.000000000               0.001890669               0.013353476              -0.000288464              -0.000960181               0.004771174               0.003810993               0.000000000               0.000000000               0.000000000               0.000000000               0.001481249               0.011214987              -0.000909604              -0.000846403               0.004020426               0.003174023               0.000000000               0.000000000               0.000000000               0.000000000               0.001015697               0.009812994              -0.001136813              -0.000845736               0.003552877               0.002707141               0.000000000               0.000000000               0.000000000               0.000000000               0.000614358               0.008786268              -0.001194677              -0.000867897               0.003218026               0.002350128               0.000000000               0.000000000               0.000000000               0.000000000               0.000299782               0.007963981              -0.001174488              -0.000883078               0.002948993               0.002065915               0.000000000               0.000000000               0.000000000               0.000000000               0.000066377               0.007254598              -0.001116918              -0.000881932               0.002712152               0.001830221               0.000000000               0.000000000               0.000000000               0.000000000              -0.000094345               0.006609913              -0.001045632              -0.000861617               0.002490488               0.001628871               0.000000000               0.000000000               0.000000000               0.000000000              -0.000201263               0.005996776              -0.000969777              -0.000825069               0.002273928               0.001448859               0.000000000               0.000000000               0.000000000               0.000000000              -0.000265661               0.005402755              -0.000896744              -0.000774965               0.002059222               0.001284257               0.000000000               0.000000000               0.000000000               0.000000000              -0.000292510               0.004826848              -0.000829578              -0.000713046               0.001846615               0.001133569               0.000000000               0.000000000               0.000000000               0.000000000              -0.000290284               0.004261638              -0.000750474              -0.000641560               0.001634385               0.000992825               0.000000000               0.000000000               0.000000000               0.000000000              -0.000255812               0.003699701              -0.000632810              -0.000558391               0.001419351               0.000860961               0.000000000               0.000000000               0.000000000               0.000000000              -0.000191185               0.003137968              -0.000472333              -0.000463939               0.001200625               0.000736686               0.000000000               0.000000000               0.000000000               0.000000000              -0.000103120               0.002585401              -0.000265848              -0.000361844               0.000982406               0.000620562               0.000000000               0.000000000               0.000000000               0.000000000              -0.000091515               0.002209989              -0.000162088              -0.000310566               0.000840178               0.000529612               0.000000000               0.000000000               0.000000000               0.000000000               0.002528915               0.019647659               0.003809169              -0.001507613               0.007051691               0.005544078               0.000000000               0.000000000               0.000000000               0.000000000               0.001435636               0.015709641               0.001686089              -0.001425339               0.005711607               0.004286269               0.000000000               0.000000000               0.000000000               0.000000000               0.000979722               0.012830360              -0.000353838              -0.001236396               0.004688876               0.003452479               0.000000000               0.000000000               0.000000000               0.000000000               0.000433685               0.011085612              -0.001109855              -0.001223067               0.004102856               0.002879789               0.000000000               0.000000000               0.000000000               0.000000000              -0.000002410               0.009863306              -0.001365398              -0.001233814               0.003699007               0.002465193               0.000000000               0.000000000               0.000000000               0.000000000              -0.000305068               0.008917234              -0.001414501              -0.001229052               0.003382065               0.002153013               0.000000000               0.000000000               0.000000000               0.000000000              -0.000499712               0.008131587              -0.001373028              -0.001203838               0.003111781               0.001907943               0.000000000               0.000000000               0.000000000               0.000000000              -0.000610691               0.007442964              -0.001290607              -0.001159377               0.002867422               0.001708045               0.000000000               0.000000000               0.000000000               0.000000000              -0.000657643               0.006812733              -0.001190681              -0.001098205               0.002636956               0.001538751               0.000000000               0.000000000               0.000000000               0.000000000              -0.000662369               0.006217910              -0.001089415              -0.001025625               0.002414491               0.001388866               0.000000000               0.000000000               0.000000000               0.000000000              -0.000635916               0.005663129              -0.000996251              -0.000946357               0.002203143               0.001256786               0.000000000               0.000000000               0.000000000               0.000000000              -0.000582311               0.005143792              -0.000907533              -0.000861339               0.002001693               0.001140354               0.000000000               0.000000000               0.000000000               0.000000000              -0.000502318               0.004653512              -0.000802523              -0.000770057               0.001807841               0.001037784               0.000000000               0.000000000               0.000000000               0.000000000              -0.000392671               0.004195049              -0.000659243              -0.000671631               0.001622213               0.000950581               0.000000000               0.000000000               0.000000000               0.000000000              -0.000260519               0.003785541              -0.000478997              -0.000570886               0.001452129               0.000881244               0.000000000               0.000000000               0.000000000               0.000000000              -0.000127747               0.003439339              -0.000261843              -0.000477821               0.001305709               0.000827887               0.000000000               0.000000000               0.000000000               0.000000000              -0.000082878               0.003236186              -0.000152215              -0.000435602               0.001223919               0.000788317               0.000000000               0.000000000               0.000000000               0.000000000               0.002457865               0.016943524               0.004222195              -0.001196241               0.006046531               0.004850290               0.000000000               0.000000000               0.000000000               0.000000000               0.000854998               0.014072905               0.001887475              -0.001438487               0.005170417               0.003731930               0.000000000               0.000000000               0.000000000               0.000000000              -0.000136684               0.012192272              -0.000316740              -0.001575287               0.004589145               0.003013859               0.000000000               0.000000000               0.000000000               0.000000000              -0.000759094               0.010878775              -0.001071668              -0.001644503               0.004174390               0.002529887               0.000000000               0.000000000               0.000000000               0.000000000              -0.001105318               0.009848002              -0.001301451              -0.001645491               0.003831131               0.002185641               0.000000000               0.000000000               0.000000000               0.000000000              -0.001261744               0.008992200              -0.001328280              -0.001597176               0.003529762               0.001932586               0.000000000               0.000000000               0.000000000               0.000000000              -0.001296303               0.008243969              -0.001272250              -0.001516606               0.003253497               0.001736891               0.000000000               0.000000000               0.000000000               0.000000000              -0.001253684               0.007570454              -0.001178757              -0.001416435               0.002995604               0.001579169               0.000000000               0.000000000               0.000000000               0.000000000              -0.001163113               0.006949901              -0.001069820              -0.001304902               0.002751578               0.001446676               0.000000000               0.000000000               0.000000000               0.000000000              -0.001048452               0.006382818              -0.000965311              -0.001191019               0.002524591               0.001333572               0.000000000               0.000000000               0.000000000               0.000000000              -0.000921767               0.005869919              -0.000872990              -0.001079400               0.002316420               0.001237020               0.000000000               0.000000000               0.000000000               0.000000000              -0.000779284               0.005410417              -0.000782162              -0.000968531               0.002126298               0.001157766               0.000000000               0.000000000               0.000000000               0.000000000              -0.000618478               0.004999513              -0.000673155              -0.000856866               0.001952110               0.001095243               0.000000000               0.000000000               0.000000000               0.000000000              -0.000445398               0.004643503              -0.000533984              -0.000747460               0.001796972               0.001049512               0.000000000               0.000000000               0.000000000               0.000000000              -0.000277245               0.004360162              -0.000372491              -0.000648985               0.001669701               0.001020716               0.000000000               0.000000000               0.000000000               0.000000000              -0.000128551               0.004166349              -0.000194317              -0.000568999               0.001578435               0.001009437               0.000000000               0.000000000               0.000000000               0.000000000              -0.000066264               0.004081705              -0.000105182              -0.000535061               0.001538908               0.001003848               0.000000000               0.000000000               0.000000000               0.000000000               0.002078403               0.014039321               0.004148643              -0.000975515               0.005004897               0.004029383               0.000000000               0.000000000               0.000000000               0.000000000               0.000088797               0.012347588               0.001918911              -0.001510147               0.004619204               0.003109056               0.000000000               0.000000000               0.000000000               0.000000000              -0.001324331               0.011495315              -0.000154100              -0.001933534               0.004476244               0.002542711               0.000000000               0.000000000               0.000000000               0.000000000              -0.001914659               0.010584679              -0.000805680              -0.002041077               0.004208550               0.002167473               0.000000000               0.000000000               0.000000000               0.000000000              -0.002094900               0.009728614              -0.000985409              -0.002001659               0.003910059               0.001908399               0.000000000               0.000000000               0.000000000               0.000000000              -0.002063554               0.008950007              -0.000995546              -0.001892579               0.003614165               0.001721586               0.000000000               0.000000000               0.000000000               0.000000000              -0.001922361               0.008232574              -0.000941484              -0.001749953               0.003327481               0.001577529               0.000000000               0.000000000               0.000000000               0.000000000              -0.001720616               0.007575065              -0.000860040              -0.001592110               0.003055700               0.001463590               0.000000000               0.000000000               0.000000000               0.000000000              -0.001489555               0.006978697              -0.000768904              -0.001430917               0.002803181               0.001372264               0.000000000               0.000000000               0.000000000               0.000000000              -0.001254676               0.006449799              -0.000685498              -0.001276725               0.002575486               0.001298761               0.000000000               0.000000000               0.000000000               0.000000000              -0.001033917               0.005983730              -0.000614997              -0.001135682               0.002373118               0.001237435               0.000000000               0.000000000               0.000000000               0.000000000              -0.000820195               0.005578340              -0.000543120              -0.001004863               0.002194382               0.001189519               0.000000000               0.000000000               0.000000000               0.000000000              -0.000607010               0.005232569              -0.000451042              -0.000881698               0.002038071               0.001156374               0.000000000               0.000000000               0.000000000               0.000000000              -0.000405613               0.004954018              -0.000338206              -0.000771355               0.001908441               0.001137086               0.000000000               0.000000000               0.000000000               0.000000000              -0.000236150               0.004754155              -0.000220168              -0.000682824               0.001812310               0.001129486               0.000000000               0.000000000               0.000000000               0.000000000              -0.000103111               0.004642523              -0.000106287              -0.000618980               0.001753819               0.001134839               0.000000000               0.000000000               0.000000000               0.000000000              -0.000047239               0.004609570              -0.000052109              -0.000593909               0.001734478               0.001140568               0.000000000               0.000000000               0.000000000               0.000000000               0.001322538               0.011184228               0.003676876              -0.000902078               0.004028730               0.003126653               0.000000000               0.000000000               0.000000000               0.000000000              -0.000825387               0.010680100               0.001839936              -0.001644530               0.004108174               0.002463644               0.000000000               0.000000000               0.000000000               0.000000000              -0.002454839               0.010769622               0.000141449              -0.002266762               0.004345425               0.002078664               0.000000000               0.000000000               0.000000000               0.000000000              -0.002888244               0.010189329              -0.000360334              -0.002356752               0.004181993               0.001825241               0.000000000               0.000000000               0.000000000               0.000000000              -0.002846284               0.009475370              -0.000500516              -0.002251772               0.003909016               0.001657244               0.000000000               0.000000000               0.000000000               0.000000000              -0.002606992               0.008761633              -0.000518627              -0.002072821               0.003611455               0.001538634               0.000000000               0.000000000               0.000000000               0.000000000              -0.002286713               0.008083733              -0.000490544              -0.001867979               0.003317210               0.001449231               0.000000000               0.000000000               0.000000000               0.000000000              -0.001934955               0.007457438              -0.000445939              -0.001657784               0.003038382               0.001380598               0.000000000               0.000000000               0.000000000               0.000000000              -0.001588109               0.006895172              -0.000397046              -0.001457434               0.002784179               0.001326745               0.000000000               0.000000000               0.000000000               0.000000000              -0.001262374               0.006408717              -0.000354025              -0.001274477               0.002561043               0.001286566               0.000000000               0.000000000               0.000000000               0.000000000              -0.000968735               0.005989539              -0.000317666              -0.001111965               0.002367148               0.001255183               0.000000000               0.000000000               0.000000000               0.000000000              -0.000709747               0.005627525              -0.000277295              -0.000969593               0.002199021               0.001229427               0.000000000               0.000000000               0.000000000               0.000000000              -0.000482970               0.005326952              -0.000218448              -0.000846981               0.002057960               0.001210979               0.000000000               0.000000000               0.000000000               0.000000000              -0.000294984               0.005097159              -0.000146390              -0.000747762               0.001948290               0.001200528               0.000000000               0.000000000               0.000000000               0.000000000              -0.000154954               0.004942935              -0.000081540              -0.000675973               0.001872953               0.001196980               0.000000000               0.000000000               0.000000000               0.000000000              -0.000060340               0.004861268              -0.000033160              -0.000630284               0.001830501               0.001200217               0.000000000               0.000000000               0.000000000               0.000000000              -0.000026901               0.004835035              -0.000015529              -0.000614466               0.001816484               0.001202018               0.000000000               0.000000000               0.000000000               0.000000000               0.000230163               0.008560378               0.002922739              -0.000983736               0.003181342               0.002197606               0.000000000               0.000000000               0.000000000               0.000000000              -0.001831876               0.009164734               0.001709664              -0.001832541               0.003665727               0.001833186               0.000000000               0.000000000               0.000000000               0.000000000              -0.003416631               0.010014721               0.000558425              -0.002533070               0.004182564               0.001649493               0.000000000               0.000000000               0.000000000               0.000000000              -0.003584799               0.009688400               0.000189584              -0.002555343               0.004081215               0.001525872               0.000000000               0.000000000               0.000000000               0.000000000              -0.003296969               0.009097560               0.000051417              -0.002373552               0.003823674               0.001450121               0.000000000               0.000000000               0.000000000               0.000000000              -0.002861156               0.008453005              -0.000003815              -0.002129554               0.003527492               0.001397938               0.000000000               0.000000000               0.000000000               0.000000000              -0.002382539               0.007824211              -0.000025131              -0.001871474               0.003231869               0.001360395               0.000000000               0.000000000               0.000000000               0.000000000              -0.001911184               0.007239832              -0.000034397              -0.001621669               0.002953809               0.001332141               0.000000000               0.000000000               0.000000000               0.000000000              -0.001479376               0.006720934              -0.000041274              -0.001394879               0.002705249               0.001310369               0.000000000               0.000000000               0.000000000               0.000000000              -0.001103007               0.006275853              -0.000047711              -0.001198106               0.002491299               0.001293193               0.000000000               0.000000000               0.000000000               0.000000000              -0.000775543               0.005892627              -0.000051064              -0.001027404               0.002306658               0.001279253               0.000000000               0.000000000               0.000000000               0.000000000              -0.000507146               0.005563598              -0.000047405              -0.000885627               0.002149723               0.001264096               0.000000000               0.000000000               0.000000000               0.000000000              -0.000305126               0.005292304              -0.000030129              -0.000775959               0.002022737               0.001246778               0.000000000               0.000000000               0.000000000               0.000000000              -0.000157332               0.005097768              -0.000009461              -0.000696219               0.001931312               0.001235093               0.000000000               0.000000000               0.000000000               0.000000000              -0.000062877               0.004983317               0.000000578              -0.000646492               0.001876586               0.001230095               0.000000000               0.000000000               0.000000000               0.000000000              -0.000016806               0.004929109               0.000001091              -0.000622439               0.001850500               0.001228060               0.000000000               0.000000000               0.000000000               0.000000000              -0.000006878               0.004911960              -0.000001559              -0.000616573               0.001842828               0.001226255               0.000000000               0.000000000               0.000000000               0.000000000              -0.001057706               0.006349425               0.002012500              -0.001190316               0.002513225               0.001322909               0.000000000               0.000000000               0.000000000               0.000000000              -0.002814575               0.007807449               0.001572883              -0.002031392               0.003279587               0.001248195               0.000000000               0.000000000               0.000000000               0.000000000              -0.004170583               0.009249234               0.001058753              -0.002720116               0.003989753               0.001269636               0.000000000               0.000000000               0.000000000               0.000000000              -0.004057659               0.009191640               0.000771233              -0.002670571               0.003954040               0.001283469               0.000000000               0.000000000               0.000000000               0.000000000              -0.003564985               0.008749692               0.000602374              -0.002430575               0.003726726               0.001296152               0.000000000               0.000000000               0.000000000               0.000000000              -0.002971775               0.008198785               0.000493297              -0.002139258               0.003445987               0.001306729               0.000000000               0.000000000               0.000000000               0.000000000              -0.002370891               0.007635687               0.000411215              -0.001843540               0.003159717               0.001316176               0.000000000               0.000000000               0.000000000               0.000000000              -0.001813083               0.007102358               0.000339658              -0.001567697               0.002889995               0.001322298               0.000000000               0.000000000               0.000000000               0.000000000              -0.001324967               0.006630943               0.000278911              -0.001325727               0.002652201               0.001326474               0.000000000               0.000000000               0.000000000               0.000000000              -0.000915375               0.006214954               0.000226543              -0.001120132               0.002445008               0.001324876               0.000000000               0.000000000               0.000000000               0.000000000              -0.000577985               0.005845991               0.000181141              -0.000947491               0.002264475               0.001316984               0.000000000               0.000000000               0.000000000               0.000000000              -0.000315972               0.005523626               0.000144024              -0.000808941               0.002110837               0.001301896               0.000000000               0.000000000               0.000000000               0.000000000              -0.000136474               0.005260520               0.000110457              -0.000708741               0.001989736               0.001280995               0.000000000               0.000000000               0.000000000               0.000000000              -0.000025524               0.005090283               0.000070427              -0.000645855               0.001912029               0.001266174               0.000000000               0.000000000               0.000000000               0.000000000               0.000023755               0.005004184               0.000029491              -0.000616613               0.001873582               0.001256969               0.000000000               0.000000000               0.000000000               0.000000000               0.000025534               0.004969964               0.000002442              -0.000611669               0.001860528               0.001248859               0.000000000               0.000000000               0.000000000               0.000000000               0.000016263               0.004962295              -0.000006716              -0.000614187               0.001858811               0.001244624               0.000000000               0.000000000               0.000000000               0.000000000              -0.002537717               0.004297550               0.001061837              -0.001488834               0.001928780               0.000439946               0.000000000               0.000000000               0.000000000               0.000000000              -0.003633867               0.006221518               0.001423254              -0.002140385               0.002787280               0.000646895               0.000000000               0.000000000               0.000000000               0.000000000              -0.004621934               0.008093758               0.001581285              -0.002744938               0.003612871               0.000867933               0.000000000               0.000000000               0.000000000               0.000000000              -0.004355812               0.008444051               0.001383154              -0.002688929               0.003710965               0.001022036               0.000000000               0.000000000               0.000000000               0.000000000              -0.003780161               0.008283859               0.001182040              -0.002453037               0.003578938               0.001125901               0.000000000               0.000000000               0.000000000               0.000000000              -0.003135233               0.007939201               0.001014894              -0.002168107               0.003369076               0.001200969               0.000000000               0.000000000               0.000000000               0.000000000              -0.002500299               0.007529152               0.000869812              -0.001878752               0.003135943               0.001257191               0.000000000               0.000000000               0.000000000               0.000000000              -0.001910122               0.007107982               0.000740291              -0.001604790               0.002904233               0.001299444               0.000000000               0.000000000               0.000000000               0.000000000              -0.001388664               0.006708126               0.000630093              -0.001359262               0.002689107               0.001329845               0.000000000               0.000000000               0.000000000               0.000000000              -0.000947718               0.006330713               0.000532828              -0.001146730               0.002492460               0.001345730               0.000000000               0.000000000               0.000000000               0.000000000              -0.000587829               0.005978799               0.000442990              -0.000967783               0.002315507               0.001347724               0.000000000               0.000000000               0.000000000               0.000000000              -0.000308937               0.005652179               0.000357470              -0.000822372               0.002158165               0.001335793               0.000000000               0.000000000               0.000000000               0.000000000              -0.000109121               0.005375918               0.000266341              -0.000712908               0.002029591               0.001316682               0.000000000               0.000000000               0.000000000               0.000000000               0.000015617               0.005176395               0.000167991              -0.000641191               0.001939178               0.001297987               0.000000000               0.000000000               0.000000000               0.000000000               0.000070429               0.005053640               0.000081565              -0.000605293               0.001886294               0.001281001               0.000000000               0.000000000               0.000000000               0.000000000               0.000075267               0.005001686               0.000026377              -0.000596984               0.001866207               0.001269222               0.000000000               0.000000000               0.000000000               0.000000000               0.000060121               0.004985736               0.000004657              -0.000600670               0.001862119               0.001261449               0.000000000               0.000000000               0.000000000               0.000000000              -0.004411510               0.002452815               0.000145253              -0.001960915               0.001471233              -0.000489681               0.000000000               0.000000000               0.000000000               0.000000000              -0.004553818               0.004621681               0.001208242              -0.002285387               0.002302340               0.000016953               0.000000000               0.000000000               0.000000000               0.000000000              -0.004978788               0.006717249               0.002000957              -0.002706695               0.003141292               0.000434597               0.000000000               0.000000000               0.000000000               0.000000000              -0.004580667               0.007449165               0.001964836              -0.002648889               0.003365993               0.000717103               0.000000000               0.000000000               0.000000000               0.000000000              -0.003963602               0.007613773               0.001765104              -0.002438067               0.003350588               0.000912521               0.000000000               0.000000000               0.000000000               0.000000000              -0.003305139               0.007525283               0.001554748              -0.002180083               0.003235097               0.001055014               0.000000000               0.000000000               0.000000000               0.000000000              -0.002658562               0.007314030               0.001360323              -0.001911210               0.003075055               0.001163845               0.000000000               0.000000000               0.000000000               0.000000000              -0.002046598               0.007039153               0.001186061              -0.001647365               0.002895482               0.001248118               0.000000000               0.000000000               0.000000000               0.000000000              -0.001494080               0.006733181               0.001034614              -0.001401925               0.002711679               0.001309755               0.000000000               0.000000000               0.000000000               0.000000000              -0.001013629               0.006419665               0.000898160              -0.001182566               0.002534056               0.001351489               0.000000000               0.000000000               0.000000000               0.000000000              -0.000611005               0.006112682               0.000767256              -0.000993210               0.002368610               0.001375400               0.000000000               0.000000000               0.000000000               0.000000000              -0.000290422               0.005812194               0.000638515              -0.000835430               0.002215855               0.001380425               0.000000000               0.000000000               0.000000000               0.000000000              -0.000042680               0.005533116               0.000503870              -0.000707643               0.002080234               0.001372591               0.000000000               0.000000000               0.000000000               0.000000000               0.000132818               0.005297239               0.000355001              -0.000612346               0.001969844               0.001357498               0.000000000               0.000000000               0.000000000               0.000000000               0.000226208               0.005128622               0.000208076              -0.000556248               0.001894940               0.001338691               0.000000000               0.000000000               0.000000000               0.000000000               0.000237681               0.005036884               0.000088249              -0.000540479               0.001859104               0.001318625               0.000000000               0.000000000               0.000000000               0.000000000               0.000207074               0.004999255               0.000031577              -0.000547253               0.001848819               0.001301567               0.000000000               0.000000000               0.000000000               0.000000000              -0.006551810               0.000954949              -0.000647114              -0.002576294               0.001177073              -0.001399221               0.000000000               0.000000000               0.000000000               0.000000000              -0.005619479               0.003108372               0.000919039              -0.002495847               0.001868060              -0.000627787               0.000000000               0.000000000               0.000000000               0.000000000              -0.005266760               0.005140955               0.002206623              -0.002617649               0.002586183              -0.000031466               0.000000000               0.000000000               0.000000000               0.000000000              -0.004651088               0.006137139               0.002371659              -0.002511295               0.002882790               0.000371495               0.000000000               0.000000000               0.000000000               0.000000000              -0.003981110               0.006601854               0.002226226              -0.002318143               0.002973310               0.000655167               0.000000000               0.000000000               0.000000000               0.000000000              -0.003313572               0.006785815               0.002011987              -0.002090812               0.002958852               0.000868041               0.000000000               0.000000000               0.000000000               0.000000000              -0.002667959               0.006798501               0.001796173              -0.001850293               0.002882908               0.001032615               0.000000000               0.000000000               0.000000000               0.000000000              -0.002055816               0.006700410               0.001594973              -0.001608479               0.002769607               0.001161128               0.000000000               0.000000000               0.000000000               0.000000000              -0.001492718               0.006528773               0.001415635              -0.001375863               0.002634857               0.001258994               0.000000000               0.000000000               0.000000000               0.000000000              -0.000986311               0.006320304               0.001253546              -0.001159902               0.002493381               0.001333479               0.000000000               0.000000000               0.000000000               0.000000000              -0.000540697               0.006095905               0.001096093              -0.000964747               0.002353530               0.001388783               0.000000000               0.000000000               0.000000000               0.000000000              -0.000163714               0.005858276               0.000942887              -0.000793676               0.002217298               0.001423622               0.000000000               0.000000000               0.000000000               0.000000000               0.000143452               0.005614251               0.000782507              -0.000647985               0.002087393               0.001439408               0.000000000               0.000000000               0.000000000               0.000000000               0.000379763               0.005383929               0.000593885              -0.000530579               0.001971485               0.001440906               0.000000000               0.000000000               0.000000000               0.000000000               0.000532118               0.005195118               0.000384357              -0.000449845               0.001881637               0.001431792               0.000000000               0.000000000               0.000000000               0.000000000               0.000584237               0.005073445               0.000182908              -0.000415091               0.001829495               0.001414404               0.000000000               0.000000000               0.000000000               0.000000000               0.000562888               0.005020446               0.000081909              -0.000416472               0.001812289               0.001395818               0.000000000               0.000000000               0.000000000               0.000000000              -0.008798844              -0.000119108              -0.001199018              -0.003284675               0.001055182              -0.002229494               0.000000000               0.000000000               0.000000000               0.000000000              -0.006765674               0.001768581               0.000603971              -0.002758197               0.001508915              -0.001249281               0.000000000               0.000000000               0.000000000               0.000000000              -0.005517875               0.003507660               0.002168218              -0.002507656               0.002005091              -0.000502565               0.000000000               0.000000000               0.000000000               0.000000000              -0.004599171               0.004626027               0.002507074              -0.002302938               0.002309638               0.000006700               0.000000000               0.000000000               0.000000000               0.000000000              -0.003836590               0.005325667               0.002448377              -0.002104425               0.002476679               0.000372253               0.000000000               0.000000000               0.000000000               0.000000000              -0.003150876               0.005757831               0.002270307              -0.001901303               0.002553025               0.000651721               0.000000000               0.000000000               0.000000000               0.000000000              -0.002515406               0.005996093               0.002063638              -0.001692786               0.002562939               0.000870153               0.000000000               0.000000000               0.000000000               0.000000000              -0.001922567               0.006092120               0.001857969              -0.001482475               0.002524844               0.001042370               0.000000000               0.000000000               0.000000000               0.000000000              -0.001365357               0.006089319               0.001671324              -0.001273171               0.002454143               0.001180971               0.000000000               0.000000000               0.000000000               0.000000000              -0.000841182               0.006019328               0.001504810              -0.001067857               0.002362375               0.001294517               0.000000000               0.000000000               0.000000000               0.000000000              -0.000355394               0.005900708               0.001344691              -0.000870860               0.002257169               0.001386310               0.000000000               0.000000000               0.000000000               0.000000000               0.000083538               0.005753053               0.001184585              -0.000687804               0.002146933               0.001459129               0.000000000               0.000000000               0.000000000               0.000000000               0.000463951               0.005579828               0.001013215              -0.000523496               0.002034423               0.001510927               0.000000000               0.000000000               0.000000000               0.000000000               0.000784829               0.005397339               0.000808281              -0.000380356               0.001925880               0.001545524               0.000000000               0.000000000               0.000000000               0.000000000               0.001041355               0.005230675               0.000562567              -0.000263326               0.001831316               0.001567990               0.000000000               0.000000000               0.000000000               0.000000000               0.001203697               0.005102203               0.000289009              -0.000186389               0.001762847               0.001576458               0.000000000               0.000000000               0.000000000               0.000000000               0.001252225               0.005047010               0.000146728              -0.000161291               0.001736084               0.001574792               0.000000000               0.000000000               0.000000000               0.000000000              -0.010944983              -0.000776314              -0.001405308              -0.004007327               0.001076997              -0.002930330               0.000000000               0.000000000               0.000000000               0.000000000              -0.007892510               0.000690158               0.000325282              -0.003045958               0.001245363              -0.001800595               0.000000000               0.000000000               0.000000000               0.000000000              -0.005739923               0.001983686               0.001884463              -0.002400429               0.001461361              -0.000939068               0.000000000               0.000000000               0.000000000               0.000000000              -0.004468557               0.003092748               0.002311134              -0.002062299               0.001718336              -0.000343962               0.000000000               0.000000000               0.000000000               0.000000000              -0.003573759               0.003938372               0.002333670              -0.001832453               0.001923594               0.000091141               0.000000000               0.000000000               0.000000000               0.000000000              -0.002854450               0.004564315               0.002212007              -0.001640955               0.002068407               0.000427452               0.000000000               0.000000000               0.000000000               0.000000000              -0.002229358               0.005001701               0.002039155              -0.001461219               0.002154289               0.000693070               0.000000000               0.000000000               0.000000000               0.000000000              -0.001655342               0.005283867               0.001855820              -0.001281234               0.002188349               0.000907115               0.000000000               0.000000000               0.000000000               0.000000000              -0.001107730               0.005452268               0.001689317              -0.001096930               0.002183048               0.001086117               0.000000000               0.000000000               0.000000000               0.000000000              -0.000575639               0.005531048               0.001541160              -0.000907244               0.002146078               0.001238834               0.000000000               0.000000000               0.000000000               0.000000000              -0.000061779               0.005535009               0.001397464              -0.000715042               0.002083332               0.001368290               0.000000000               0.000000000               0.000000000               0.000000000               0.000428275               0.005492052               0.001251659              -0.000525903               0.002005966               0.001480064               0.000000000               0.000000000               0.000000000               0.000000000               0.000891637               0.005421203               0.001092541              -0.000343286               0.001921478               0.001578192               0.000000000               0.000000000               0.000000000               0.000000000               0.001325006               0.005327644               0.000902241              -0.000169078               0.001832223               0.001663144               0.000000000               0.000000000               0.000000000               0.000000000               0.001729121               0.005222392               0.000660878              -0.000004379               0.001742240               0.001737860               0.000000000               0.000000000               0.000000000               0.000000000               0.002082087               0.005113792               0.000357054               0.000141557               0.001657395               0.001798952               0.000000000               0.000000000               0.000000000               0.000000000               0.002283452               0.005074528               0.000198368               0.000221976               0.001617500               0.001839477               0.000000000               0.000000000               0.000000000               0.000000000              -0.012742268              -0.001114791              -0.001224783              -0.004638999               0.001174728              -0.003464271               0.000000000               0.000000000               0.000000000               0.000000000              -0.008859097              -0.000087254               0.000131293              -0.003311252               0.001074659              -0.002236594               0.000000000               0.000000000               0.000000000               0.000000000              -0.005923564               0.000737070               0.001385476              -0.002313468               0.001016838              -0.001296629               0.000000000               0.000000000               0.000000000               0.000000000              -0.004308135               0.001753716               0.001777707              -0.001834763               0.001196151              -0.000638612               0.000000000               0.000000000               0.000000000               0.000000000              -0.003268496               0.002667086               0.001839643              -0.001559069               0.001408708              -0.000150361               0.000000000               0.000000000               0.000000000               0.000000000              -0.002504959               0.003420473               0.001771529              -0.001366916               0.001595784               0.000228868               0.000000000               0.000000000               0.000000000               0.000000000              -0.001879221               0.004003350               0.001650826              -0.001205124               0.001736144               0.000531020               0.000000000               0.000000000               0.000000000               0.000000000              -0.001319952               0.004434430               0.001515879              -0.001049284               0.001827889               0.000778606               0.000000000               0.000000000               0.000000000               0.000000000              -0.000784311               0.004747686               0.001391074              -0.000887576               0.001878404               0.000990828               0.000000000               0.000000000               0.000000000               0.000000000              -0.000259902               0.004965249               0.001278423              -0.000718118               0.001894439               0.001176321               0.000000000               0.000000000               0.000000000               0.000000000               0.000263934               0.005104382               0.001167680              -0.000539072               0.001881134               0.001342062               0.000000000               0.000000000               0.000000000               0.000000000               0.000792064               0.005179830               0.001056360              -0.000350454               0.001843411               0.001492956               0.000000000               0.000000000               0.000000000               0.000000000               0.001328973               0.005212504               0.000936495              -0.000153198               0.001788550               0.001635352               0.000000000               0.000000000               0.000000000               0.000000000               0.001880996               0.005211521               0.000792057               0.000053932               0.001719179               0.001773111               0.000000000               0.000000000               0.000000000               0.000000000               0.002449788               0.005176553               0.000602585               0.000271598               0.001634968               0.001906566               0.000000000               0.000000000               0.000000000               0.000000000               0.003034496               0.005103144               0.000337954               0.000500038               0.001534352               0.002034390               0.000000000               0.000000000               0.000000000               0.000000000               0.003444895               0.005097707               0.000198659               0.000654616               0.001481014               0.002135629               0.000000000               0.000000000               0.000000000               0.000000000              -0.013941475              -0.001253237              -0.000710177              -0.005071395               0.001272711              -0.003798684               0.000000000               0.000000000               0.000000000               0.000000000              -0.009518445              -0.000551698               0.000033158              -0.003500452               0.000982912              -0.002517541               0.000000000               0.000000000               0.000000000               0.000000000              -0.006050929              -0.000081733               0.000730656              -0.002258880               0.000725711              -0.001533169               0.000000000               0.000000000               0.000000000               0.000000000              -0.004181166               0.000831905               0.000965386              -0.001671924               0.000834604              -0.000837320               0.000000000               0.000000000               0.000000000               0.000000000              -0.003028491               0.001763663               0.001014336              -0.001356140               0.001039927              -0.000316213               0.000000000               0.000000000               0.000000000               0.000000000              -0.002223283               0.002587111               0.000986545              -0.001157117               0.001248067               0.000090950               0.000000000               0.000000000               0.000000000               0.000000000              -0.001591074               0.003260407               0.000925495              -0.001004201               0.001421525               0.000417323               0.000000000               0.000000000               0.000000000               0.000000000              -0.001040451               0.003787477               0.000856300              -0.000863602               0.001550347               0.000686745               0.000000000               0.000000000               0.000000000               0.000000000              -0.000522611               0.004192684               0.000791269              -0.000720063               0.001637568               0.000917505               0.000000000               0.000000000               0.000000000               0.000000000              -0.000011446               0.004508406               0.000729091              -0.000567842               0.001692067               0.001124226               0.000000000               0.000000000               0.000000000               0.000000000               0.000513218               0.004753589               0.000667407              -0.000401741               0.001718427               0.001316686               0.000000000               0.000000000               0.000000000               0.000000000               0.001066695               0.004931142               0.000605420              -0.000216382               0.001715825               0.001499443               0.000000000               0.000000000               0.000000000               0.000000000               0.001657779               0.005049315               0.000542391              -0.000009498               0.001686254               0.001676756               0.000000000               0.000000000               0.000000000               0.000000000               0.002297388               0.005113209               0.000466342               0.000222367               0.001630263               0.001852631               0.000000000               0.000000000               0.000000000               0.000000000               0.002998084               0.005125099               0.000359886               0.000483639               0.001547136               0.002030775               0.000000000               0.000000000               0.000000000               0.000000000               0.003779291               0.005078272               0.000204996               0.000782442               0.001431926               0.002214369               0.000000000               0.000000000               0.000000000               0.000000000               0.004375552               0.005103351               0.000125468               0.001002903               0.001366799               0.002369702               0.000000000               0.000000000               0.000000000               0.000000000               0.000000000               0.000000000               0.000000000               0.000000000               0.000000000               0.000000000               0.000000000               0.000000000               0.000000000               0.000000000               0.000000000               0.000000000               0.000000000               0.000000000               0.000000000               0.000000000               0.000000000               0.000000000               0.000000000               0.000000000               0.000000000               0.000000000               0.000000000               0.000000000               0.000000000               0.000000000               0.000000000               0.000000000               0.000000000               0.000000000               0.000000000               0.000000000               0.000000000               0.000000000               0.000000000               0.000000000               0.000000000               0.000000000               0.000000000               0.000000000               0.000000000               0.000000000               0.000000000               0.000000000               0.000000000               0.000000000               0.000000000               0.000000000               0.000000000               0.000000000               0.000000000               0.000000000               0.000000000               0.000000000               0.000000000               0.000000000               0.000000000               0.000000000               0.000000000               0.000000000               0.000000000               0.000000000               0.000000000               0.000000000               0.000000000               0.000000000               0.000000000               0.000000000               0.000000000               0.000000000               0.000000000               0.000000000               0.000000000               0.000000000               0.000000000               0.000000000               0.000000000               0.000000000               0.000000000               0.000000000               0.000000000               0.000000000               0.000000000               0.000000000               0.000000000               0.000000000               0.000000000               0.000000000               0.000000000               0.000000000               0.000000000               0.000000000               0.000000000               0.000000000               0.000000000               0.000000000               0.000000000               0.000000000               0.000000000               0.000000000               0.000000000               0.000000000               0.000000000               0.000000000               0.000000000               0.000000000               0.000000000               0.000000000               0.000000000               0.000000000               0.000000000               0.000000000               0.000000000               0.000000000               0.000000000               0.000000000               0.000000000               0.000000000               0.000000000               0.000000000               0.000000000               0.000000000               0.000000000               0.000000000               0.000000000               0.000000000               0.000000000               0.000000000               0.000000000               0.000000000               0.000000000               0.000000000               0.000000000               0.000000000               0.000000000               0.000000000               0.000000000               0.000000000               0.000000000               0.000000000               0.000000000               0.000000000               0.000000000               0.000000000               0.000000000               0.000000000               0.000000000               0.000000000               0.000000000               0.000000000               0.000000000               0.000000000               0.000000000               0.000000000               0.000000000               0.000000000               0.000000000               0.000000000               0.000000000               0.000000000               0.000000000               0.000000000               0.000000000               0.000000000               0.000000000               0.000000000               0.000000000               0.000000000               0.000000000               0.000000000 </DataArray>
</PointData>
</Piece>
</UnstructuredGrid> </VTKFile>
