<?xml version="1.0"?>
<VTKFile type="UnstructuredGrid" version="0.1">
<UnstructuredGrid>
<Piece NumberOfPoints="      1156" NumberOfCells="      1024">
<Points>
<DataArray type="Float64"                                    Name="coordinates"                                                      NumberOfComponents=" 3" format="ascii">
              0.133000000               0.000000000               0.000000000               0.155937500               0.000000000               0.000000000               0.178875000               0.000000000               0.000000000               0.201812500               0.000000000               0.000000000               0.224750000               0.000000000               0.000000000               0.247687500               0.000000000               0.000000000               0.270625000               0.000000000               0.000000000               0.293562500               0.000000000               0.000000000               0.316500000               0.000000000               0.000000000               0.339437500               0.000000000               0.000000000               0.362375000               0.000000000               0.000000000               0.385312500               0.000000000               0.000000000               0.408250000               0.000000000               0.000000000               0.431187500               0.000000000               0.000000000               0.454125000               0.000000000               0.000000000               0.477062500               0.000000000               0.000000000               0.500000000               0.000000000               0.000000000               0.132359569               0.013036280               0.000000000               0.155337096               0.016127762               0.000000000               0.178314623               0.019219245               0.000000000               0.201292150               0.022310727               0.000000000               0.224269676               0.025402210               0.000000000               0.247247203               0.028493692               0.000000000               0.270224730               0.031585175               0.000000000               0.293202257               0.034676657               0.000000000               0.316179784               0.037768140               0.000000000               0.339157311               0.040859622               0.000000000               0.362134838               0.043951105               0.000000000               0.385112365               0.047042587               0.000000000               0.408089892               0.050134070               0.000000000               0.431067419               0.053225552               0.000000000               0.454044946               0.056317035               0.000000000               0.477022473               0.059408517               0.000000000               0.500000000               0.062500000               0.000000000               0.130444442               0.025947013               0.000000000               0.153541665               0.032137825               0.000000000               0.176638887               0.038328636               0.000000000               0.199736109               0.044519448               0.000000000               0.222833332               0.050710260               0.000000000               0.245930554               0.056901071               0.000000000               0.269027776               0.063091883               0.000000000               0.292124999               0.069282695               0.000000000               0.315222221               0.075473506               0.000000000               0.338319444               0.081664318               0.000000000               0.361416666               0.087855130               0.000000000               0.384513888               0.094045942               0.000000000               0.407611111               0.100236753               0.000000000               0.430708333               0.106427565               0.000000000               0.453805555               0.112618377               0.000000000               0.476902778               0.118809188               0.000000000               0.500000000               0.125000000               0.000000000               0.127273065               0.038607862               0.000000000               0.150568498               0.047913621               0.000000000               0.173863932               0.057219379               0.000000000               0.197159365               0.066525138               0.000000000               0.220454798               0.075830897               0.000000000               0.243750232               0.085136655               0.000000000               0.267045665               0.094442414               0.000000000               0.290341099               0.103748172               0.000000000               0.313636532               0.113053931               0.000000000               0.336931966               0.122359690               0.000000000               0.360227399               0.131665448               0.000000000               0.383522833               0.140971207               0.000000000               0.406818266               0.150276966               0.000000000               0.430113700               0.159582724               0.000000000               0.453409133               0.168888483               0.000000000               0.476704567               0.178194241               0.000000000               0.500000000               0.187500000               0.000000000               0.122875978               0.050896897               0.000000000               0.146446229               0.063340840               0.000000000               0.170016481               0.075784784               0.000000000               0.193586732               0.088228728               0.000000000               0.217156983               0.100672672               0.000000000               0.240727235               0.113116616               0.000000000               0.264297486               0.125560560               0.000000000               0.287867738               0.138004504               0.000000000               0.311437989               0.150448448               0.000000000               0.335008240               0.162892392               0.000000000               0.358578492               0.175336336               0.000000000               0.382148743               0.187780280               0.000000000               0.405718994               0.200224224               0.000000000               0.429289246               0.212668168               0.000000000               0.452859497               0.225112112               0.000000000               0.476429749               0.237556056               0.000000000               0.500000000               0.250000000               0.000000000               0.117295528               0.062695766               0.000000000               0.141214558               0.078308531               0.000000000               0.165133587               0.093921295               0.000000000               0.189052617               0.109534060               0.000000000               0.212971646               0.125146824               0.000000000               0.236890676               0.140759589               0.000000000               0.260809705               0.156372354               0.000000000               0.284728735               0.171985118               0.000000000               0.308647764               0.187597883               0.000000000               0.332566794               0.203210648               0.000000000               0.356485823               0.218823412               0.000000000               0.380404853               0.234436177               0.000000000               0.404323882               0.250048941               0.000000000               0.428242912               0.265661706               0.000000000               0.452161941               0.281274471               0.000000000               0.476080971               0.296887235               0.000000000               0.500000000               0.312500000               0.000000000               0.110585458               0.073890841               0.000000000               0.134923867               0.092710163               0.000000000               0.159262276               0.111529486               0.000000000               0.183600685               0.130348808               0.000000000               0.207939094               0.149168131               0.000000000               0.232277503               0.167987453               0.000000000               0.256615912               0.186806776               0.000000000               0.280954320               0.205626098               0.000000000               0.305292729               0.224445420               0.000000000               0.329631138               0.243264743               0.000000000               0.353969547               0.262084065               0.000000000               0.378307956               0.280903388               0.000000000               0.402646365               0.299722710               0.000000000               0.426984773               0.318542033               0.000000000               0.451323182               0.337361355               0.000000000               0.475661591               0.356180678               0.000000000               0.500000000               0.375000000               0.000000000               0.102810390               0.084374307               0.000000000               0.127634741               0.106444663               0.000000000               0.152459092               0.128515018               0.000000000               0.177283442               0.150585374               0.000000000               0.202107793               0.172655730               0.000000000               0.226932143               0.194726086               0.000000000               0.251756494               0.216796442               0.000000000               0.276580845               0.238866798               0.000000000               0.301405195               0.260937153               0.000000000               0.326229546               0.283007509               0.000000000               0.351053896               0.305077865               0.000000000               0.375878247               0.327148221               0.000000000               0.400702598               0.349218577               0.000000000               0.425526948               0.371288933               0.000000000               0.450351299               0.393359288               0.000000000               0.475175649               0.415429644               0.000000000               0.500000000               0.437500000               0.000000000               0.094045202               0.094045202               0.000000000               0.119417377               0.119417377               0.000000000               0.144789552               0.144789552               0.000000000               0.170161727               0.170161727               0.000000000               0.195533901               0.195533901               0.000000000               0.220906076               0.220906076               0.000000000               0.246278251               0.246278251               0.000000000               0.271650426               0.271650426               0.000000000               0.297022601               0.297022601               0.000000000               0.322394776               0.322394776               0.000000000               0.347766951               0.347766951               0.000000000               0.373139126               0.373139126               0.000000000               0.398511300               0.398511300               0.000000000               0.423883475               0.423883475               0.000000000               0.449255650               0.449255650               0.000000000               0.474627825               0.474627825               0.000000000               0.500000000               0.500000000               0.000000000               0.084374307               0.102810390               0.000000000               0.106444663               0.127634741               0.000000000               0.128515018               0.152459092               0.000000000               0.150585374               0.177283442               0.000000000               0.172655730               0.202107793               0.000000000               0.194726086               0.226932143               0.000000000               0.216796442               0.251756494               0.000000000               0.238866798               0.276580845               0.000000000               0.260937153               0.301405195               0.000000000               0.283007509               0.326229546               0.000000000               0.305077865               0.351053896               0.000000000               0.327148221               0.375878247               0.000000000               0.349218577               0.400702598               0.000000000               0.371288933               0.425526948               0.000000000               0.393359288               0.450351299               0.000000000               0.415429644               0.475175649               0.000000000               0.437500000               0.500000000               0.000000000               0.073890841               0.110585458               0.000000000               0.092710163               0.134923867               0.000000000               0.111529486               0.159262276               0.000000000               0.130348808               0.183600685               0.000000000               0.149168131               0.207939094               0.000000000               0.167987453               0.232277503               0.000000000               0.186806776               0.256615912               0.000000000               0.205626098               0.280954320               0.000000000               0.224445420               0.305292729               0.000000000               0.243264743               0.329631138               0.000000000               0.262084065               0.353969547               0.000000000               0.280903388               0.378307956               0.000000000               0.299722710               0.402646365               0.000000000               0.318542033               0.426984773               0.000000000               0.337361355               0.451323182               0.000000000               0.356180678               0.475661591               0.000000000               0.375000000               0.500000000               0.000000000               0.062695766               0.117295528               0.000000000               0.078308531               0.141214558               0.000000000               0.093921295               0.165133587               0.000000000               0.109534060               0.189052617               0.000000000               0.125146824               0.212971646               0.000000000               0.140759589               0.236890676               0.000000000               0.156372354               0.260809705               0.000000000               0.171985118               0.284728735               0.000000000               0.187597883               0.308647764               0.000000000               0.203210648               0.332566794               0.000000000               0.218823412               0.356485823               0.000000000               0.234436177               0.380404853               0.000000000               0.250048941               0.404323882               0.000000000               0.265661706               0.428242912               0.000000000               0.281274471               0.452161941               0.000000000               0.296887235               0.476080971               0.000000000               0.312500000               0.500000000               0.000000000               0.050896897               0.122875978               0.000000000               0.063340840               0.146446229               0.000000000               0.075784784               0.170016481               0.000000000               0.088228728               0.193586732               0.000000000               0.100672672               0.217156983               0.000000000               0.113116616               0.240727235               0.000000000               0.125560560               0.264297486               0.000000000               0.138004504               0.287867738               0.000000000               0.150448448               0.311437989               0.000000000               0.162892392               0.335008240               0.000000000               0.175336336               0.358578492               0.000000000               0.187780280               0.382148743               0.000000000               0.200224224               0.405718994               0.000000000               0.212668168               0.429289246               0.000000000               0.225112112               0.452859497               0.000000000               0.237556056               0.476429749               0.000000000               0.250000000               0.500000000               0.000000000               0.038607862               0.127273065               0.000000000               0.047913621               0.150568498               0.000000000               0.057219379               0.173863932               0.000000000               0.066525138               0.197159365               0.000000000               0.075830897               0.220454798               0.000000000               0.085136655               0.243750232               0.000000000               0.094442414               0.267045665               0.000000000               0.103748172               0.290341099               0.000000000               0.113053931               0.313636532               0.000000000               0.122359690               0.336931966               0.000000000               0.131665448               0.360227399               0.000000000               0.140971207               0.383522833               0.000000000               0.150276966               0.406818266               0.000000000               0.159582724               0.430113700               0.000000000               0.168888483               0.453409133               0.000000000               0.178194241               0.476704567               0.000000000               0.187500000               0.500000000               0.000000000               0.025947013               0.130444442               0.000000000               0.032137825               0.153541665               0.000000000               0.038328636               0.176638887               0.000000000               0.044519448               0.199736109               0.000000000               0.050710260               0.222833332               0.000000000               0.056901071               0.245930554               0.000000000               0.063091883               0.269027776               0.000000000               0.069282695               0.292124999               0.000000000               0.075473506               0.315222221               0.000000000               0.081664318               0.338319444               0.000000000               0.087855130               0.361416666               0.000000000               0.094045942               0.384513888               0.000000000               0.100236753               0.407611111               0.000000000               0.106427565               0.430708333               0.000000000               0.112618377               0.453805555               0.000000000               0.118809188               0.476902778               0.000000000               0.125000000               0.500000000               0.000000000               0.013036280               0.132359569               0.000000000               0.016127762               0.155337096               0.000000000               0.019219245               0.178314623               0.000000000               0.022310727               0.201292150               0.000000000               0.025402210               0.224269676               0.000000000               0.028493692               0.247247203               0.000000000               0.031585175               0.270224730               0.000000000               0.034676657               0.293202257               0.000000000               0.037768140               0.316179784               0.000000000               0.040859622               0.339157311               0.000000000               0.043951105               0.362134838               0.000000000               0.047042587               0.385112365               0.000000000               0.050134070               0.408089892               0.000000000               0.053225552               0.431067419               0.000000000               0.056317035               0.454044946               0.000000000               0.059408517               0.477022473               0.000000000               0.062500000               0.500000000               0.000000000               0.000000000               0.133000000               0.000000000               0.000000000               0.155937500               0.000000000               0.000000000               0.178875000               0.000000000               0.000000000               0.201812500               0.000000000               0.000000000               0.224750000               0.000000000               0.000000000               0.247687500               0.000000000               0.000000000               0.270625000               0.000000000               0.000000000               0.293562500               0.000000000               0.000000000               0.316500000               0.000000000               0.000000000               0.339437500               0.000000000               0.000000000               0.362375000               0.000000000               0.000000000               0.385312500               0.000000000               0.000000000               0.408250000               0.000000000               0.000000000               0.431187500               0.000000000               0.000000000               0.454125000               0.000000000               0.000000000               0.477062500               0.000000000               0.000000000               0.500000000               0.000000000               0.133000000               0.000000000               0.000000000               0.155937500               0.000000000               0.000000000               0.178875000               0.000000000               0.000000000               0.201812500               0.000000000               0.000000000               0.224750000               0.000000000               0.000000000               0.247687500               0.000000000               0.000000000               0.270625000               0.000000000               0.000000000               0.293562500               0.000000000               0.000000000               0.316500000               0.000000000               0.000000000               0.339437500               0.000000000               0.000000000               0.362375000               0.000000000               0.000000000               0.385312500               0.000000000               0.000000000               0.408250000               0.000000000               0.000000000               0.431187500               0.000000000               0.000000000               0.454125000               0.000000000               0.000000000               0.477062500               0.000000000               0.000000000               0.500000000               0.000000000               0.000000000               0.132359569              -0.013036280               0.000000000               0.155337096              -0.016127762               0.000000000               0.178314623              -0.019219245               0.000000000               0.201292150              -0.022310727               0.000000000               0.224269676              -0.025402210               0.000000000               0.247247203              -0.028493692               0.000000000               0.270224730              -0.031585175               0.000000000               0.293202257              -0.034676657               0.000000000               0.316179784              -0.037768140               0.000000000               0.339157311              -0.040859622               0.000000000               0.362134838              -0.043951105               0.000000000               0.385112365              -0.047042587               0.000000000               0.408089892              -0.050134070               0.000000000               0.431067419              -0.053225552               0.000000000               0.454044946              -0.056317035               0.000000000               0.477022473              -0.059408517               0.000000000               0.500000000              -0.062500000               0.000000000               0.130444442              -0.025947013               0.000000000               0.153541665              -0.032137825               0.000000000               0.176638887              -0.038328636               0.000000000               0.199736109              -0.044519448               0.000000000               0.222833332              -0.050710260               0.000000000               0.245930554              -0.056901071               0.000000000               0.269027776              -0.063091883               0.000000000               0.292124999              -0.069282695               0.000000000               0.315222221              -0.075473506               0.000000000               0.338319444              -0.081664318               0.000000000               0.361416666              -0.087855130               0.000000000               0.384513888              -0.094045942               0.000000000               0.407611111              -0.100236753               0.000000000               0.430708333              -0.106427565               0.000000000               0.453805555              -0.112618377               0.000000000               0.476902778              -0.118809188               0.000000000               0.500000000              -0.125000000               0.000000000               0.127273065              -0.038607862               0.000000000               0.150568498              -0.047913621               0.000000000               0.173863932              -0.057219379               0.000000000               0.197159365              -0.066525138               0.000000000               0.220454798              -0.075830897               0.000000000               0.243750232              -0.085136655               0.000000000               0.267045665              -0.094442414               0.000000000               0.290341099              -0.103748172               0.000000000               0.313636532              -0.113053931               0.000000000               0.336931966              -0.122359690               0.000000000               0.360227399              -0.131665448               0.000000000               0.383522833              -0.140971207               0.000000000               0.406818266              -0.150276966               0.000000000               0.430113700              -0.159582724               0.000000000               0.453409133              -0.168888483               0.000000000               0.476704567              -0.178194241               0.000000000               0.500000000              -0.187500000               0.000000000               0.122875978              -0.050896897               0.000000000               0.146446229              -0.063340840               0.000000000               0.170016481              -0.075784784               0.000000000               0.193586732              -0.088228728               0.000000000               0.217156983              -0.100672672               0.000000000               0.240727235              -0.113116616               0.000000000               0.264297486              -0.125560560               0.000000000               0.287867738              -0.138004504               0.000000000               0.311437989              -0.150448448               0.000000000               0.335008240              -0.162892392               0.000000000               0.358578492              -0.175336336               0.000000000               0.382148743              -0.187780280               0.000000000               0.405718994              -0.200224224               0.000000000               0.429289246              -0.212668168               0.000000000               0.452859497              -0.225112112               0.000000000               0.476429749              -0.237556056               0.000000000               0.500000000              -0.250000000               0.000000000               0.117295528              -0.062695766               0.000000000               0.141214558              -0.078308531               0.000000000               0.165133587              -0.093921295               0.000000000               0.189052617              -0.109534060               0.000000000               0.212971646              -0.125146824               0.000000000               0.236890676              -0.140759589               0.000000000               0.260809705              -0.156372354               0.000000000               0.284728735              -0.171985118               0.000000000               0.308647764              -0.187597883               0.000000000               0.332566794              -0.203210648               0.000000000               0.356485823              -0.218823412               0.000000000               0.380404853              -0.234436177               0.000000000               0.404323882              -0.250048941               0.000000000               0.428242912              -0.265661706               0.000000000               0.452161941              -0.281274471               0.000000000               0.476080971              -0.296887235               0.000000000               0.500000000              -0.312500000               0.000000000               0.110585458              -0.073890841               0.000000000               0.134923867              -0.092710163               0.000000000               0.159262276              -0.111529486               0.000000000               0.183600685              -0.130348808               0.000000000               0.207939094              -0.149168131               0.000000000               0.232277503              -0.167987453               0.000000000               0.256615912              -0.186806776               0.000000000               0.280954320              -0.205626098               0.000000000               0.305292729              -0.224445420               0.000000000               0.329631138              -0.243264743               0.000000000               0.353969547              -0.262084065               0.000000000               0.378307956              -0.280903388               0.000000000               0.402646365              -0.299722710               0.000000000               0.426984773              -0.318542033               0.000000000               0.451323182              -0.337361355               0.000000000               0.475661591              -0.356180678               0.000000000               0.500000000              -0.375000000               0.000000000               0.102810390              -0.084374307               0.000000000               0.127634741              -0.106444663               0.000000000               0.152459092              -0.128515018               0.000000000               0.177283442              -0.150585374               0.000000000               0.202107793              -0.172655730               0.000000000               0.226932143              -0.194726086               0.000000000               0.251756494              -0.216796442               0.000000000               0.276580845              -0.238866798               0.000000000               0.301405195              -0.260937153               0.000000000               0.326229546              -0.283007509               0.000000000               0.351053896              -0.305077865               0.000000000               0.375878247              -0.327148221               0.000000000               0.400702598              -0.349218577               0.000000000               0.425526948              -0.371288933               0.000000000               0.450351299              -0.393359288               0.000000000               0.475175649              -0.415429644               0.000000000               0.500000000              -0.437500000               0.000000000               0.094045202              -0.094045202               0.000000000               0.119417377              -0.119417377               0.000000000               0.144789552              -0.144789552               0.000000000               0.170161727              -0.170161727               0.000000000               0.195533901              -0.195533901               0.000000000               0.220906076              -0.220906076               0.000000000               0.246278251              -0.246278251               0.000000000               0.271650426              -0.271650426               0.000000000               0.297022601              -0.297022601               0.000000000               0.322394776              -0.322394776               0.000000000               0.347766951              -0.347766951               0.000000000               0.373139126              -0.373139126               0.000000000               0.398511300              -0.398511300               0.000000000               0.423883475              -0.423883475               0.000000000               0.449255650              -0.449255650               0.000000000               0.474627825              -0.474627825               0.000000000               0.500000000              -0.500000000               0.000000000               0.084374307              -0.102810390               0.000000000               0.106444663              -0.127634741               0.000000000               0.128515018              -0.152459092               0.000000000               0.150585374              -0.177283442               0.000000000               0.172655730              -0.202107793               0.000000000               0.194726086              -0.226932143               0.000000000               0.216796442              -0.251756494               0.000000000               0.238866798              -0.276580845               0.000000000               0.260937153              -0.301405195               0.000000000               0.283007509              -0.326229546               0.000000000               0.305077865              -0.351053896               0.000000000               0.327148221              -0.375878247               0.000000000               0.349218577              -0.400702598               0.000000000               0.371288933              -0.425526948               0.000000000               0.393359288              -0.450351299               0.000000000               0.415429644              -0.475175649               0.000000000               0.437500000              -0.500000000               0.000000000               0.073890841              -0.110585458               0.000000000               0.092710163              -0.134923867               0.000000000               0.111529486              -0.159262276               0.000000000               0.130348808              -0.183600685               0.000000000               0.149168131              -0.207939094               0.000000000               0.167987453              -0.232277503               0.000000000               0.186806776              -0.256615912               0.000000000               0.205626098              -0.280954320               0.000000000               0.224445420              -0.305292729               0.000000000               0.243264743              -0.329631138               0.000000000               0.262084065              -0.353969547               0.000000000               0.280903388              -0.378307956               0.000000000               0.299722710              -0.402646365               0.000000000               0.318542033              -0.426984773               0.000000000               0.337361355              -0.451323182               0.000000000               0.356180678              -0.475661591               0.000000000               0.375000000              -0.500000000               0.000000000               0.062695766              -0.117295528               0.000000000               0.078308531              -0.141214558               0.000000000               0.093921295              -0.165133587               0.000000000               0.109534060              -0.189052617               0.000000000               0.125146824              -0.212971646               0.000000000               0.140759589              -0.236890676               0.000000000               0.156372354              -0.260809705               0.000000000               0.171985118              -0.284728735               0.000000000               0.187597883              -0.308647764               0.000000000               0.203210648              -0.332566794               0.000000000               0.218823412              -0.356485823               0.000000000               0.234436177              -0.380404853               0.000000000               0.250048941              -0.404323882               0.000000000               0.265661706              -0.428242912               0.000000000               0.281274471              -0.452161941               0.000000000               0.296887235              -0.476080971               0.000000000               0.312500000              -0.500000000               0.000000000               0.050896897              -0.122875978               0.000000000               0.063340840              -0.146446229               0.000000000               0.075784784              -0.170016481               0.000000000               0.088228728              -0.193586732               0.000000000               0.100672672              -0.217156983               0.000000000               0.113116616              -0.240727235               0.000000000               0.125560560              -0.264297486               0.000000000               0.138004504              -0.287867738               0.000000000               0.150448448              -0.311437989               0.000000000               0.162892392              -0.335008240               0.000000000               0.175336336              -0.358578492               0.000000000               0.187780280              -0.382148743               0.000000000               0.200224224              -0.405718994               0.000000000               0.212668168              -0.429289246               0.000000000               0.225112112              -0.452859497               0.000000000               0.237556056              -0.476429749               0.000000000               0.250000000              -0.500000000               0.000000000               0.038607862              -0.127273065               0.000000000               0.047913621              -0.150568498               0.000000000               0.057219379              -0.173863932               0.000000000               0.066525138              -0.197159365               0.000000000               0.075830897              -0.220454798               0.000000000               0.085136655              -0.243750232               0.000000000               0.094442414              -0.267045665               0.000000000               0.103748172              -0.290341099               0.000000000               0.113053931              -0.313636532               0.000000000               0.122359690              -0.336931966               0.000000000               0.131665448              -0.360227399               0.000000000               0.140971207              -0.383522833               0.000000000               0.150276966              -0.406818266               0.000000000               0.159582724              -0.430113700               0.000000000               0.168888483              -0.453409133               0.000000000               0.178194241              -0.476704567               0.000000000               0.187500000              -0.500000000               0.000000000               0.025947013              -0.130444442               0.000000000               0.032137825              -0.153541665               0.000000000               0.038328636              -0.176638887               0.000000000               0.044519448              -0.199736109               0.000000000               0.050710260              -0.222833332               0.000000000               0.056901071              -0.245930554               0.000000000               0.063091883              -0.269027776               0.000000000               0.069282695              -0.292124999               0.000000000               0.075473506              -0.315222221               0.000000000               0.081664318              -0.338319444               0.000000000               0.087855130              -0.361416666               0.000000000               0.094045942              -0.384513888               0.000000000               0.100236753              -0.407611111               0.000000000               0.106427565              -0.430708333               0.000000000               0.112618377              -0.453805555               0.000000000               0.118809188              -0.476902778               0.000000000               0.125000000              -0.500000000               0.000000000               0.013036280              -0.132359569               0.000000000               0.016127762              -0.155337096               0.000000000               0.019219245              -0.178314623               0.000000000               0.022310727              -0.201292150               0.000000000               0.025402210              -0.224269676               0.000000000               0.028493692              -0.247247203               0.000000000               0.031585175              -0.270224730               0.000000000               0.034676657              -0.293202257               0.000000000               0.037768140              -0.316179784               0.000000000               0.040859622              -0.339157311               0.000000000               0.043951105              -0.362134838               0.000000000               0.047042587              -0.385112365               0.000000000               0.050134070              -0.408089892               0.000000000               0.053225552              -0.431067419               0.000000000               0.056317035              -0.454044946               0.000000000               0.059408517              -0.477022473               0.000000000               0.062500000              -0.500000000               0.000000000               0.000000000              -0.133000000               0.000000000               0.000000000              -0.155937500               0.000000000               0.000000000              -0.178875000               0.000000000               0.000000000              -0.201812500               0.000000000               0.000000000              -0.224750000               0.000000000               0.000000000              -0.247687500               0.000000000               0.000000000              -0.270625000               0.000000000               0.000000000              -0.293562500               0.000000000               0.000000000              -0.316500000               0.000000000               0.000000000              -0.339437500               0.000000000               0.000000000              -0.362375000               0.000000000               0.000000000              -0.385312500               0.000000000               0.000000000              -0.408250000               0.000000000               0.000000000              -0.431187500               0.000000000               0.000000000              -0.454125000               0.000000000               0.000000000              -0.477062500               0.000000000               0.000000000              -0.500000000               0.000000000              -0.133000000               0.000000000               0.000000000              -0.155937500               0.000000000               0.000000000              -0.178875000               0.000000000               0.000000000              -0.201812500               0.000000000               0.000000000              -0.224750000               0.000000000               0.000000000              -0.247687500               0.000000000               0.000000000              -0.270625000               0.000000000               0.000000000              -0.293562500               0.000000000               0.000000000              -0.316500000               0.000000000               0.000000000              -0.339437500               0.000000000               0.000000000              -0.362375000               0.000000000               0.000000000              -0.385312500               0.000000000               0.000000000              -0.408250000               0.000000000               0.000000000              -0.431187500               0.000000000               0.000000000              -0.454125000               0.000000000               0.000000000              -0.477062500               0.000000000               0.000000000              -0.500000000               0.000000000               0.000000000              -0.132359569              -0.013036280               0.000000000              -0.155337096              -0.016127762               0.000000000              -0.178314623              -0.019219245               0.000000000              -0.201292150              -0.022310727               0.000000000              -0.224269676              -0.025402210               0.000000000              -0.247247203              -0.028493692               0.000000000              -0.270224730              -0.031585175               0.000000000              -0.293202257              -0.034676657               0.000000000              -0.316179784              -0.037768140               0.000000000              -0.339157311              -0.040859622               0.000000000              -0.362134838              -0.043951105               0.000000000              -0.385112365              -0.047042587               0.000000000              -0.408089892              -0.050134070               0.000000000              -0.431067419              -0.053225552               0.000000000              -0.454044946              -0.056317035               0.000000000              -0.477022473              -0.059408517               0.000000000              -0.500000000              -0.062500000               0.000000000              -0.130444442              -0.025947013               0.000000000              -0.153541665              -0.032137825               0.000000000              -0.176638887              -0.038328636               0.000000000              -0.199736109              -0.044519448               0.000000000              -0.222833332              -0.050710260               0.000000000              -0.245930554              -0.056901071               0.000000000              -0.269027776              -0.063091883               0.000000000              -0.292124999              -0.069282695               0.000000000              -0.315222221              -0.075473506               0.000000000              -0.338319444              -0.081664318               0.000000000              -0.361416666              -0.087855130               0.000000000              -0.384513888              -0.094045942               0.000000000              -0.407611111              -0.100236753               0.000000000              -0.430708333              -0.106427565               0.000000000              -0.453805555              -0.112618377               0.000000000              -0.476902778              -0.118809188               0.000000000              -0.500000000              -0.125000000               0.000000000              -0.127273065              -0.038607862               0.000000000              -0.150568498              -0.047913621               0.000000000              -0.173863932              -0.057219379               0.000000000              -0.197159365              -0.066525138               0.000000000              -0.220454798              -0.075830897               0.000000000              -0.243750232              -0.085136655               0.000000000              -0.267045665              -0.094442414               0.000000000              -0.290341099              -0.103748172               0.000000000              -0.313636532              -0.113053931               0.000000000              -0.336931966              -0.122359690               0.000000000              -0.360227399              -0.131665448               0.000000000              -0.383522833              -0.140971207               0.000000000              -0.406818266              -0.150276966               0.000000000              -0.430113700              -0.159582724               0.000000000              -0.453409133              -0.168888483               0.000000000              -0.476704567              -0.178194241               0.000000000              -0.500000000              -0.187500000               0.000000000              -0.122875978              -0.050896897               0.000000000              -0.146446229              -0.063340840               0.000000000              -0.170016481              -0.075784784               0.000000000              -0.193586732              -0.088228728               0.000000000              -0.217156983              -0.100672672               0.000000000              -0.240727235              -0.113116616               0.000000000              -0.264297486              -0.125560560               0.000000000              -0.287867738              -0.138004504               0.000000000              -0.311437989              -0.150448448               0.000000000              -0.335008240              -0.162892392               0.000000000              -0.358578492              -0.175336336               0.000000000              -0.382148743              -0.187780280               0.000000000              -0.405718994              -0.200224224               0.000000000              -0.429289246              -0.212668168               0.000000000              -0.452859497              -0.225112112               0.000000000              -0.476429749              -0.237556056               0.000000000              -0.500000000              -0.250000000               0.000000000              -0.117295528              -0.062695766               0.000000000              -0.141214558              -0.078308531               0.000000000              -0.165133587              -0.093921295               0.000000000              -0.189052617              -0.109534060               0.000000000              -0.212971646              -0.125146824               0.000000000              -0.236890676              -0.140759589               0.000000000              -0.260809705              -0.156372354               0.000000000              -0.284728735              -0.171985118               0.000000000              -0.308647764              -0.187597883               0.000000000              -0.332566794              -0.203210648               0.000000000              -0.356485823              -0.218823412               0.000000000              -0.380404853              -0.234436177               0.000000000              -0.404323882              -0.250048941               0.000000000              -0.428242912              -0.265661706               0.000000000              -0.452161941              -0.281274471               0.000000000              -0.476080971              -0.296887235               0.000000000              -0.500000000              -0.312500000               0.000000000              -0.110585458              -0.073890841               0.000000000              -0.134923867              -0.092710163               0.000000000              -0.159262276              -0.111529486               0.000000000              -0.183600685              -0.130348808               0.000000000              -0.207939094              -0.149168131               0.000000000              -0.232277503              -0.167987453               0.000000000              -0.256615912              -0.186806776               0.000000000              -0.280954320              -0.205626098               0.000000000              -0.305292729              -0.224445420               0.000000000              -0.329631138              -0.243264743               0.000000000              -0.353969547              -0.262084065               0.000000000              -0.378307956              -0.280903388               0.000000000              -0.402646365              -0.299722710               0.000000000              -0.426984773              -0.318542033               0.000000000              -0.451323182              -0.337361355               0.000000000              -0.475661591              -0.356180678               0.000000000              -0.500000000              -0.375000000               0.000000000              -0.102810390              -0.084374307               0.000000000              -0.127634741              -0.106444663               0.000000000              -0.152459092              -0.128515018               0.000000000              -0.177283442              -0.150585374               0.000000000              -0.202107793              -0.172655730               0.000000000              -0.226932143              -0.194726086               0.000000000              -0.251756494              -0.216796442               0.000000000              -0.276580845              -0.238866798               0.000000000              -0.301405195              -0.260937153               0.000000000              -0.326229546              -0.283007509               0.000000000              -0.351053896              -0.305077865               0.000000000              -0.375878247              -0.327148221               0.000000000              -0.400702598              -0.349218577               0.000000000              -0.425526948              -0.371288933               0.000000000              -0.450351299              -0.393359288               0.000000000              -0.475175649              -0.415429644               0.000000000              -0.500000000              -0.437500000               0.000000000              -0.094045202              -0.094045202               0.000000000              -0.119417377              -0.119417377               0.000000000              -0.144789552              -0.144789552               0.000000000              -0.170161727              -0.170161727               0.000000000              -0.195533901              -0.195533901               0.000000000              -0.220906076              -0.220906076               0.000000000              -0.246278251              -0.246278251               0.000000000              -0.271650426              -0.271650426               0.000000000              -0.297022601              -0.297022601               0.000000000              -0.322394776              -0.322394776               0.000000000              -0.347766951              -0.347766951               0.000000000              -0.373139126              -0.373139126               0.000000000              -0.398511300              -0.398511300               0.000000000              -0.423883475              -0.423883475               0.000000000              -0.449255650              -0.449255650               0.000000000              -0.474627825              -0.474627825               0.000000000              -0.500000000              -0.500000000               0.000000000              -0.084374307              -0.102810390               0.000000000              -0.106444663              -0.127634741               0.000000000              -0.128515018              -0.152459092               0.000000000              -0.150585374              -0.177283442               0.000000000              -0.172655730              -0.202107793               0.000000000              -0.194726086              -0.226932143               0.000000000              -0.216796442              -0.251756494               0.000000000              -0.238866798              -0.276580845               0.000000000              -0.260937153              -0.301405195               0.000000000              -0.283007509              -0.326229546               0.000000000              -0.305077865              -0.351053896               0.000000000              -0.327148221              -0.375878247               0.000000000              -0.349218577              -0.400702598               0.000000000              -0.371288933              -0.425526948               0.000000000              -0.393359288              -0.450351299               0.000000000              -0.415429644              -0.475175649               0.000000000              -0.437500000              -0.500000000               0.000000000              -0.073890841              -0.110585458               0.000000000              -0.092710163              -0.134923867               0.000000000              -0.111529486              -0.159262276               0.000000000              -0.130348808              -0.183600685               0.000000000              -0.149168131              -0.207939094               0.000000000              -0.167987453              -0.232277503               0.000000000              -0.186806776              -0.256615912               0.000000000              -0.205626098              -0.280954320               0.000000000              -0.224445420              -0.305292729               0.000000000              -0.243264743              -0.329631138               0.000000000              -0.262084065              -0.353969547               0.000000000              -0.280903388              -0.378307956               0.000000000              -0.299722710              -0.402646365               0.000000000              -0.318542033              -0.426984773               0.000000000              -0.337361355              -0.451323182               0.000000000              -0.356180678              -0.475661591               0.000000000              -0.375000000              -0.500000000               0.000000000              -0.062695766              -0.117295528               0.000000000              -0.078308531              -0.141214558               0.000000000              -0.093921295              -0.165133587               0.000000000              -0.109534060              -0.189052617               0.000000000              -0.125146824              -0.212971646               0.000000000              -0.140759589              -0.236890676               0.000000000              -0.156372354              -0.260809705               0.000000000              -0.171985118              -0.284728735               0.000000000              -0.187597883              -0.308647764               0.000000000              -0.203210648              -0.332566794               0.000000000              -0.218823412              -0.356485823               0.000000000              -0.234436177              -0.380404853               0.000000000              -0.250048941              -0.404323882               0.000000000              -0.265661706              -0.428242912               0.000000000              -0.281274471              -0.452161941               0.000000000              -0.296887235              -0.476080971               0.000000000              -0.312500000              -0.500000000               0.000000000              -0.050896897              -0.122875978               0.000000000              -0.063340840              -0.146446229               0.000000000              -0.075784784              -0.170016481               0.000000000              -0.088228728              -0.193586732               0.000000000              -0.100672672              -0.217156983               0.000000000              -0.113116616              -0.240727235               0.000000000              -0.125560560              -0.264297486               0.000000000              -0.138004504              -0.287867738               0.000000000              -0.150448448              -0.311437989               0.000000000              -0.162892392              -0.335008240               0.000000000              -0.175336336              -0.358578492               0.000000000              -0.187780280              -0.382148743               0.000000000              -0.200224224              -0.405718994               0.000000000              -0.212668168              -0.429289246               0.000000000              -0.225112112              -0.452859497               0.000000000              -0.237556056              -0.476429749               0.000000000              -0.250000000              -0.500000000               0.000000000              -0.038607862              -0.127273065               0.000000000              -0.047913621              -0.150568498               0.000000000              -0.057219379              -0.173863932               0.000000000              -0.066525138              -0.197159365               0.000000000              -0.075830897              -0.220454798               0.000000000              -0.085136655              -0.243750232               0.000000000              -0.094442414              -0.267045665               0.000000000              -0.103748172              -0.290341099               0.000000000              -0.113053931              -0.313636532               0.000000000              -0.122359690              -0.336931966               0.000000000              -0.131665448              -0.360227399               0.000000000              -0.140971207              -0.383522833               0.000000000              -0.150276966              -0.406818266               0.000000000              -0.159582724              -0.430113700               0.000000000              -0.168888483              -0.453409133               0.000000000              -0.178194241              -0.476704567               0.000000000              -0.187500000              -0.500000000               0.000000000              -0.025947013              -0.130444442               0.000000000              -0.032137825              -0.153541665               0.000000000              -0.038328636              -0.176638887               0.000000000              -0.044519448              -0.199736109               0.000000000              -0.050710260              -0.222833332               0.000000000              -0.056901071              -0.245930554               0.000000000              -0.063091883              -0.269027776               0.000000000              -0.069282695              -0.292124999               0.000000000              -0.075473506              -0.315222221               0.000000000              -0.081664318              -0.338319444               0.000000000              -0.087855130              -0.361416666               0.000000000              -0.094045942              -0.384513888               0.000000000              -0.100236753              -0.407611111               0.000000000              -0.106427565              -0.430708333               0.000000000              -0.112618377              -0.453805555               0.000000000              -0.118809188              -0.476902778               0.000000000              -0.125000000              -0.500000000               0.000000000              -0.013036280              -0.132359569               0.000000000              -0.016127762              -0.155337096               0.000000000              -0.019219245              -0.178314623               0.000000000              -0.022310727              -0.201292150               0.000000000              -0.025402210              -0.224269676               0.000000000              -0.028493692              -0.247247203               0.000000000              -0.031585175              -0.270224730               0.000000000              -0.034676657              -0.293202257               0.000000000              -0.037768140              -0.316179784               0.000000000              -0.040859622              -0.339157311               0.000000000              -0.043951105              -0.362134838               0.000000000              -0.047042587              -0.385112365               0.000000000              -0.050134070              -0.408089892               0.000000000              -0.053225552              -0.431067419               0.000000000              -0.056317035              -0.454044946               0.000000000              -0.059408517              -0.477022473               0.000000000              -0.062500000              -0.500000000               0.000000000               0.000000000              -0.133000000               0.000000000               0.000000000              -0.155937500               0.000000000               0.000000000              -0.178875000               0.000000000               0.000000000              -0.201812500               0.000000000               0.000000000              -0.224750000               0.000000000               0.000000000              -0.247687500               0.000000000               0.000000000              -0.270625000               0.000000000               0.000000000              -0.293562500               0.000000000               0.000000000              -0.316500000               0.000000000               0.000000000              -0.339437500               0.000000000               0.000000000              -0.362375000               0.000000000               0.000000000              -0.385312500               0.000000000               0.000000000              -0.408250000               0.000000000               0.000000000              -0.431187500               0.000000000               0.000000000              -0.454125000               0.000000000               0.000000000              -0.477062500               0.000000000               0.000000000              -0.500000000               0.000000000              -0.133000000               0.000000000               0.000000000              -0.155937500               0.000000000               0.000000000              -0.178875000               0.000000000               0.000000000              -0.201812500               0.000000000               0.000000000              -0.224750000               0.000000000               0.000000000              -0.247687500               0.000000000               0.000000000              -0.270625000               0.000000000               0.000000000              -0.293562500               0.000000000               0.000000000              -0.316500000               0.000000000               0.000000000              -0.339437500               0.000000000               0.000000000              -0.362375000               0.000000000               0.000000000              -0.385312500               0.000000000               0.000000000              -0.408250000               0.000000000               0.000000000              -0.431187500               0.000000000               0.000000000              -0.454125000               0.000000000               0.000000000              -0.477062500               0.000000000               0.000000000              -0.500000000               0.000000000               0.000000000              -0.132359569               0.013036280               0.000000000              -0.155337096               0.016127762               0.000000000              -0.178314623               0.019219245               0.000000000              -0.201292150               0.022310727               0.000000000              -0.224269676               0.025402210               0.000000000              -0.247247203               0.028493692               0.000000000              -0.270224730               0.031585175               0.000000000              -0.293202257               0.034676657               0.000000000              -0.316179784               0.037768140               0.000000000              -0.339157311               0.040859622               0.000000000              -0.362134838               0.043951105               0.000000000              -0.385112365               0.047042587               0.000000000              -0.408089892               0.050134070               0.000000000              -0.431067419               0.053225552               0.000000000              -0.454044946               0.056317035               0.000000000              -0.477022473               0.059408517               0.000000000              -0.500000000               0.062500000               0.000000000              -0.130444442               0.025947013               0.000000000              -0.153541665               0.032137825               0.000000000              -0.176638887               0.038328636               0.000000000              -0.199736109               0.044519448               0.000000000              -0.222833332               0.050710260               0.000000000              -0.245930554               0.056901071               0.000000000              -0.269027776               0.063091883               0.000000000              -0.292124999               0.069282695               0.000000000              -0.315222221               0.075473506               0.000000000              -0.338319444               0.081664318               0.000000000              -0.361416666               0.087855130               0.000000000              -0.384513888               0.094045942               0.000000000              -0.407611111               0.100236753               0.000000000              -0.430708333               0.106427565               0.000000000              -0.453805555               0.112618377               0.000000000              -0.476902778               0.118809188               0.000000000              -0.500000000               0.125000000               0.000000000              -0.127273065               0.038607862               0.000000000              -0.150568498               0.047913621               0.000000000              -0.173863932               0.057219379               0.000000000              -0.197159365               0.066525138               0.000000000              -0.220454798               0.075830897               0.000000000              -0.243750232               0.085136655               0.000000000              -0.267045665               0.094442414               0.000000000              -0.290341099               0.103748172               0.000000000              -0.313636532               0.113053931               0.000000000              -0.336931966               0.122359690               0.000000000              -0.360227399               0.131665448               0.000000000              -0.383522833               0.140971207               0.000000000              -0.406818266               0.150276966               0.000000000              -0.430113700               0.159582724               0.000000000              -0.453409133               0.168888483               0.000000000              -0.476704567               0.178194241               0.000000000              -0.500000000               0.187500000               0.000000000              -0.122875978               0.050896897               0.000000000              -0.146446229               0.063340840               0.000000000              -0.170016481               0.075784784               0.000000000              -0.193586732               0.088228728               0.000000000              -0.217156983               0.100672672               0.000000000              -0.240727235               0.113116616               0.000000000              -0.264297486               0.125560560               0.000000000              -0.287867738               0.138004504               0.000000000              -0.311437989               0.150448448               0.000000000              -0.335008240               0.162892392               0.000000000              -0.358578492               0.175336336               0.000000000              -0.382148743               0.187780280               0.000000000              -0.405718994               0.200224224               0.000000000              -0.429289246               0.212668168               0.000000000              -0.452859497               0.225112112               0.000000000              -0.476429749               0.237556056               0.000000000              -0.500000000               0.250000000               0.000000000              -0.117295528               0.062695766               0.000000000              -0.141214558               0.078308531               0.000000000              -0.165133587               0.093921295               0.000000000              -0.189052617               0.109534060               0.000000000              -0.212971646               0.125146824               0.000000000              -0.236890676               0.140759589               0.000000000              -0.260809705               0.156372354               0.000000000              -0.284728735               0.171985118               0.000000000              -0.308647764               0.187597883               0.000000000              -0.332566794               0.203210648               0.000000000              -0.356485823               0.218823412               0.000000000              -0.380404853               0.234436177               0.000000000              -0.404323882               0.250048941               0.000000000              -0.428242912               0.265661706               0.000000000              -0.452161941               0.281274471               0.000000000              -0.476080971               0.296887235               0.000000000              -0.500000000               0.312500000               0.000000000              -0.110585458               0.073890841               0.000000000              -0.134923867               0.092710163               0.000000000              -0.159262276               0.111529486               0.000000000              -0.183600685               0.130348808               0.000000000              -0.207939094               0.149168131               0.000000000              -0.232277503               0.167987453               0.000000000              -0.256615912               0.186806776               0.000000000              -0.280954320               0.205626098               0.000000000              -0.305292729               0.224445420               0.000000000              -0.329631138               0.243264743               0.000000000              -0.353969547               0.262084065               0.000000000              -0.378307956               0.280903388               0.000000000              -0.402646365               0.299722710               0.000000000              -0.426984773               0.318542033               0.000000000              -0.451323182               0.337361355               0.000000000              -0.475661591               0.356180678               0.000000000              -0.500000000               0.375000000               0.000000000              -0.102810390               0.084374307               0.000000000              -0.127634741               0.106444663               0.000000000              -0.152459092               0.128515018               0.000000000              -0.177283442               0.150585374               0.000000000              -0.202107793               0.172655730               0.000000000              -0.226932143               0.194726086               0.000000000              -0.251756494               0.216796442               0.000000000              -0.276580845               0.238866798               0.000000000              -0.301405195               0.260937153               0.000000000              -0.326229546               0.283007509               0.000000000              -0.351053896               0.305077865               0.000000000              -0.375878247               0.327148221               0.000000000              -0.400702598               0.349218577               0.000000000              -0.425526948               0.371288933               0.000000000              -0.450351299               0.393359288               0.000000000              -0.475175649               0.415429644               0.000000000              -0.500000000               0.437500000               0.000000000              -0.094045202               0.094045202               0.000000000              -0.119417377               0.119417377               0.000000000              -0.144789552               0.144789552               0.000000000              -0.170161727               0.170161727               0.000000000              -0.195533901               0.195533901               0.000000000              -0.220906076               0.220906076               0.000000000              -0.246278251               0.246278251               0.000000000              -0.271650426               0.271650426               0.000000000              -0.297022601               0.297022601               0.000000000              -0.322394776               0.322394776               0.000000000              -0.347766951               0.347766951               0.000000000              -0.373139126               0.373139126               0.000000000              -0.398511300               0.398511300               0.000000000              -0.423883475               0.423883475               0.000000000              -0.449255650               0.449255650               0.000000000              -0.474627825               0.474627825               0.000000000              -0.500000000               0.500000000               0.000000000              -0.084374307               0.102810390               0.000000000              -0.106444663               0.127634741               0.000000000              -0.128515018               0.152459092               0.000000000              -0.150585374               0.177283442               0.000000000              -0.172655730               0.202107793               0.000000000              -0.194726086               0.226932143               0.000000000              -0.216796442               0.251756494               0.000000000              -0.238866798               0.276580845               0.000000000              -0.260937153               0.301405195               0.000000000              -0.283007509               0.326229546               0.000000000              -0.305077865               0.351053896               0.000000000              -0.327148221               0.375878247               0.000000000              -0.349218577               0.400702598               0.000000000              -0.371288933               0.425526948               0.000000000              -0.393359288               0.450351299               0.000000000              -0.415429644               0.475175649               0.000000000              -0.437500000               0.500000000               0.000000000              -0.073890841               0.110585458               0.000000000              -0.092710163               0.134923867               0.000000000              -0.111529486               0.159262276               0.000000000              -0.130348808               0.183600685               0.000000000              -0.149168131               0.207939094               0.000000000              -0.167987453               0.232277503               0.000000000              -0.186806776               0.256615912               0.000000000              -0.205626098               0.280954320               0.000000000              -0.224445420               0.305292729               0.000000000              -0.243264743               0.329631138               0.000000000              -0.262084065               0.353969547               0.000000000              -0.280903388               0.378307956               0.000000000              -0.299722710               0.402646365               0.000000000              -0.318542033               0.426984773               0.000000000              -0.337361355               0.451323182               0.000000000              -0.356180678               0.475661591               0.000000000              -0.375000000               0.500000000               0.000000000              -0.062695766               0.117295528               0.000000000              -0.078308531               0.141214558               0.000000000              -0.093921295               0.165133587               0.000000000              -0.109534060               0.189052617               0.000000000              -0.125146824               0.212971646               0.000000000              -0.140759589               0.236890676               0.000000000              -0.156372354               0.260809705               0.000000000              -0.171985118               0.284728735               0.000000000              -0.187597883               0.308647764               0.000000000              -0.203210648               0.332566794               0.000000000              -0.218823412               0.356485823               0.000000000              -0.234436177               0.380404853               0.000000000              -0.250048941               0.404323882               0.000000000              -0.265661706               0.428242912               0.000000000              -0.281274471               0.452161941               0.000000000              -0.296887235               0.476080971               0.000000000              -0.312500000               0.500000000               0.000000000              -0.050896897               0.122875978               0.000000000              -0.063340840               0.146446229               0.000000000              -0.075784784               0.170016481               0.000000000              -0.088228728               0.193586732               0.000000000              -0.100672672               0.217156983               0.000000000              -0.113116616               0.240727235               0.000000000              -0.125560560               0.264297486               0.000000000              -0.138004504               0.287867738               0.000000000              -0.150448448               0.311437989               0.000000000              -0.162892392               0.335008240               0.000000000              -0.175336336               0.358578492               0.000000000              -0.187780280               0.382148743               0.000000000              -0.200224224               0.405718994               0.000000000              -0.212668168               0.429289246               0.000000000              -0.225112112               0.452859497               0.000000000              -0.237556056               0.476429749               0.000000000              -0.250000000               0.500000000               0.000000000              -0.038607862               0.127273065               0.000000000              -0.047913621               0.150568498               0.000000000              -0.057219379               0.173863932               0.000000000              -0.066525138               0.197159365               0.000000000              -0.075830897               0.220454798               0.000000000              -0.085136655               0.243750232               0.000000000              -0.094442414               0.267045665               0.000000000              -0.103748172               0.290341099               0.000000000              -0.113053931               0.313636532               0.000000000              -0.122359690               0.336931966               0.000000000              -0.131665448               0.360227399               0.000000000              -0.140971207               0.383522833               0.000000000              -0.150276966               0.406818266               0.000000000              -0.159582724               0.430113700               0.000000000              -0.168888483               0.453409133               0.000000000              -0.178194241               0.476704567               0.000000000              -0.187500000               0.500000000               0.000000000              -0.025947013               0.130444442               0.000000000              -0.032137825               0.153541665               0.000000000              -0.038328636               0.176638887               0.000000000              -0.044519448               0.199736109               0.000000000              -0.050710260               0.222833332               0.000000000              -0.056901071               0.245930554               0.000000000              -0.063091883               0.269027776               0.000000000              -0.069282695               0.292124999               0.000000000              -0.075473506               0.315222221               0.000000000              -0.081664318               0.338319444               0.000000000              -0.087855130               0.361416666               0.000000000              -0.094045942               0.384513888               0.000000000              -0.100236753               0.407611111               0.000000000              -0.106427565               0.430708333               0.000000000              -0.112618377               0.453805555               0.000000000              -0.118809188               0.476902778               0.000000000              -0.125000000               0.500000000               0.000000000              -0.013036280               0.132359569               0.000000000              -0.016127762               0.155337096               0.000000000              -0.019219245               0.178314623               0.000000000              -0.022310727               0.201292150               0.000000000              -0.025402210               0.224269676               0.000000000              -0.028493692               0.247247203               0.000000000              -0.031585175               0.270224730               0.000000000              -0.034676657               0.293202257               0.000000000              -0.037768140               0.316179784               0.000000000              -0.040859622               0.339157311               0.000000000              -0.043951105               0.362134838               0.000000000              -0.047042587               0.385112365               0.000000000              -0.050134070               0.408089892               0.000000000              -0.053225552               0.431067419               0.000000000              -0.056317035               0.454044946               0.000000000              -0.059408517               0.477022473               0.000000000              -0.062500000               0.500000000               0.000000000               0.000000000               0.133000000               0.000000000               0.000000000               0.155937500               0.000000000               0.000000000               0.178875000               0.000000000               0.000000000               0.201812500               0.000000000               0.000000000               0.224750000               0.000000000               0.000000000               0.247687500               0.000000000               0.000000000               0.270625000               0.000000000               0.000000000               0.293562500               0.000000000               0.000000000               0.316500000               0.000000000               0.000000000               0.339437500               0.000000000               0.000000000               0.362375000               0.000000000               0.000000000               0.385312500               0.000000000               0.000000000               0.408250000               0.000000000               0.000000000               0.431187500               0.000000000               0.000000000               0.454125000               0.000000000               0.000000000               0.477062500               0.000000000               0.000000000               0.500000000               0.000000000 </DataArray>
</Points>
<Cells>
<DataArray type="Int32"                                    Name="connectivity"                                                      NumberOfComponents=" 1" format="ascii">
         0          1         18         17          1          2         19         18          2          3         20         19          3          4         21         20          4          5         22         21          5          6         23         22          6          7         24         23          7          8         25         24          8          9         26         25          9         10         27         26         10         11         28         27         11         12         29         28         12         13         30         29         13         14         31         30         14         15         32         31         15         16         33         32         17         18         35         34         18         19         36         35         19         20         37         36         20         21         38         37         21         22         39         38         22         23         40         39         23         24         41         40         24         25         42         41         25         26         43         42         26         27         44         43         27         28         45         44         28         29         46         45         29         30         47         46         30         31         48         47         31         32         49         48         32         33         50         49         34         35         52         51         35         36         53         52         36         37         54         53         37         38         55         54         38         39         56         55         39         40         57         56         40         41         58         57         41         42         59         58         42         43         60         59         43         44         61         60         44         45         62         61         45         46         63         62         46         47         64         63         47         48         65         64         48         49         66         65         49         50         67         66         51         52         69         68         52         53         70         69         53         54         71         70         54         55         72         71         55         56         73         72         56         57         74         73         57         58         75         74         58         59         76         75         59         60         77         76         60         61         78         77         61         62         79         78         62         63         80         79         63         64         81         80         64         65         82         81         65         66         83         82         66         67         84         83         68         69         86         85         69         70         87         86         70         71         88         87         71         72         89         88         72         73         90         89         73         74         91         90         74         75         92         91         75         76         93         92         76         77         94         93         77         78         95         94         78         79         96         95         79         80         97         96         80         81         98         97         81         82         99         98         82         83        100         99         83         84        101        100         85         86        103        102         86         87        104        103         87         88        105        104         88         89        106        105         89         90        107        106         90         91        108        107         91         92        109        108         92         93        110        109         93         94        111        110         94         95        112        111         95         96        113        112         96         97        114        113         97         98        115        114         98         99        116        115         99        100        117        116        100        101        118        117        102        103        120        119        103        104        121        120        104        105        122        121        105        106        123        122        106        107        124        123        107        108        125        124        108        109        126        125        109        110        127        126        110        111        128        127        111        112        129        128        112        113        130        129        113        114        131        130        114        115        132        131        115        116        133        132        116        117        134        133        117        118        135        134        119        120        137        136        120        121        138        137        121        122        139        138        122        123        140        139        123        124        141        140        124        125        142        141        125        126        143        142        126        127        144        143        127        128        145        144        128        129        146        145        129        130        147        146        130        131        148        147        131        132        149        148        132        133        150        149        133        134        151        150        134        135        152        151        136        137        154        153        137        138        155        154        138        139        156        155        139        140        157        156        140        141        158        157        141        142        159        158        142        143        160        159        143        144        161        160        144        145        162        161        145        146        163        162        146        147        164        163        147        148        165        164        148        149        166        165        149        150        167        166        150        151        168        167        151        152        169        168        153        154        171        170        154        155        172        171        155        156        173        172        156        157        174        173        157        158        175        174        158        159        176        175        159        160        177        176        160        161        178        177        161        162        179        178        162        163        180        179        163        164        181        180        164        165        182        181        165        166        183        182        166        167        184        183        167        168        185        184        168        169        186        185        170        171        188        187        171        172        189        188        172        173        190        189        173        174        191        190        174        175        192        191        175        176        193        192        176        177        194        193        177        178        195        194        178        179        196        195        179        180        197        196        180        181        198        197        181        182        199        198        182        183        200        199        183        184        201        200        184        185        202        201        185        186        203        202        187        188        205        204        188        189        206        205        189        190        207        206        190        191        208        207        191        192        209        208        192        193        210        209        193        194        211        210        194        195        212        211        195        196        213        212        196        197        214        213        197        198        215        214        198        199        216        215        199        200        217        216        200        201        218        217        201        202        219        218        202        203        220        219        204        205        222        221        205        206        223        222        206        207        224        223        207        208        225        224        208        209        226        225        209        210        227        226        210        211        228        227        211        212        229        228        212        213        230        229        213        214        231        230        214        215        232        231        215        216        233        232        216        217        234        233        217        218        235        234        218        219        236        235        219        220        237        236        221        222        239        238        222        223        240        239        223        224        241        240        224        225        242        241        225        226        243        242        226        227        244        243        227        228        245        244        228        229        246        245        229        230        247        246        230        231        248        247        231        232        249        248        232        233        250        249        233        234        251        250        234        235        252        251        235        236        253        252        236        237        254        253        238        239        256        255        239        240        257        256        240        241        258        257        241        242        259        258        242        243        260        259        243        244        261        260        244        245        262        261        245        246        263        262        246        247        264        263        247        248        265        264        248        249        266        265        249        250        267        266        250        251        268        267        251        252        269        268        252        253        270        269        253        254        271        270        255        256        273        272        256        257        274        273        257        258        275        274        258        259        276        275        259        260        277        276        260        261        278        277        261        262        279        278        262        263        280        279        263        264        281        280        264        265        282        281        265        266        283        282        266        267        284        283        267        268        285        284        268        269        286        285        269        270        287        286        270        271        288        287        306        307          1          0        307        308          2          1        308        309          3          2        309        310          4          3        310        311          5          4        311        312          6          5        312        313          7          6        313        314          8          7        314        315          9          8        315        316         10          9        316        317         11         10        317        318         12         11        318        319         13         12        319        320         14         13        320        321         15         14        321        322         16         15        323        324        307        306        324        325        308        307        325        326        309        308        326        327        310        309        327        328        311        310        328        329        312        311        329        330        313        312        330        331        314        313        331        332        315        314        332        333        316        315        333        334        317        316        334        335        318        317        335        336        319        318        336        337        320        319        337        338        321        320        338        339        322        321        340        341        324        323        341        342        325        324        342        343        326        325        343        344        327        326        344        345        328        327        345        346        329        328        346        347        330        329        347        348        331        330        348        349        332        331        349        350        333        332        350        351        334        333        351        352        335        334        352        353        336        335        353        354        337        336        354        355        338        337        355        356        339        338        357        358        341        340        358        359        342        341        359        360        343        342        360        361        344        343        361        362        345        344        362        363        346        345        363        364        347        346        364        365        348        347        365        366        349        348        366        367        350        349        367        368        351        350        368        369        352        351        369        370        353        352        370        371        354        353        371        372        355        354        372        373        356        355        374        375        358        357        375        376        359        358        376        377        360        359        377        378        361        360        378        379        362        361        379        380        363        362        380        381        364        363        381        382        365        364        382        383        366        365        383        384        367        366        384        385        368        367        385        386        369        368        386        387        370        369        387        388        371        370        388        389        372        371        389        390        373        372        391        392        375        374        392        393        376        375        393        394        377        376        394        395        378        377        395        396        379        378        396        397        380        379        397        398        381        380        398        399        382        381        399        400        383        382        400        401        384        383        401        402        385        384        402        403        386        385        403        404        387        386        404        405        388        387        405        406        389        388        406        407        390        389        408        409        392        391        409        410        393        392        410        411        394        393        411        412        395        394        412        413        396        395        413        414        397        396        414        415        398        397        415        416        399        398        416        417        400        399        417        418        401        400        418        419        402        401        419        420        403        402        420        421        404        403        421        422        405        404        422        423        406        405        423        424        407        406        425        426        409        408        426        427        410        409        427        428        411        410        428        429        412        411        429        430        413        412        430        431        414        413        431        432        415        414        432        433        416        415        433        434        417        416        434        435        418        417        435        436        419        418        436        437        420        419        437        438        421        420        438        439        422        421        439        440        423        422        440        441        424        423        442        443        426        425        443        444        427        426        444        445        428        427        445        446        429        428        446        447        430        429        447        448        431        430        448        449        432        431        449        450        433        432        450        451        434        433        451        452        435        434        452        453        436        435        453        454        437        436        454        455        438        437        455        456        439        438        456        457        440        439        457        458        441        440        459        460        443        442        460        461        444        443        461        462        445        444        462        463        446        445        463        464        447        446        464        465        448        447        465        466        449        448        466        467        450        449        467        468        451        450        468        469        452        451        469        470        453        452        470        471        454        453        471        472        455        454        472        473        456        455        473        474        457        456        474        475        458        457        476        477        460        459        477        478        461        460        478        479        462        461        479        480        463        462        480        481        464        463        481        482        465        464        482        483        466        465        483        484        467        466        484        485        468        467        485        486        469        468        486        487        470        469        487        488        471        470        488        489        472        471        489        490        473        472        490        491        474        473        491        492        475        474        493        494        477        476        494        495        478        477        495        496        479        478        496        497        480        479        497        498        481        480        498        499        482        481        499        500        483        482        500        501        484        483        501        502        485        484        502        503        486        485        503        504        487        486        504        505        488        487        505        506        489        488        506        507        490        489        507        508        491        490        508        509        492        491        510        511        494        493        511        512        495        494        512        513        496        495        513        514        497        496        514        515        498        497        515        516        499        498        516        517        500        499        517        518        501        500        518        519        502        501        519        520        503        502        520        521        504        503        521        522        505        504        522        523        506        505        523        524        507        506        524        525        508        507        525        526        509        508        527        528        511        510        528        529        512        511        529        530        513        512        530        531        514        513        531        532        515        514        532        533        516        515        533        534        517        516        534        535        518        517        535        536        519        518        536        537        520        519        537        538        521        520        538        539        522        521        539        540        523        522        540        541        524        523        541        542        525        524        542        543        526        525        544        545        528        527        545        546        529        528        546        547        530        529        547        548        531        530        548        549        532        531        549        550        533        532        550        551        534        533        551        552        535        534        552        553        536        535        553        554        537        536        554        555        538        537        555        556        539        538        556        557        540        539        557        558        541        540        558        559        542        541        559        560        543        542        561        562        545        544        562        563        546        545        563        564        547        546        564        565        548        547        565        566        549        548        566        567        550        549        567        568        551        550        568        569        552        551        569        570        553        552        570        571        554        553        571        572        555        554        572        573        556        555        573        574        557        556        574        575        558        557        575        576        559        558        576        577        560        559        578        579        596        595        579        580        597        596        580        581        598        597        581        582        599        598        582        583        600        599        583        584        601        600        584        585        602        601        585        586        603        602        586        587        604        603        587        588        605        604        588        589        606        605        589        590        607        606        590        591        608        607        591        592        609        608        592        593        610        609        593        594        611        610        595        596        613        612        596        597        614        613        597        598        615        614        598        599        616        615        599        600        617        616        600        601        618        617        601        602        619        618        602        603        620        619        603        604        621        620        604        605        622        621        605        606        623        622        606        607        624        623        607        608        625        624        608        609        626        625        609        610        627        626        610        611        628        627        612        613        630        629        613        614        631        630        614        615        632        631        615        616        633        632        616        617        634        633        617        618        635        634        618        619        636        635        619        620        637        636        620        621        638        637        621        622        639        638        622        623        640        639        623        624        641        640        624        625        642        641        625        626        643        642        626        627        644        643        627        628        645        644        629        630        647        646        630        631        648        647        631        632        649        648        632        633        650        649        633        634        651        650        634        635        652        651        635        636        653        652        636        637        654        653        637        638        655        654        638        639        656        655        639        640        657        656        640        641        658        657        641        642        659        658        642        643        660        659        643        644        661        660        644        645        662        661        646        647        664        663        647        648        665        664        648        649        666        665        649        650        667        666        650        651        668        667        651        652        669        668        652        653        670        669        653        654        671        670        654        655        672        671        655        656        673        672        656        657        674        673        657        658        675        674        658        659        676        675        659        660        677        676        660        661        678        677        661        662        679        678        663        664        681        680        664        665        682        681        665        666        683        682        666        667        684        683        667        668        685        684        668        669        686        685        669        670        687        686        670        671        688        687        671        672        689        688        672        673        690        689        673        674        691        690        674        675        692        691        675        676        693        692        676        677        694        693        677        678        695        694        678        679        696        695        680        681        698        697        681        682        699        698        682        683        700        699        683        684        701        700        684        685        702        701        685        686        703        702        686        687        704        703        687        688        705        704        688        689        706        705        689        690        707        706        690        691        708        707        691        692        709        708        692        693        710        709        693        694        711        710        694        695        712        711        695        696        713        712        697        698        715        714        698        699        716        715        699        700        717        716        700        701        718        717        701        702        719        718        702        703        720        719        703        704        721        720        704        705        722        721        705        706        723        722        706        707        724        723        707        708        725        724        708        709        726        725        709        710        727        726        710        711        728        727        711        712        729        728        712        713        730        729        714        715        732        731        715        716        733        732        716        717        734        733        717        718        735        734        718        719        736        735        719        720        737        736        720        721        738        737        721        722        739        738        722        723        740        739        723        724        741        740        724        725        742        741        725        726        743        742        726        727        744        743        727        728        745        744        728        729        746        745        729        730        747        746        731        732        749        748        732        733        750        749        733        734        751        750        734        735        752        751        735        736        753        752        736        737        754        753        737        738        755        754        738        739        756        755        739        740        757        756        740        741        758        757        741        742        759        758        742        743        760        759        743        744        761        760        744        745        762        761        745        746        763        762        746        747        764        763        748        749        766        765        749        750        767        766        750        751        768        767        751        752        769        768        752        753        770        769        753        754        771        770        754        755        772        771        755        756        773        772        756        757        774        773        757        758        775        774        758        759        776        775        759        760        777        776        760        761        778        777        761        762        779        778        762        763        780        779        763        764        781        780        765        766        783        782        766        767        784        783        767        768        785        784        768        769        786        785        769        770        787        786        770        771        788        787        771        772        789        788        772        773        790        789        773        774        791        790        774        775        792        791        775        776        793        792        776        777        794        793        777        778        795        794        778        779        796        795        779        780        797        796        780        781        798        797        782        783        800        799        783        784        801        800        784        785        802        801        785        786        803        802        786        787        804        803        787        788        805        804        788        789        806        805        789        790        807        806        790        791        808        807        791        792        809        808        792        793        810        809        793        794        811        810        794        795        812        811        795        796        813        812        796        797        814        813        797        798        815        814        799        800        817        816        800        801        818        817        801        802        819        818        802        803        820        819        803        804        821        820        804        805        822        821        805        806        823        822        806        807        824        823        807        808        825        824        808        809        826        825        809        810        827        826        810        811        828        827        811        812        829        828        812        813        830        829        813        814        831        830        814        815        832        831        816        817        834        833        817        818        835        834        818        819        836        835        819        820        837        836        820        821        838        837        821        822        839        838        822        823        840        839        823        824        841        840        824        825        842        841        825        826        843        842        826        827        844        843        827        828        845        844        828        829        846        845        829        830        847        846        830        831        848        847        831        832        849        848        833        834        562        561        834        835        563        562        835        836        564        563        836        837        565        564        837        838        566        565        838        839        567        566        839        840        568        567        840        841        569        568        841        842        570        569        842        843        571        570        843        844        572        571        844        845        573        572        845        846        574        573        846        847        575        574        847        848        576        575        848        849        577        576        884        885        579        578        885        886        580        579        886        887        581        580        887        888        582        581        888        889        583        582        889        890        584        583        890        891        585        584        891        892        586        585        892        893        587        586        893        894        588        587        894        895        589        588        895        896        590        589        896        897        591        590        897        898        592        591        898        899        593        592        899        900        594        593        901        902        885        884        902        903        886        885        903        904        887        886        904        905        888        887        905        906        889        888        906        907        890        889        907        908        891        890        908        909        892        891        909        910        893        892        910        911        894        893        911        912        895        894        912        913        896        895        913        914        897        896        914        915        898        897        915        916        899        898        916        917        900        899        918        919        902        901        919        920        903        902        920        921        904        903        921        922        905        904        922        923        906        905        923        924        907        906        924        925        908        907        925        926        909        908        926        927        910        909        927        928        911        910        928        929        912        911        929        930        913        912        930        931        914        913        931        932        915        914        932        933        916        915        933        934        917        916        935        936        919        918        936        937        920        919        937        938        921        920        938        939        922        921        939        940        923        922        940        941        924        923        941        942        925        924        942        943        926        925        943        944        927        926        944        945        928        927        945        946        929        928        946        947        930        929        947        948        931        930        948        949        932        931        949        950        933        932        950        951        934        933        952        953        936        935        953        954        937        936        954        955        938        937        955        956        939        938        956        957        940        939        957        958        941        940        958        959        942        941        959        960        943        942        960        961        944        943        961        962        945        944        962        963        946        945        963        964        947        946        964        965        948        947        965        966        949        948        966        967        950        949        967        968        951        950        969        970        953        952        970        971        954        953        971        972        955        954        972        973        956        955        973        974        957        956        974        975        958        957        975        976        959        958        976        977        960        959        977        978        961        960        978        979        962        961        979        980        963        962        980        981        964        963        981        982        965        964        982        983        966        965        983        984        967        966        984        985        968        967        986        987        970        969        987        988        971        970        988        989        972        971        989        990        973        972        990        991        974        973        991        992        975        974        992        993        976        975        993        994        977        976        994        995        978        977        995        996        979        978        996        997        980        979        997        998        981        980        998        999        982        981        999       1000        983        982       1000       1001        984        983       1001       1002        985        984       1003       1004        987        986       1004       1005        988        987       1005       1006        989        988       1006       1007        990        989       1007       1008        991        990       1008       1009        992        991       1009       1010        993        992       1010       1011        994        993       1011       1012        995        994       1012       1013        996        995       1013       1014        997        996       1014       1015        998        997       1015       1016        999        998       1016       1017       1000        999       1017       1018       1001       1000       1018       1019       1002       1001       1020       1021       1004       1003       1021       1022       1005       1004       1022       1023       1006       1005       1023       1024       1007       1006       1024       1025       1008       1007       1025       1026       1009       1008       1026       1027       1010       1009       1027       1028       1011       1010       1028       1029       1012       1011       1029       1030       1013       1012       1030       1031       1014       1013       1031       1032       1015       1014       1032       1033       1016       1015       1033       1034       1017       1016       1034       1035       1018       1017       1035       1036       1019       1018       1037       1038       1021       1020       1038       1039       1022       1021       1039       1040       1023       1022       1040       1041       1024       1023       1041       1042       1025       1024       1042       1043       1026       1025       1043       1044       1027       1026       1044       1045       1028       1027       1045       1046       1029       1028       1046       1047       1030       1029       1047       1048       1031       1030       1048       1049       1032       1031       1049       1050       1033       1032       1050       1051       1034       1033       1051       1052       1035       1034       1052       1053       1036       1035       1054       1055       1038       1037       1055       1056       1039       1038       1056       1057       1040       1039       1057       1058       1041       1040       1058       1059       1042       1041       1059       1060       1043       1042       1060       1061       1044       1043       1061       1062       1045       1044       1062       1063       1046       1045       1063       1064       1047       1046       1064       1065       1048       1047       1065       1066       1049       1048       1066       1067       1050       1049       1067       1068       1051       1050       1068       1069       1052       1051       1069       1070       1053       1052       1071       1072       1055       1054       1072       1073       1056       1055       1073       1074       1057       1056       1074       1075       1058       1057       1075       1076       1059       1058       1076       1077       1060       1059       1077       1078       1061       1060       1078       1079       1062       1061       1079       1080       1063       1062       1080       1081       1064       1063       1081       1082       1065       1064       1082       1083       1066       1065       1083       1084       1067       1066       1084       1085       1068       1067       1085       1086       1069       1068       1086       1087       1070       1069       1088       1089       1072       1071       1089       1090       1073       1072       1090       1091       1074       1073       1091       1092       1075       1074       1092       1093       1076       1075       1093       1094       1077       1076       1094       1095       1078       1077       1095       1096       1079       1078       1096       1097       1080       1079       1097       1098       1081       1080       1098       1099       1082       1081       1099       1100       1083       1082       1100       1101       1084       1083       1101       1102       1085       1084       1102       1103       1086       1085       1103       1104       1087       1086       1105       1106       1089       1088       1106       1107       1090       1089       1107       1108       1091       1090       1108       1109       1092       1091       1109       1110       1093       1092       1110       1111       1094       1093       1111       1112       1095       1094       1112       1113       1096       1095       1113       1114       1097       1096       1114       1115       1098       1097       1115       1116       1099       1098       1116       1117       1100       1099       1117       1118       1101       1100       1118       1119       1102       1101       1119       1120       1103       1102       1120       1121       1104       1103       1122       1123       1106       1105       1123       1124       1107       1106       1124       1125       1108       1107       1125       1126       1109       1108       1126       1127       1110       1109       1127       1128       1111       1110       1128       1129       1112       1111       1129       1130       1113       1112       1130       1131       1114       1113       1131       1132       1115       1114       1132       1133       1116       1115       1133       1134       1117       1116       1134       1135       1118       1117       1135       1136       1119       1118       1136       1137       1120       1119       1137       1138       1121       1120        272        273       1123       1122        273        274       1124       1123        274        275       1125       1124        275        276       1126       1125        276        277       1127       1126        277        278       1128       1127        278        279       1129       1128        279        280       1130       1129        280        281       1131       1130        281        282       1132       1131        282        283       1133       1132        283        284       1134       1133        284        285       1135       1134        285        286       1136       1135        286        287       1137       1136        287        288       1138       1137 </DataArray>
<DataArray type="Int32"                                    Name="offsets"                                                      NumberOfComponents=" 1" format="ascii">
         4          8         12         16         20         24         28         32         36         40         44         48         52         56         60         64         68         72         76         80         84         88         92         96        100        104        108        112        116        120        124        128        132        136        140        144        148        152        156        160        164        168        172        176        180        184        188        192        196        200        204        208        212        216        220        224        228        232        236        240        244        248        252        256        260        264        268        272        276        280        284        288        292        296        300        304        308        312        316        320        324        328        332        336        340        344        348        352        356        360        364        368        372        376        380        384        388        392        396        400        404        408        412        416        420        424        428        432        436        440        444        448        452        456        460        464        468        472        476        480        484        488        492        496        500        504        508        512        516        520        524        528        532        536        540        544        548        552        556        560        564        568        572        576        580        584        588        592        596        600        604        608        612        616        620        624        628        632        636        640        644        648        652        656        660        664        668        672        676        680        684        688        692        696        700        704        708        712        716        720        724        728        732        736        740        744        748        752        756        760        764        768        772        776        780        784        788        792        796        800        804        808        812        816        820        824        828        832        836        840        844        848        852        856        860        864        868        872        876        880        884        888        892        896        900        904        908        912        916        920        924        928        932        936        940        944        948        952        956        960        964        968        972        976        980        984        988        992        996       1000       1004       1008       1012       1016       1020       1024       1028       1032       1036       1040       1044       1048       1052       1056       1060       1064       1068       1072       1076       1080       1084       1088       1092       1096       1100       1104       1108       1112       1116       1120       1124       1128       1132       1136       1140       1144       1148       1152       1156       1160       1164       1168       1172       1176       1180       1184       1188       1192       1196       1200       1204       1208       1212       1216       1220       1224       1228       1232       1236       1240       1244       1248       1252       1256       1260       1264       1268       1272       1276       1280       1284       1288       1292       1296       1300       1304       1308       1312       1316       1320       1324       1328       1332       1336       1340       1344       1348       1352       1356       1360       1364       1368       1372       1376       1380       1384       1388       1392       1396       1400       1404       1408       1412       1416       1420       1424       1428       1432       1436       1440       1444       1448       1452       1456       1460       1464       1468       1472       1476       1480       1484       1488       1492       1496       1500       1504       1508       1512       1516       1520       1524       1528       1532       1536       1540       1544       1548       1552       1556       1560       1564       1568       1572       1576       1580       1584       1588       1592       1596       1600       1604       1608       1612       1616       1620       1624       1628       1632       1636       1640       1644       1648       1652       1656       1660       1664       1668       1672       1676       1680       1684       1688       1692       1696       1700       1704       1708       1712       1716       1720       1724       1728       1732       1736       1740       1744       1748       1752       1756       1760       1764       1768       1772       1776       1780       1784       1788       1792       1796       1800       1804       1808       1812       1816       1820       1824       1828       1832       1836       1840       1844       1848       1852       1856       1860       1864       1868       1872       1876       1880       1884       1888       1892       1896       1900       1904       1908       1912       1916       1920       1924       1928       1932       1936       1940       1944       1948       1952       1956       1960       1964       1968       1972       1976       1980       1984       1988       1992       1996       2000       2004       2008       2012       2016       2020       2024       2028       2032       2036       2040       2044       2048       2052       2056       2060       2064       2068       2072       2076       2080       2084       2088       2092       2096       2100       2104       2108       2112       2116       2120       2124       2128       2132       2136       2140       2144       2148       2152       2156       2160       2164       2168       2172       2176       2180       2184       2188       2192       2196       2200       2204       2208       2212       2216       2220       2224       2228       2232       2236       2240       2244       2248       2252       2256       2260       2264       2268       2272       2276       2280       2284       2288       2292       2296       2300       2304       2308       2312       2316       2320       2324       2328       2332       2336       2340       2344       2348       2352       2356       2360       2364       2368       2372       2376       2380       2384       2388       2392       2396       2400       2404       2408       2412       2416       2420       2424       2428       2432       2436       2440       2444       2448       2452       2456       2460       2464       2468       2472       2476       2480       2484       2488       2492       2496       2500       2504       2508       2512       2516       2520       2524       2528       2532       2536       2540       2544       2548       2552       2556       2560       2564       2568       2572       2576       2580       2584       2588       2592       2596       2600       2604       2608       2612       2616       2620       2624       2628       2632       2636       2640       2644       2648       2652       2656       2660       2664       2668       2672       2676       2680       2684       2688       2692       2696       2700       2704       2708       2712       2716       2720       2724       2728       2732       2736       2740       2744       2748       2752       2756       2760       2764       2768       2772       2776       2780       2784       2788       2792       2796       2800       2804       2808       2812       2816       2820       2824       2828       2832       2836       2840       2844       2848       2852       2856       2860       2864       2868       2872       2876       2880       2884       2888       2892       2896       2900       2904       2908       2912       2916       2920       2924       2928       2932       2936       2940       2944       2948       2952       2956       2960       2964       2968       2972       2976       2980       2984       2988       2992       2996       3000       3004       3008       3012       3016       3020       3024       3028       3032       3036       3040       3044       3048       3052       3056       3060       3064       3068       3072       3076       3080       3084       3088       3092       3096       3100       3104       3108       3112       3116       3120       3124       3128       3132       3136       3140       3144       3148       3152       3156       3160       3164       3168       3172       3176       3180       3184       3188       3192       3196       3200       3204       3208       3212       3216       3220       3224       3228       3232       3236       3240       3244       3248       3252       3256       3260       3264       3268       3272       3276       3280       3284       3288       3292       3296       3300       3304       3308       3312       3316       3320       3324       3328       3332       3336       3340       3344       3348       3352       3356       3360       3364       3368       3372       3376       3380       3384       3388       3392       3396       3400       3404       3408       3412       3416       3420       3424       3428       3432       3436       3440       3444       3448       3452       3456       3460       3464       3468       3472       3476       3480       3484       3488       3492       3496       3500       3504       3508       3512       3516       3520       3524       3528       3532       3536       3540       3544       3548       3552       3556       3560       3564       3568       3572       3576       3580       3584       3588       3592       3596       3600       3604       3608       3612       3616       3620       3624       3628       3632       3636       3640       3644       3648       3652       3656       3660       3664       3668       3672       3676       3680       3684       3688       3692       3696       3700       3704       3708       3712       3716       3720       3724       3728       3732       3736       3740       3744       3748       3752       3756       3760       3764       3768       3772       3776       3780       3784       3788       3792       3796       3800       3804       3808       3812       3816       3820       3824       3828       3832       3836       3840       3844       3848       3852       3856       3860       3864       3868       3872       3876       3880       3884       3888       3892       3896       3900       3904       3908       3912       3916       3920       3924       3928       3932       3936       3940       3944       3948       3952       3956       3960       3964       3968       3972       3976       3980       3984       3988       3992       3996       4000       4004       4008       4012       4016       4020       4024       4028       4032       4036       4040       4044       4048       4052       4056       4060       4064       4068       4072       4076       4080       4084       4088       4092       4096 </DataArray>
<DataArray type="UInt8"                                    Name="types"                                                      NumberOfComponents=" 1" format="ascii">
         9          9          9          9          9          9          9          9          9          9          9          9          9          9          9          9          9          9          9          9          9          9          9          9          9          9          9          9          9          9          9          9          9          9          9          9          9          9          9          9          9          9          9          9          9          9          9          9          9          9          9          9          9          9          9          9          9          9          9          9          9          9          9          9          9          9          9          9          9          9          9          9          9          9          9          9          9          9          9          9          9          9          9          9          9          9          9          9          9          9          9          9          9          9          9          9          9          9          9          9          9          9          9          9          9          9          9          9          9          9          9          9          9          9          9          9          9          9          9          9          9          9          9          9          9          9          9          9          9          9          9          9          9          9          9          9          9          9          9          9          9          9          9          9          9          9          9          9          9          9          9          9          9          9          9          9          9          9          9          9          9          9          9          9          9          9          9          9          9          9          9          9          9          9          9          9          9          9          9          9          9          9          9          9          9          9          9          9          9          9          9          9          9          9          9          9          9          9          9          9          9          9          9          9          9          9          9          9          9          9          9          9          9          9          9          9          9          9          9          9          9          9          9          9          9          9          9          9          9          9          9          9          9          9          9          9          9          9          9          9          9          9          9          9          9          9          9          9          9          9          9          9          9          9          9          9          9          9          9          9          9          9          9          9          9          9          9          9          9          9          9          9          9          9          9          9          9          9          9          9          9          9          9          9          9          9          9          9          9          9          9          9          9          9          9          9          9          9          9          9          9          9          9          9          9          9          9          9          9          9          9          9          9          9          9          9          9          9          9          9          9          9          9          9          9          9          9          9          9          9          9          9          9          9          9          9          9          9          9          9          9          9          9          9          9          9          9          9          9          9          9          9          9          9          9          9          9          9          9          9          9          9          9          9          9          9          9          9          9          9          9          9          9          9          9          9          9          9          9          9          9          9          9          9          9          9          9          9          9          9          9          9          9          9          9          9          9          9          9          9          9          9          9          9          9          9          9          9          9          9          9          9          9          9          9          9          9          9          9          9          9          9          9          9          9          9          9          9          9          9          9          9          9          9          9          9          9          9          9          9          9          9          9          9          9          9          9          9          9          9          9          9          9          9          9          9          9          9          9          9          9          9          9          9          9          9          9          9          9          9          9          9          9          9          9          9          9          9          9          9          9          9          9          9          9          9          9          9          9          9          9          9          9          9          9          9          9          9          9          9          9          9          9          9          9          9          9          9          9          9          9          9          9          9          9          9          9          9          9          9          9          9          9          9          9          9          9          9          9          9          9          9          9          9          9          9          9          9          9          9          9          9          9          9          9          9          9          9          9          9          9          9          9          9          9          9          9          9          9          9          9          9          9          9          9          9          9          9          9          9          9          9          9          9          9          9          9          9          9          9          9          9          9          9          9          9          9          9          9          9          9          9          9          9          9          9          9          9          9          9          9          9          9          9          9          9          9          9          9          9          9          9          9          9          9          9          9          9          9          9          9          9          9          9          9          9          9          9          9          9          9          9          9          9          9          9          9          9          9          9          9          9          9          9          9          9          9          9          9          9          9          9          9          9          9          9          9          9          9          9          9          9          9          9          9          9          9          9          9          9          9          9          9          9          9          9          9          9          9          9          9          9          9          9          9          9          9          9          9          9          9          9          9          9          9          9          9          9          9          9          9          9          9          9          9          9          9          9          9          9          9          9          9          9          9          9          9          9          9          9          9          9          9          9          9          9          9          9          9          9          9          9          9          9          9          9          9          9          9          9          9          9          9          9          9          9          9          9          9          9          9          9          9          9          9          9          9          9          9          9          9          9          9          9          9          9          9          9          9          9          9          9          9          9          9          9          9          9          9          9          9          9          9          9          9          9          9          9          9          9          9          9          9          9          9          9          9          9          9          9          9          9          9          9          9          9          9          9          9          9          9          9          9          9          9          9          9          9          9          9          9          9          9          9          9          9          9          9          9          9          9          9          9          9          9          9          9          9          9          9          9          9          9          9          9          9          9          9          9          9          9          9          9          9          9          9          9          9          9          9          9          9          9          9          9          9          9          9          9          9          9          9          9          9          9          9          9          9          9          9          9          9          9          9          9          9          9          9          9          9          9          9          9          9          9          9          9          9          9          9          9          9          9          9          9          9          9          9          9          9          9          9          9          9          9          9          9          9          9          9          9          9          9          9          9          9          9          9          9          9          9          9          9          9          9          9          9          9          9          9          9          9          9          9          9          9          9          9          9          9          9          9          9          9          9          9          9          9          9          9          9          9          9          9          9          9          9          9          9          9          9          9          9          9          9          9          9          9          9          9          9          9          9          9          9          9          9          9          9          9          9          9          9          9          9          9          9          9          9          9          9          9          9          9          9          9          9          9          9          9          9          9          9          9          9          9          9          9          9          9          9          9          9          9 </DataArray>
</Cells>
<CellData>
<DataArray type="Int32"                                    Name="material"                                                      NumberOfComponents=" 1" format="ascii">
         1          1          1          1          1          1          1          1          1          1          1          1          1          1          1          1          1          1          1          1          1          1          1          1          1          1          1          1          1          1          1          1          1          1          1          1          1          1          1          1          1          1          1          1          1          1          1          1          1          1          1          1          1          1          1          1          1          1          1          1          1          1          1          1          1          1          1          1          1          1          1          1          1          1          1          1          1          1          1          1          1          1          1          1          1          1          1          1          1          1          1          1          1          1          1          1          1          1          1          1          1          1          1          1          1          1          1          1          1          1          1          1          1          1          1          1          1          1          1          1          1          1          1          1          1          1          1          1          1          1          1          1          1          1          1          1          1          1          1          1          1          1          1          1          1          1          1          1          1          1          1          1          1          1          1          1          1          1          1          1          1          1          1          1          1          1          1          1          1          1          1          1          1          1          1          1          1          1          1          1          1          1          1          1          1          1          1          1          1          1          1          1          1          1          1          1          1          1          1          1          1          1          1          1          1          1          1          1          1          1          1          1          1          1          1          1          1          1          1          1          1          1          1          1          1          1          1          1          1          1          1          1          1          1          1          1          1          1          1          1          1          1          1          1          1          1          1          1          1          1          1          1          1          1          1          1          1          1          1          1          1          1          1          1          1          1          1          1          1          1          1          1          1          1          1          1          1          1          1          1          1          1          1          1          1          1          1          1          1          1          1          1          1          1          1          1          1          1          1          1          1          1          1          1          1          1          1          1          1          1          1          1          1          1          1          1          1          1          1          1          1          1          1          1          1          1          1          1          1          1          1          1          1          1          1          1          1          1          1          1          1          1          1          1          1          1          1          1          1          1          1          1          1          1          1          1          1          1          1          1          1          1          1          1          1          1          1          1          1          1          1          1          1          1          1          1          1          1          1          1          1          1          1          1          1          1          1          1          1          1          1          1          1          1          1          1          1          1          1          1          1          1          1          1          1          1          1          1          1          1          1          1          1          1          1          1          1          1          1          1          1          1          1          1          1          1          1          1          1          1          1          1          1          1          1          1          1          1          1          1          1          1          1          1          1          1          1          1          1          1          1          1          1          1          1          1          1          1          1          1          1          1          1          1          1          1          1          1          1          1          1          1          1          1          1          1          1          1          1          1          1          1          1          1          1          1          1          1          1          1          1          1          1          1          1          1          1          1          1          1          1          1          1          1          1          1          1          1          1          1          1          1          1          1          1          1          1          1          1          1          1          1          1          1          1          1          1          1          1          1          1          1          1          1          1          1          1          1          1          1          1          1          1          1          1          1          1          1          1          1          1          1          1          1          1          1          1          1          1          1          1          1          1          1          1          1          1          1          1          1          1          1          1          1          1          1          1          1          1          1          1          1          1          1          1          1          1          1          1          1          1          1          1          1          1          1          1          1          1          1          1          1          1          1          1          1          1          1          1          1          1          1          1          1          1          1          1          1          1          1          1          1          1          1          1          1          1          1          1          1          1          1          1          1          1          1          1          1          1          1          1          1          1          1          1          1          1          1          1          1          1          1          1          1          1          1          1          1          1          1          1          1          1          1          1          1          1          1          1          1          1          1          1          1          1          1          1          1          1          1          1          1          1          1          1          1          1          1          1          1          1          1          1          1          1          1          1          1          1          1          1          1          1          1          1          1          1          1          1          1          1          1          1          1          1          1          1          1          1          1          1          1          1          1          1          1          1          1          1          1          1          1          1          1          1          1          1          1          1          1          1          1          1          1          1          1          1          1          1          1          1          1          1          1          1          1          1          1          1          1          1          1          1          1          1          1          1          1          1          1          1          1          1          1          1          1          1          1          1          1          1          1          1          1          1          1          1          1          1          1          1          1          1          1          1          1          1          1          1          1          1          1          1          1          1          1          1          1          1          1          1          1          1          1          1          1          1          1          1          1          1          1          1          1          1          1          1          1          1          1          1          1          1          1          1          1          1          1          1          1          1          1          1          1          1          1          1          1          1          1          1          1          1          1          1          1          1          1          1          1          1          1          1          1          1          1          1          1          1          1          1          1          1          1          1          1          1          1          1          1          1          1          1          1          1          1          1          1          1          1          1          1          1          1          1          1          1          1          1          1          1          1          1          1          1          1          1          1          1          1          1          1          1          1          1          1          1          1          1          1          1          1          1          1          1          1          1          1          1          1          1          1          1          1          1          1          1          1          1          1          1          1          1          1          1          1          1          1          1          1          1          1          1          1          1          1          1          1          1          1          1          1          1          1          1          1          1          1          1          1          1          1          1          1          1          1          1          1          1          1          1          1          1          1          1          1          1          1          1          1          1          1          1          1          1          1          1          1          1          1          1          1          1          1          1          1          1          1          1          1          1          1          1          1          1          1          1          1          1          1          1          1          1          1 </DataArray>
</CellData>
<PointData>
<DataArray type="Float64"                                    Name="u"                                                      NumberOfComponents=" 3" format="ascii">
             -0.000839656               0.000000000               0.999999989              -0.000884744               0.000000000               0.999999989              -0.000903649               0.000000000               0.999999989              -0.000913983              -0.000000000               0.999999989              -0.000922154               0.000000000               0.999999989              -0.000930353               0.000000000               0.999999989              -0.000939476               0.000000000               0.999999989              -0.000949532               0.000000000               0.999999989              -0.000960201              -0.000000000               0.999999989              -0.000971055              -0.000000000               0.999999989              -0.000981783              -0.000000000               0.999999989              -0.000991889              -0.000000000               0.999999989              -0.001001164               0.000000000               0.999999989              -0.001009374               0.000000000               0.999999989              -0.001016033              -0.000000000               0.999999989              -0.001020741               0.000000000               0.999999989              -0.001022751               0.000000000               0.999999989              -0.000835079               0.000117911               0.999999989              -0.000876330               0.000093307               0.999999989              -0.000892766               0.000081694               0.999999989              -0.000901375               0.000076500               0.999999989              -0.000908301               0.000074466               0.999999989              -0.000915639               0.000073961               0.999999989              -0.000923933               0.000073927               0.999999989              -0.000933075               0.000073714               0.999999989              -0.000942753               0.000072908               0.999999989              -0.000952476               0.000071142               0.999999989              -0.000961798               0.000068175               0.999999989              -0.000970431               0.000063770               0.999999989              -0.000978091               0.000057581               0.999999989              -0.000984382               0.000049140               0.999999989              -0.000988951               0.000037762               0.999999989              -0.000991406               0.000022671               0.999999989              -0.000991223               0.000002871               0.999999989              -0.000821638               0.000234806               0.999999989              -0.000851605               0.000186319               0.999999989              -0.000860878               0.000164197               0.999999989              -0.000864831               0.000154812               0.999999989              -0.000868530               0.000151678               0.999999989              -0.000873353               0.000151221               0.999999989              -0.000879323               0.000151559               0.999999989              -0.000886094               0.000151390               0.999999989              -0.000893067               0.000149870               0.999999989              -0.000899631               0.000146405               0.999999989              -0.000905263               0.000140639               0.999999989              -0.000909652               0.000132178               0.999999989              -0.000912431               0.000120241               0.999999989              -0.000913246               0.000104032               0.999999989              -0.000911885               0.000082705               0.999999989              -0.000908158               0.000055285               0.999999989              -0.000901975               0.000020463               0.999999989              -0.000799429               0.000349743               0.999999989              -0.000811514               0.000278780               0.999999989              -0.000810333               0.000248319               0.999999989              -0.000808043               0.000236486               0.999999989              -0.000807605               0.000233384               0.999999989              -0.000809108               0.000233878               0.999999989              -0.000812013               0.000235136               0.999999989              -0.000815346               0.000235439               0.999999989              -0.000818282               0.000233416               0.999999989              -0.000820172               0.000228366               0.999999989              -0.000820481               0.000219876               0.999999989              -0.000818757               0.000207390               0.999999989              -0.000814553               0.000190041               0.999999989              -0.000807644               0.000167148               0.999999989              -0.000798021               0.000138053               0.999999989              -0.000785867               0.000102130               0.999999989              -0.000771348               0.000058633               0.999999989              -0.000768584               0.000461736               0.999999989              -0.000757846               0.000370756               0.999999989              -0.000745029               0.000334727               0.999999989              -0.000736518               0.000322334               0.999999989              -0.000732313               0.000320364               0.999999989              -0.000730876               0.000322378               0.999999989              -0.000730505               0.000324749               0.999999989              -0.000729812               0.000325488               0.999999989              -0.000727928               0.000323027               0.999999989              -0.000724083               0.000316445               0.999999989              -0.000717725               0.000305101               0.999999989              -0.000708243               0.000288686               0.999999989              -0.000695458               0.000266449               0.999999989              -0.000679364               0.000237995               0.999999989              -0.000660131               0.000203187               0.999999989              -0.000638121               0.000161959               0.999999989              -0.000613882               0.000114553               0.999999989              -0.000729803               0.000569680               0.999999989              -0.000693323               0.000462450               0.999999989              -0.000669668               0.000423655               0.999999989              -0.000656503               0.000412188               0.999999989              -0.000649759               0.000412011               0.999999989              -0.000645897               0.000415784               0.999999989              -0.000642304               0.000419031               0.999999989              -0.000637345               0.000419838               0.999999989              -0.000629893               0.000416647               0.999999989              -0.000619187               0.000408268               0.999999989              -0.000604687               0.000394187               0.999999989              -0.000585999               0.000374073               0.999999989              -0.000563132               0.000347888               0.999999989              -0.000536447               0.000315597               0.999999989              -0.000506448               0.000277293               0.999999989              -0.000473913               0.000233744               0.999999989              -0.000439866               0.000186449               0.999999989              -0.000683855               0.000672604               0.999999989              -0.000621170               0.000553971               0.999999989              -0.000589308               0.000514762               0.999999989              -0.000573805               0.000505123               0.999999989              -0.000565812               0.000506894               0.999999989              -0.000560144               0.000512113               0.999999989              -0.000553436               0.000515810               0.999999989              -0.000543707               0.000516119               0.999999989              -0.000529889               0.000511813               0.999999989              -0.000511261               0.000501424               0.999999989              -0.000487271               0.000484668               0.999999989              -0.000458109               0.000461631               0.999999989              -0.000424132               0.000432630               0.999999989              -0.000386188               0.000398005               0.999999989              -0.000345162               0.000358484               0.999999989              -0.000302271               0.000315594               0.999999989              -0.000258931               0.000271485               0.999999989              -0.000631577               0.000769609               0.999999989              -0.000544895               0.000645153               0.999999989              -0.000508406               0.000607258               0.999999989              -0.000493008               0.000599597               0.999999989              -0.000484988               0.000602889               0.999999989              -0.000477777               0.000608950               0.999999989              -0.000467522               0.000612634               0.999999989              -0.000452448               0.000612150               0.999999989              -0.000431312               0.000606413               0.999999989              -0.000403444               0.000594014               0.999999989              -0.000368804               0.000575064               0.999999989              -0.000328187               0.000549977               0.999999989              -0.000282495               0.000519429               0.999999989              -0.000232912               0.000484308               0.999999989              -0.000180806               0.000445931               0.999999989              -0.000127846               0.000405996               0.999999989              -0.000075208               0.000366748               0.999999989              -0.000574663               0.000858899               0.999999989              -0.000466980               0.000736067               0.999999989              -0.000430857               0.000699802               0.999999989              -0.000417449               0.000693478               0.999999989              -0.000409979               0.000697825               0.999999989              -0.000401069               0.000704254               0.999999989              -0.000386854               0.000707704               0.999999989              -0.000365465               0.000706341               0.999999989              -0.000335776               0.000698841               0.999999989              -0.000297259               0.000684657               0.999999989              -0.000250851               0.000664185               0.999999989              -0.000197888               0.000638325               0.999999989              -0.000139573               0.000608036               0.999999989              -0.000077607               0.000574664               0.999999989              -0.000013812               0.000540082               0.999999989               0.000050205               0.000505993               0.999999989               0.000113613               0.000473324               0.999999989              -0.000515441               0.000943820               0.999999989              -0.000401382               0.000839062               0.999999989              -0.000363206               0.000799725               0.999999989              -0.000349345               0.000789540               0.999999989              -0.000342428               0.000791489               0.999999989              -0.000335327               0.000797731               0.999999989              -0.000324270               0.000803765               0.999999989              -0.000307065               0.000806928               0.999999989              -0.000282500               0.000806063               0.999999989              -0.000249679               0.000800288               0.999999989              -0.000209059               0.000789713               0.999999989              -0.000161450               0.000774763               0.999999989              -0.000107532               0.000756172               0.999999989              -0.000048333               0.000734728               0.999999989               0.000014734               0.000711495               0.999999989               0.000080071               0.000687884               0.999999989               0.000146126               0.000665214               0.999999989              -0.000450692               0.001021526               0.999999989              -0.000338071               0.000939235               0.999999989              -0.000297886               0.000902835               0.999999989              -0.000282853               0.000890858               0.999999989              -0.000275859               0.000891450               0.999999989              -0.000269775               0.000897759               0.999999989              -0.000261153               0.000905929               0.999999989              -0.000247603               0.000913283               0.999999989              -0.000227629               0.000918256               0.999999989              -0.000200438               0.000919983               0.999999989              -0.000165750               0.000918025               0.999999989              -0.000124054               0.000912642               0.999999989              -0.000075537               0.000904154               0.999999989              -0.000020935               0.000893289               0.999999989               0.000038956               0.000880623               0.999999989               0.000103088               0.000867108               0.999999989               0.000169424               0.000853613               0.999999989              -0.000381769               0.001089954               0.999999989              -0.000277050               0.001033502               0.999999989              -0.000236581               0.001004278               0.999999989              -0.000220316               0.000993614               0.999999989              -0.000212765               0.000994280               0.999999989              -0.000207229               0.001001301               0.999999989              -0.000200206               0.001011552               0.999999989              -0.000189569               0.001022705               0.999999989              -0.000173796               0.001033040               0.999999989              -0.000151940               0.001041561               0.999999989              -0.000123451               0.001047563               0.999999989              -0.000088010               0.001050846               0.999999989              -0.000045651               0.001051611               0.999999989               0.000003249               0.001050264               0.999999989               0.000058329               0.001047155               0.999999989               0.000119126               0.001042979               0.999999989               0.000184597               0.001038485               0.999999989              -0.000309477               0.001147584               0.999999989              -0.000218468               0.001117629               0.999999989              -0.000180298               0.001098736               0.999999989              -0.000163717               0.001092089               0.999999989              -0.000155705               0.001094624               0.999999989              -0.000150284               0.001103333               0.999999989              -0.000144303               0.001115938               0.999999989              -0.000136082               0.001130539               0.999999989              -0.000124021               0.001145793               0.999999989              -0.000107107               0.001160516               0.999999989              -0.000084576               0.001173958               0.999999989              -0.000055903               0.001185621               0.999999989              -0.000020715               0.001195225               0.999999989               0.000021271               0.001202857               0.999999989               0.000070083               0.001208807               0.999999989               0.000126084               0.001213516               0.999999989               0.000189357               0.001217736               0.999999989              -0.000234405               0.001193486               0.999999989              -0.000162025               0.001187554               0.999999989              -0.000129446               0.001180225               0.999999989              -0.000114254               0.001179301               0.999999989              -0.000106428               0.001185108               0.999999989              -0.000101187               0.001196487               0.999999989              -0.000096134               0.001211771               0.999999989              -0.000090081               0.001229727               0.999999989              -0.000081418               0.001249298               0.999999989              -0.000068982               0.001269567               0.999999989              -0.000052300               0.001289774               0.999999989              -0.000030579               0.001309257               0.999999989              -0.000003196               0.001327561               0.999999989               0.000030360               0.001344310               0.999999989               0.000070871               0.001359547               0.999999989               0.000119408               0.001373454               0.999999989               0.000177287               0.001386329               0.999999989              -0.000157315               0.001226800               0.999999989              -0.000107204               0.001239849               0.999999989              -0.000083384               0.001243097               0.999999989              -0.000071596               0.001248308               0.999999989              -0.000065124               0.001257908               0.999999989              -0.000060831               0.001272029               0.999999989              -0.000057091               0.001289951               0.999999989              -0.000053012               0.001310924               0.999999989              -0.000047321               0.001334181               0.999999989              -0.000039249               0.001359073               0.999999989              -0.000028192               0.001384920               0.999999989              -0.000013539               0.001411043               0.999999989               0.000005288               0.001436832               0.999999989               0.000028804               0.001461858               0.999999989               0.000058137               0.001485790               0.999999989               0.000094715               0.001508390               0.999999989               0.000140422               0.001529518               0.999999989              -0.000078958               0.001247027               0.999999989              -0.000053359               0.001272220               0.999999989              -0.000040763               0.001282859               0.999999989              -0.000034297               0.001292577               0.999999989              -0.000030656               0.001305186               0.999999989              -0.000028169               0.001321545               0.999999989              -0.000026154               0.001341442               0.999999989              -0.000024004               0.001364559               0.999999989              -0.000021181               0.001390366               0.999999989              -0.000017250               0.001418357               0.999999989              -0.000011799               0.001447970               0.999999989              -0.000004417               0.001478597               0.999999989               0.000005100               0.001509624               0.999999989               0.000017282               0.001540610               0.999999989               0.000032733               0.001571071               0.999999989               0.000052516               0.001600450               0.999999989               0.000078189               0.001628016               0.999999989               0.000000000               0.001253830               0.999999989               0.000000000               0.001283179               0.999999989              -0.000000000               0.001296481               0.999999989              -0.000000000               0.001307915               0.999999989              -0.000000000               0.001321668               0.999999989               0.000000000               0.001338875               0.999999989               0.000000000               0.001359539               0.999999989              -0.000000000               0.001383473               0.999999989              -0.000000000               0.001410251               0.999999989               0.000000000               0.001439421               0.999999989               0.000000000               0.001470389               0.999999989               0.000000000               0.001502577               0.999999989               0.000000000               0.001535445               0.999999989              -0.000000000               0.001568541               0.999999989               0.000000000               0.001601405               0.999999989              -0.000000000               0.001633367               0.999999989              -0.000000000               0.001663430               0.999999989              -0.000839656               0.000000000               0.999999989              -0.000884744               0.000000000               0.999999989              -0.000903649               0.000000000               0.999999989              -0.000913983              -0.000000000               0.999999989              -0.000922154               0.000000000               0.999999989              -0.000930353               0.000000000               0.999999989              -0.000939476               0.000000000               0.999999989              -0.000949532               0.000000000               0.999999989              -0.000960201              -0.000000000               0.999999989              -0.000971055              -0.000000000               0.999999989              -0.000981783              -0.000000000               0.999999989              -0.000991889              -0.000000000               0.999999989              -0.001001164               0.000000000               0.999999989              -0.001009374               0.000000000               0.999999989              -0.001016033              -0.000000000               0.999999989              -0.001020741               0.000000000               0.999999989              -0.001022751               0.000000000               0.999999989              -0.000835079              -0.000117911               0.999999989              -0.000876330              -0.000093307               0.999999989              -0.000892766              -0.000081694               0.999999989              -0.000901375              -0.000076500               0.999999989              -0.000908301              -0.000074466               0.999999989              -0.000915639              -0.000073961               0.999999989              -0.000923933              -0.000073927               0.999999989              -0.000933075              -0.000073714               0.999999989              -0.000942753              -0.000072908               0.999999989              -0.000952476              -0.000071142               0.999999989              -0.000961798              -0.000068175               0.999999989              -0.000970431              -0.000063770               0.999999989              -0.000978091              -0.000057581               0.999999989              -0.000984382              -0.000049140               0.999999989              -0.000988951              -0.000037762               0.999999989              -0.000991406              -0.000022671               0.999999989              -0.000991223              -0.000002871               0.999999989              -0.000821638              -0.000234806               0.999999989              -0.000851605              -0.000186319               0.999999989              -0.000860878              -0.000164197               0.999999989              -0.000864831              -0.000154812               0.999999989              -0.000868530              -0.000151678               0.999999989              -0.000873353              -0.000151221               0.999999989              -0.000879323              -0.000151559               0.999999989              -0.000886094              -0.000151390               0.999999989              -0.000893067              -0.000149870               0.999999989              -0.000899631              -0.000146405               0.999999989              -0.000905263              -0.000140639               0.999999989              -0.000909652              -0.000132178               0.999999989              -0.000912431              -0.000120241               0.999999989              -0.000913246              -0.000104032               0.999999989              -0.000911885              -0.000082705               0.999999989              -0.000908158              -0.000055285               0.999999989              -0.000901975              -0.000020463               0.999999989              -0.000799429              -0.000349743               0.999999989              -0.000811514              -0.000278780               0.999999989              -0.000810333              -0.000248319               0.999999989              -0.000808043              -0.000236486               0.999999989              -0.000807605              -0.000233384               0.999999989              -0.000809108              -0.000233878               0.999999989              -0.000812013              -0.000235136               0.999999989              -0.000815346              -0.000235439               0.999999989              -0.000818282              -0.000233416               0.999999989              -0.000820172              -0.000228366               0.999999989              -0.000820481              -0.000219876               0.999999989              -0.000818757              -0.000207390               0.999999989              -0.000814553              -0.000190041               0.999999989              -0.000807644              -0.000167148               0.999999989              -0.000798021              -0.000138053               0.999999989              -0.000785867              -0.000102130               0.999999989              -0.000771348              -0.000058633               0.999999989              -0.000768584              -0.000461736               0.999999989              -0.000757846              -0.000370756               0.999999989              -0.000745029              -0.000334727               0.999999989              -0.000736518              -0.000322334               0.999999989              -0.000732313              -0.000320364               0.999999989              -0.000730876              -0.000322378               0.999999989              -0.000730505              -0.000324749               0.999999989              -0.000729812              -0.000325488               0.999999989              -0.000727928              -0.000323027               0.999999989              -0.000724083              -0.000316445               0.999999989              -0.000717725              -0.000305101               0.999999989              -0.000708243              -0.000288686               0.999999989              -0.000695458              -0.000266449               0.999999989              -0.000679364              -0.000237995               0.999999989              -0.000660131              -0.000203187               0.999999989              -0.000638121              -0.000161959               0.999999989              -0.000613882              -0.000114553               0.999999989              -0.000729803              -0.000569680               0.999999989              -0.000693323              -0.000462450               0.999999989              -0.000669668              -0.000423655               0.999999989              -0.000656503              -0.000412188               0.999999989              -0.000649759              -0.000412011               0.999999989              -0.000645897              -0.000415784               0.999999989              -0.000642304              -0.000419031               0.999999989              -0.000637345              -0.000419838               0.999999989              -0.000629893              -0.000416647               0.999999989              -0.000619187              -0.000408268               0.999999989              -0.000604687              -0.000394187               0.999999989              -0.000585999              -0.000374073               0.999999989              -0.000563132              -0.000347888               0.999999989              -0.000536447              -0.000315597               0.999999989              -0.000506448              -0.000277293               0.999999989              -0.000473913              -0.000233744               0.999999989              -0.000439866              -0.000186449               0.999999989              -0.000683855              -0.000672604               0.999999989              -0.000621170              -0.000553971               0.999999989              -0.000589308              -0.000514762               0.999999989              -0.000573805              -0.000505123               0.999999989              -0.000565812              -0.000506894               0.999999989              -0.000560144              -0.000512113               0.999999989              -0.000553436              -0.000515810               0.999999989              -0.000543707              -0.000516119               0.999999989              -0.000529889              -0.000511813               0.999999989              -0.000511261              -0.000501424               0.999999989              -0.000487271              -0.000484668               0.999999989              -0.000458109              -0.000461631               0.999999989              -0.000424132              -0.000432630               0.999999989              -0.000386188              -0.000398005               0.999999989              -0.000345162              -0.000358484               0.999999989              -0.000302271              -0.000315594               0.999999989              -0.000258931              -0.000271485               0.999999989              -0.000631577              -0.000769609               0.999999989              -0.000544895              -0.000645153               0.999999989              -0.000508406              -0.000607258               0.999999989              -0.000493008              -0.000599597               0.999999989              -0.000484988              -0.000602889               0.999999989              -0.000477777              -0.000608950               0.999999989              -0.000467522              -0.000612634               0.999999989              -0.000452448              -0.000612150               0.999999989              -0.000431312              -0.000606413               0.999999989              -0.000403444              -0.000594014               0.999999989              -0.000368804              -0.000575064               0.999999989              -0.000328187              -0.000549977               0.999999989              -0.000282495              -0.000519429               0.999999989              -0.000232912              -0.000484308               0.999999989              -0.000180806              -0.000445931               0.999999989              -0.000127846              -0.000405996               0.999999989              -0.000075208              -0.000366748               0.999999989              -0.000574663              -0.000858899               0.999999989              -0.000466980              -0.000736067               0.999999989              -0.000430857              -0.000699802               0.999999989              -0.000417449              -0.000693478               0.999999989              -0.000409979              -0.000697825               0.999999989              -0.000401069              -0.000704254               0.999999989              -0.000386854              -0.000707704               0.999999989              -0.000365465              -0.000706341               0.999999989              -0.000335776              -0.000698841               0.999999989              -0.000297259              -0.000684657               0.999999989              -0.000250851              -0.000664185               0.999999989              -0.000197888              -0.000638325               0.999999989              -0.000139573              -0.000608036               0.999999989              -0.000077607              -0.000574664               0.999999989              -0.000013812              -0.000540082               0.999999989               0.000050205              -0.000505993               0.999999989               0.000113613              -0.000473324               0.999999989              -0.000515441              -0.000943820               0.999999989              -0.000401382              -0.000839062               0.999999989              -0.000363206              -0.000799725               0.999999989              -0.000349345              -0.000789540               0.999999989              -0.000342428              -0.000791489               0.999999989              -0.000335327              -0.000797731               0.999999989              -0.000324270              -0.000803765               0.999999989              -0.000307065              -0.000806928               0.999999989              -0.000282500              -0.000806063               0.999999989              -0.000249679              -0.000800288               0.999999989              -0.000209059              -0.000789713               0.999999989              -0.000161450              -0.000774763               0.999999989              -0.000107532              -0.000756172               0.999999989              -0.000048333              -0.000734728               0.999999989               0.000014734              -0.000711495               0.999999989               0.000080071              -0.000687884               0.999999989               0.000146126              -0.000665214               0.999999989              -0.000450692              -0.001021526               0.999999989              -0.000338071              -0.000939235               0.999999989              -0.000297886              -0.000902835               0.999999989              -0.000282853              -0.000890858               0.999999989              -0.000275859              -0.000891450               0.999999989              -0.000269775              -0.000897759               0.999999989              -0.000261153              -0.000905929               0.999999989              -0.000247603              -0.000913283               0.999999989              -0.000227629              -0.000918256               0.999999989              -0.000200438              -0.000919983               0.999999989              -0.000165750              -0.000918025               0.999999989              -0.000124054              -0.000912642               0.999999989              -0.000075537              -0.000904154               0.999999989              -0.000020935              -0.000893289               0.999999989               0.000038956              -0.000880623               0.999999989               0.000103088              -0.000867108               0.999999989               0.000169424              -0.000853613               0.999999989              -0.000381769              -0.001089954               0.999999989              -0.000277050              -0.001033502               0.999999989              -0.000236581              -0.001004278               0.999999989              -0.000220316              -0.000993614               0.999999989              -0.000212765              -0.000994280               0.999999989              -0.000207229              -0.001001301               0.999999989              -0.000200206              -0.001011552               0.999999989              -0.000189569              -0.001022705               0.999999989              -0.000173796              -0.001033040               0.999999989              -0.000151940              -0.001041561               0.999999989              -0.000123451              -0.001047563               0.999999989              -0.000088010              -0.001050846               0.999999989              -0.000045651              -0.001051611               0.999999989               0.000003249              -0.001050264               0.999999989               0.000058329              -0.001047155               0.999999989               0.000119126              -0.001042979               0.999999989               0.000184597              -0.001038485               0.999999989              -0.000309477              -0.001147584               0.999999989              -0.000218468              -0.001117629               0.999999989              -0.000180298              -0.001098736               0.999999989              -0.000163717              -0.001092089               0.999999989              -0.000155705              -0.001094624               0.999999989              -0.000150284              -0.001103333               0.999999989              -0.000144303              -0.001115938               0.999999989              -0.000136082              -0.001130539               0.999999989              -0.000124021              -0.001145793               0.999999989              -0.000107107              -0.001160516               0.999999989              -0.000084576              -0.001173958               0.999999989              -0.000055903              -0.001185621               0.999999989              -0.000020715              -0.001195225               0.999999989               0.000021271              -0.001202857               0.999999989               0.000070083              -0.001208807               0.999999989               0.000126084              -0.001213516               0.999999989               0.000189357              -0.001217736               0.999999989              -0.000234405              -0.001193486               0.999999989              -0.000162025              -0.001187554               0.999999989              -0.000129446              -0.001180225               0.999999989              -0.000114254              -0.001179301               0.999999989              -0.000106428              -0.001185108               0.999999989              -0.000101187              -0.001196487               0.999999989              -0.000096134              -0.001211771               0.999999989              -0.000090081              -0.001229727               0.999999989              -0.000081418              -0.001249298               0.999999989              -0.000068982              -0.001269567               0.999999989              -0.000052300              -0.001289774               0.999999989              -0.000030579              -0.001309257               0.999999989              -0.000003196              -0.001327561               0.999999989               0.000030360              -0.001344310               0.999999989               0.000070871              -0.001359547               0.999999989               0.000119408              -0.001373454               0.999999989               0.000177287              -0.001386329               0.999999989              -0.000157315              -0.001226800               0.999999989              -0.000107204              -0.001239849               0.999999989              -0.000083384              -0.001243097               0.999999989              -0.000071596              -0.001248308               0.999999989              -0.000065124              -0.001257908               0.999999989              -0.000060831              -0.001272029               0.999999989              -0.000057091              -0.001289951               0.999999989              -0.000053012              -0.001310924               0.999999989              -0.000047321              -0.001334181               0.999999989              -0.000039249              -0.001359073               0.999999989              -0.000028192              -0.001384920               0.999999989              -0.000013539              -0.001411043               0.999999989               0.000005288              -0.001436832               0.999999989               0.000028804              -0.001461858               0.999999989               0.000058137              -0.001485790               0.999999989               0.000094715              -0.001508390               0.999999989               0.000140422              -0.001529518               0.999999989              -0.000078958              -0.001247027               0.999999989              -0.000053359              -0.001272220               0.999999989              -0.000040763              -0.001282859               0.999999989              -0.000034297              -0.001292577               0.999999989              -0.000030656              -0.001305186               0.999999989              -0.000028169              -0.001321545               0.999999989              -0.000026154              -0.001341442               0.999999989              -0.000024004              -0.001364559               0.999999989              -0.000021181              -0.001390366               0.999999989              -0.000017250              -0.001418357               0.999999989              -0.000011799              -0.001447970               0.999999989              -0.000004417              -0.001478597               0.999999989               0.000005100              -0.001509624               0.999999989               0.000017282              -0.001540610               0.999999989               0.000032733              -0.001571071               0.999999989               0.000052516              -0.001600450               0.999999989               0.000078189              -0.001628016               0.999999989               0.000000000              -0.001253830               0.999999989               0.000000000              -0.001283179               0.999999989              -0.000000000              -0.001296481               0.999999989               0.000000000              -0.001307915               0.999999989               0.000000000              -0.001321668               0.999999989              -0.000000000              -0.001338875               0.999999989               0.000000000              -0.001359539               0.999999989               0.000000000              -0.001383473               0.999999989              -0.000000000              -0.001410251               0.999999989              -0.000000000              -0.001439421               0.999999989               0.000000000              -0.001470389               0.999999989               0.000000000              -0.001502577               0.999999989              -0.000000000              -0.001535445               0.999999989               0.000000000              -0.001568541               0.999999989               0.000000000              -0.001601405               0.999999989              -0.000000000              -0.001633367               0.999999989               0.000000000              -0.001663430               0.999999989               0.000839656              -0.000000000               0.999999989               0.000884744              -0.000000000               0.999999989               0.000903649               0.000000000               0.999999989               0.000913983               0.000000000               0.999999989               0.000922154               0.000000000               0.999999989               0.000930353               0.000000000               0.999999989               0.000939476              -0.000000000               0.999999989               0.000949532               0.000000000               0.999999989               0.000960201               0.000000000               0.999999989               0.000971055              -0.000000000               0.999999989               0.000981783              -0.000000000               0.999999989               0.000991889              -0.000000000               0.999999989               0.001001164               0.000000000               0.999999989               0.001009374               0.000000000               0.999999989               0.001016033               0.000000000               0.999999989               0.001020741               0.000000000               0.999999989               0.001022751              -0.000000000               0.999999989               0.000835079              -0.000117911               0.999999989               0.000876330              -0.000093307               0.999999989               0.000892766              -0.000081694               0.999999989               0.000901375              -0.000076500               0.999999989               0.000908301              -0.000074466               0.999999989               0.000915639              -0.000073961               0.999999989               0.000923933              -0.000073927               0.999999989               0.000933075              -0.000073714               0.999999989               0.000942753              -0.000072908               0.999999989               0.000952476              -0.000071142               0.999999989               0.000961798              -0.000068175               0.999999989               0.000970431              -0.000063770               0.999999989               0.000978091              -0.000057581               0.999999989               0.000984382              -0.000049140               0.999999989               0.000988951              -0.000037762               0.999999989               0.000991406              -0.000022671               0.999999989               0.000991223              -0.000002871               0.999999989               0.000821638              -0.000234806               0.999999989               0.000851605              -0.000186319               0.999999989               0.000860878              -0.000164197               0.999999989               0.000864831              -0.000154812               0.999999989               0.000868530              -0.000151678               0.999999989               0.000873353              -0.000151221               0.999999989               0.000879323              -0.000151559               0.999999989               0.000886094              -0.000151390               0.999999989               0.000893067              -0.000149870               0.999999989               0.000899631              -0.000146405               0.999999989               0.000905263              -0.000140639               0.999999989               0.000909652              -0.000132178               0.999999989               0.000912431              -0.000120241               0.999999989               0.000913246              -0.000104032               0.999999989               0.000911885              -0.000082705               0.999999989               0.000908158              -0.000055285               0.999999989               0.000901975              -0.000020463               0.999999989               0.000799429              -0.000349743               0.999999989               0.000811514              -0.000278780               0.999999989               0.000810333              -0.000248319               0.999999989               0.000808043              -0.000236486               0.999999989               0.000807605              -0.000233384               0.999999989               0.000809108              -0.000233878               0.999999989               0.000812013              -0.000235136               0.999999989               0.000815346              -0.000235439               0.999999989               0.000818282              -0.000233416               0.999999989               0.000820172              -0.000228366               0.999999989               0.000820481              -0.000219876               0.999999989               0.000818757              -0.000207390               0.999999989               0.000814553              -0.000190041               0.999999989               0.000807644              -0.000167148               0.999999989               0.000798021              -0.000138053               0.999999989               0.000785867              -0.000102130               0.999999989               0.000771348              -0.000058633               0.999999989               0.000768584              -0.000461736               0.999999989               0.000757846              -0.000370756               0.999999989               0.000745029              -0.000334727               0.999999989               0.000736518              -0.000322334               0.999999989               0.000732313              -0.000320364               0.999999989               0.000730876              -0.000322378               0.999999989               0.000730505              -0.000324749               0.999999989               0.000729812              -0.000325488               0.999999989               0.000727928              -0.000323027               0.999999989               0.000724083              -0.000316445               0.999999989               0.000717725              -0.000305101               0.999999989               0.000708243              -0.000288686               0.999999989               0.000695458              -0.000266449               0.999999989               0.000679364              -0.000237995               0.999999989               0.000660131              -0.000203187               0.999999989               0.000638121              -0.000161959               0.999999989               0.000613882              -0.000114553               0.999999989               0.000729803              -0.000569680               0.999999989               0.000693323              -0.000462450               0.999999989               0.000669668              -0.000423655               0.999999989               0.000656503              -0.000412188               0.999999989               0.000649759              -0.000412011               0.999999989               0.000645897              -0.000415784               0.999999989               0.000642304              -0.000419031               0.999999989               0.000637345              -0.000419838               0.999999989               0.000629893              -0.000416647               0.999999989               0.000619187              -0.000408268               0.999999989               0.000604687              -0.000394187               0.999999989               0.000585999              -0.000374073               0.999999989               0.000563132              -0.000347888               0.999999989               0.000536447              -0.000315597               0.999999989               0.000506448              -0.000277293               0.999999989               0.000473913              -0.000233744               0.999999989               0.000439866              -0.000186449               0.999999989               0.000683855              -0.000672604               0.999999989               0.000621170              -0.000553971               0.999999989               0.000589308              -0.000514762               0.999999989               0.000573805              -0.000505123               0.999999989               0.000565812              -0.000506894               0.999999989               0.000560144              -0.000512113               0.999999989               0.000553436              -0.000515810               0.999999989               0.000543707              -0.000516119               0.999999989               0.000529889              -0.000511813               0.999999989               0.000511261              -0.000501424               0.999999989               0.000487271              -0.000484668               0.999999989               0.000458109              -0.000461631               0.999999989               0.000424132              -0.000432630               0.999999989               0.000386188              -0.000398005               0.999999989               0.000345162              -0.000358484               0.999999989               0.000302271              -0.000315594               0.999999989               0.000258931              -0.000271485               0.999999989               0.000631577              -0.000769609               0.999999989               0.000544895              -0.000645153               0.999999989               0.000508406              -0.000607258               0.999999989               0.000493008              -0.000599597               0.999999989               0.000484988              -0.000602889               0.999999989               0.000477777              -0.000608950               0.999999989               0.000467522              -0.000612634               0.999999989               0.000452448              -0.000612150               0.999999989               0.000431312              -0.000606413               0.999999989               0.000403444              -0.000594014               0.999999989               0.000368804              -0.000575064               0.999999989               0.000328187              -0.000549977               0.999999989               0.000282495              -0.000519429               0.999999989               0.000232912              -0.000484308               0.999999989               0.000180806              -0.000445931               0.999999989               0.000127846              -0.000405996               0.999999989               0.000075208              -0.000366748               0.999999989               0.000574663              -0.000858899               0.999999989               0.000466980              -0.000736067               0.999999989               0.000430857              -0.000699802               0.999999989               0.000417449              -0.000693478               0.999999989               0.000409979              -0.000697825               0.999999989               0.000401069              -0.000704254               0.999999989               0.000386854              -0.000707704               0.999999989               0.000365465              -0.000706341               0.999999989               0.000335776              -0.000698841               0.999999989               0.000297259              -0.000684657               0.999999989               0.000250851              -0.000664185               0.999999989               0.000197888              -0.000638325               0.999999989               0.000139573              -0.000608036               0.999999989               0.000077607              -0.000574664               0.999999989               0.000013812              -0.000540082               0.999999989              -0.000050205              -0.000505993               0.999999989              -0.000113613              -0.000473324               0.999999989               0.000515441              -0.000943820               0.999999989               0.000401382              -0.000839062               0.999999989               0.000363206              -0.000799725               0.999999989               0.000349345              -0.000789540               0.999999989               0.000342428              -0.000791489               0.999999989               0.000335327              -0.000797731               0.999999989               0.000324270              -0.000803765               0.999999989               0.000307065              -0.000806928               0.999999989               0.000282500              -0.000806063               0.999999989               0.000249679              -0.000800288               0.999999989               0.000209059              -0.000789713               0.999999989               0.000161450              -0.000774763               0.999999989               0.000107532              -0.000756172               0.999999989               0.000048333              -0.000734728               0.999999989              -0.000014734              -0.000711495               0.999999989              -0.000080071              -0.000687884               0.999999989              -0.000146126              -0.000665214               0.999999989               0.000450692              -0.001021526               0.999999989               0.000338071              -0.000939235               0.999999989               0.000297886              -0.000902835               0.999999989               0.000282853              -0.000890858               0.999999989               0.000275859              -0.000891450               0.999999989               0.000269775              -0.000897759               0.999999989               0.000261153              -0.000905929               0.999999989               0.000247603              -0.000913283               0.999999989               0.000227629              -0.000918256               0.999999989               0.000200438              -0.000919983               0.999999989               0.000165750              -0.000918025               0.999999989               0.000124054              -0.000912642               0.999999989               0.000075537              -0.000904154               0.999999989               0.000020935              -0.000893289               0.999999989              -0.000038956              -0.000880623               0.999999989              -0.000103088              -0.000867108               0.999999989              -0.000169424              -0.000853613               0.999999989               0.000381769              -0.001089954               0.999999989               0.000277050              -0.001033502               0.999999989               0.000236581              -0.001004278               0.999999989               0.000220316              -0.000993614               0.999999989               0.000212765              -0.000994280               0.999999989               0.000207229              -0.001001301               0.999999989               0.000200206              -0.001011552               0.999999989               0.000189569              -0.001022705               0.999999989               0.000173796              -0.001033040               0.999999989               0.000151940              -0.001041561               0.999999989               0.000123451              -0.001047563               0.999999989               0.000088010              -0.001050846               0.999999989               0.000045651              -0.001051611               0.999999989              -0.000003249              -0.001050264               0.999999989              -0.000058329              -0.001047155               0.999999989              -0.000119126              -0.001042979               0.999999989              -0.000184597              -0.001038485               0.999999989               0.000309477              -0.001147584               0.999999989               0.000218468              -0.001117629               0.999999989               0.000180298              -0.001098736               0.999999989               0.000163717              -0.001092089               0.999999989               0.000155705              -0.001094624               0.999999989               0.000150284              -0.001103333               0.999999989               0.000144303              -0.001115938               0.999999989               0.000136082              -0.001130539               0.999999989               0.000124021              -0.001145793               0.999999989               0.000107107              -0.001160516               0.999999989               0.000084576              -0.001173958               0.999999989               0.000055903              -0.001185621               0.999999989               0.000020715              -0.001195225               0.999999989              -0.000021271              -0.001202857               0.999999989              -0.000070083              -0.001208807               0.999999989              -0.000126084              -0.001213516               0.999999989              -0.000189357              -0.001217736               0.999999989               0.000234405              -0.001193486               0.999999989               0.000162025              -0.001187554               0.999999989               0.000129446              -0.001180225               0.999999989               0.000114254              -0.001179301               0.999999989               0.000106428              -0.001185108               0.999999989               0.000101187              -0.001196487               0.999999989               0.000096134              -0.001211771               0.999999989               0.000090081              -0.001229727               0.999999989               0.000081418              -0.001249298               0.999999989               0.000068982              -0.001269567               0.999999989               0.000052300              -0.001289774               0.999999989               0.000030579              -0.001309257               0.999999989               0.000003196              -0.001327561               0.999999989              -0.000030360              -0.001344310               0.999999989              -0.000070871              -0.001359547               0.999999989              -0.000119408              -0.001373454               0.999999989              -0.000177287              -0.001386329               0.999999989               0.000157315              -0.001226800               0.999999989               0.000107204              -0.001239849               0.999999989               0.000083384              -0.001243097               0.999999989               0.000071596              -0.001248308               0.999999989               0.000065124              -0.001257908               0.999999989               0.000060831              -0.001272029               0.999999989               0.000057091              -0.001289951               0.999999989               0.000053012              -0.001310924               0.999999989               0.000047321              -0.001334181               0.999999989               0.000039249              -0.001359073               0.999999989               0.000028192              -0.001384920               0.999999989               0.000013539              -0.001411043               0.999999989              -0.000005288              -0.001436832               0.999999989              -0.000028804              -0.001461858               0.999999989              -0.000058137              -0.001485790               0.999999989              -0.000094715              -0.001508390               0.999999989              -0.000140422              -0.001529518               0.999999989               0.000078958              -0.001247027               0.999999989               0.000053359              -0.001272220               0.999999989               0.000040763              -0.001282859               0.999999989               0.000034297              -0.001292577               0.999999989               0.000030656              -0.001305186               0.999999989               0.000028169              -0.001321545               0.999999989               0.000026154              -0.001341442               0.999999989               0.000024004              -0.001364559               0.999999989               0.000021181              -0.001390366               0.999999989               0.000017250              -0.001418357               0.999999989               0.000011799              -0.001447970               0.999999989               0.000004417              -0.001478597               0.999999989              -0.000005100              -0.001509624               0.999999989              -0.000017282              -0.001540610               0.999999989              -0.000032733              -0.001571071               0.999999989              -0.000052516              -0.001600450               0.999999989              -0.000078189              -0.001628016               0.999999989               0.000000000              -0.001253830               0.999999989               0.000000000              -0.001283179               0.999999989              -0.000000000              -0.001296481               0.999999989               0.000000000              -0.001307915               0.999999989               0.000000000              -0.001321668               0.999999989              -0.000000000              -0.001338875               0.999999989               0.000000000              -0.001359539               0.999999989               0.000000000              -0.001383473               0.999999989              -0.000000000              -0.001410251               0.999999989              -0.000000000              -0.001439421               0.999999989               0.000000000              -0.001470389               0.999999989               0.000000000              -0.001502577               0.999999989              -0.000000000              -0.001535445               0.999999989               0.000000000              -0.001568541               0.999999989               0.000000000              -0.001601405               0.999999989              -0.000000000              -0.001633367               0.999999989               0.000000000              -0.001663430               0.999999989               0.000839656              -0.000000000               0.999999989               0.000884744              -0.000000000               0.999999989               0.000903649               0.000000000               0.999999989               0.000913983               0.000000000               0.999999989               0.000922154               0.000000000               0.999999989               0.000930353               0.000000000               0.999999989               0.000939476              -0.000000000               0.999999989               0.000949532               0.000000000               0.999999989               0.000960201               0.000000000               0.999999989               0.000971055              -0.000000000               0.999999989               0.000981783              -0.000000000               0.999999989               0.000991889              -0.000000000               0.999999989               0.001001164               0.000000000               0.999999989               0.001009374               0.000000000               0.999999989               0.001016033               0.000000000               0.999999989               0.001020741               0.000000000               0.999999989               0.001022751              -0.000000000               0.999999989               0.000835079               0.000117911               0.999999989               0.000876330               0.000093307               0.999999989               0.000892766               0.000081694               0.999999989               0.000901375               0.000076500               0.999999989               0.000908301               0.000074466               0.999999989               0.000915639               0.000073961               0.999999989               0.000923933               0.000073927               0.999999989               0.000933075               0.000073714               0.999999989               0.000942753               0.000072908               0.999999989               0.000952476               0.000071142               0.999999989               0.000961798               0.000068175               0.999999989               0.000970431               0.000063770               0.999999989               0.000978091               0.000057581               0.999999989               0.000984382               0.000049140               0.999999989               0.000988951               0.000037762               0.999999989               0.000991406               0.000022671               0.999999989               0.000991223               0.000002871               0.999999989               0.000821638               0.000234806               0.999999989               0.000851605               0.000186319               0.999999989               0.000860878               0.000164197               0.999999989               0.000864831               0.000154812               0.999999989               0.000868530               0.000151678               0.999999989               0.000873353               0.000151221               0.999999989               0.000879323               0.000151559               0.999999989               0.000886094               0.000151390               0.999999989               0.000893067               0.000149870               0.999999989               0.000899631               0.000146405               0.999999989               0.000905263               0.000140639               0.999999989               0.000909652               0.000132178               0.999999989               0.000912431               0.000120241               0.999999989               0.000913246               0.000104032               0.999999989               0.000911885               0.000082705               0.999999989               0.000908158               0.000055285               0.999999989               0.000901975               0.000020463               0.999999989               0.000799429               0.000349743               0.999999989               0.000811514               0.000278780               0.999999989               0.000810333               0.000248319               0.999999989               0.000808043               0.000236486               0.999999989               0.000807605               0.000233384               0.999999989               0.000809108               0.000233878               0.999999989               0.000812013               0.000235136               0.999999989               0.000815346               0.000235439               0.999999989               0.000818282               0.000233416               0.999999989               0.000820172               0.000228366               0.999999989               0.000820481               0.000219876               0.999999989               0.000818757               0.000207390               0.999999989               0.000814553               0.000190041               0.999999989               0.000807644               0.000167148               0.999999989               0.000798021               0.000138053               0.999999989               0.000785867               0.000102130               0.999999989               0.000771348               0.000058633               0.999999989               0.000768584               0.000461736               0.999999989               0.000757846               0.000370756               0.999999989               0.000745029               0.000334727               0.999999989               0.000736518               0.000322334               0.999999989               0.000732313               0.000320364               0.999999989               0.000730876               0.000322378               0.999999989               0.000730505               0.000324749               0.999999989               0.000729812               0.000325488               0.999999989               0.000727928               0.000323027               0.999999989               0.000724083               0.000316445               0.999999989               0.000717725               0.000305101               0.999999989               0.000708243               0.000288686               0.999999989               0.000695458               0.000266449               0.999999989               0.000679364               0.000237995               0.999999989               0.000660131               0.000203187               0.999999989               0.000638121               0.000161959               0.999999989               0.000613882               0.000114553               0.999999989               0.000729803               0.000569680               0.999999989               0.000693323               0.000462450               0.999999989               0.000669668               0.000423655               0.999999989               0.000656503               0.000412188               0.999999989               0.000649759               0.000412011               0.999999989               0.000645897               0.000415784               0.999999989               0.000642304               0.000419031               0.999999989               0.000637345               0.000419838               0.999999989               0.000629893               0.000416647               0.999999989               0.000619187               0.000408268               0.999999989               0.000604687               0.000394187               0.999999989               0.000585999               0.000374073               0.999999989               0.000563132               0.000347888               0.999999989               0.000536447               0.000315597               0.999999989               0.000506448               0.000277293               0.999999989               0.000473913               0.000233744               0.999999989               0.000439866               0.000186449               0.999999989               0.000683855               0.000672604               0.999999989               0.000621170               0.000553971               0.999999989               0.000589308               0.000514762               0.999999989               0.000573805               0.000505123               0.999999989               0.000565812               0.000506894               0.999999989               0.000560144               0.000512113               0.999999989               0.000553436               0.000515810               0.999999989               0.000543707               0.000516119               0.999999989               0.000529889               0.000511813               0.999999989               0.000511261               0.000501424               0.999999989               0.000487271               0.000484668               0.999999989               0.000458109               0.000461631               0.999999989               0.000424132               0.000432630               0.999999989               0.000386188               0.000398005               0.999999989               0.000345162               0.000358484               0.999999989               0.000302271               0.000315594               0.999999989               0.000258931               0.000271485               0.999999989               0.000631577               0.000769609               0.999999989               0.000544895               0.000645153               0.999999989               0.000508406               0.000607258               0.999999989               0.000493008               0.000599597               0.999999989               0.000484988               0.000602889               0.999999989               0.000477777               0.000608950               0.999999989               0.000467522               0.000612634               0.999999989               0.000452448               0.000612150               0.999999989               0.000431312               0.000606413               0.999999989               0.000403444               0.000594014               0.999999989               0.000368804               0.000575064               0.999999989               0.000328187               0.000549977               0.999999989               0.000282495               0.000519429               0.999999989               0.000232912               0.000484308               0.999999989               0.000180806               0.000445931               0.999999989               0.000127846               0.000405996               0.999999989               0.000075208               0.000366748               0.999999989               0.000574663               0.000858899               0.999999989               0.000466980               0.000736067               0.999999989               0.000430857               0.000699802               0.999999989               0.000417449               0.000693478               0.999999989               0.000409979               0.000697825               0.999999989               0.000401069               0.000704254               0.999999989               0.000386854               0.000707704               0.999999989               0.000365465               0.000706341               0.999999989               0.000335776               0.000698841               0.999999989               0.000297259               0.000684657               0.999999989               0.000250851               0.000664185               0.999999989               0.000197888               0.000638325               0.999999989               0.000139573               0.000608036               0.999999989               0.000077607               0.000574664               0.999999989               0.000013812               0.000540082               0.999999989              -0.000050205               0.000505993               0.999999989              -0.000113613               0.000473324               0.999999989               0.000515441               0.000943820               0.999999989               0.000401382               0.000839062               0.999999989               0.000363206               0.000799725               0.999999989               0.000349345               0.000789540               0.999999989               0.000342428               0.000791489               0.999999989               0.000335327               0.000797731               0.999999989               0.000324270               0.000803765               0.999999989               0.000307065               0.000806928               0.999999989               0.000282500               0.000806063               0.999999989               0.000249679               0.000800288               0.999999989               0.000209059               0.000789713               0.999999989               0.000161450               0.000774763               0.999999989               0.000107532               0.000756172               0.999999989               0.000048333               0.000734728               0.999999989              -0.000014734               0.000711495               0.999999989              -0.000080071               0.000687884               0.999999989              -0.000146126               0.000665214               0.999999989               0.000450692               0.001021526               0.999999989               0.000338071               0.000939235               0.999999989               0.000297886               0.000902835               0.999999989               0.000282853               0.000890858               0.999999989               0.000275859               0.000891450               0.999999989               0.000269775               0.000897759               0.999999989               0.000261153               0.000905929               0.999999989               0.000247603               0.000913283               0.999999989               0.000227629               0.000918256               0.999999989               0.000200438               0.000919983               0.999999989               0.000165750               0.000918025               0.999999989               0.000124054               0.000912642               0.999999989               0.000075537               0.000904154               0.999999989               0.000020935               0.000893289               0.999999989              -0.000038956               0.000880623               0.999999989              -0.000103088               0.000867108               0.999999989              -0.000169424               0.000853613               0.999999989               0.000381769               0.001089954               0.999999989               0.000277050               0.001033502               0.999999989               0.000236581               0.001004278               0.999999989               0.000220316               0.000993614               0.999999989               0.000212765               0.000994280               0.999999989               0.000207229               0.001001301               0.999999989               0.000200206               0.001011552               0.999999989               0.000189569               0.001022705               0.999999989               0.000173796               0.001033040               0.999999989               0.000151940               0.001041561               0.999999989               0.000123451               0.001047563               0.999999989               0.000088010               0.001050846               0.999999989               0.000045651               0.001051611               0.999999989              -0.000003249               0.001050264               0.999999989              -0.000058329               0.001047155               0.999999989              -0.000119126               0.001042979               0.999999989              -0.000184597               0.001038485               0.999999989               0.000309477               0.001147584               0.999999989               0.000218468               0.001117629               0.999999989               0.000180298               0.001098736               0.999999989               0.000163717               0.001092089               0.999999989               0.000155705               0.001094624               0.999999989               0.000150284               0.001103333               0.999999989               0.000144303               0.001115938               0.999999989               0.000136082               0.001130539               0.999999989               0.000124021               0.001145793               0.999999989               0.000107107               0.001160516               0.999999989               0.000084576               0.001173958               0.999999989               0.000055903               0.001185621               0.999999989               0.000020715               0.001195225               0.999999989              -0.000021271               0.001202857               0.999999989              -0.000070083               0.001208807               0.999999989              -0.000126084               0.001213516               0.999999989              -0.000189357               0.001217736               0.999999989               0.000234405               0.001193486               0.999999989               0.000162025               0.001187554               0.999999989               0.000129446               0.001180225               0.999999989               0.000114254               0.001179301               0.999999989               0.000106428               0.001185108               0.999999989               0.000101187               0.001196487               0.999999989               0.000096134               0.001211771               0.999999989               0.000090081               0.001229727               0.999999989               0.000081418               0.001249298               0.999999989               0.000068982               0.001269567               0.999999989               0.000052300               0.001289774               0.999999989               0.000030579               0.001309257               0.999999989               0.000003196               0.001327561               0.999999989              -0.000030360               0.001344310               0.999999989              -0.000070871               0.001359547               0.999999989              -0.000119408               0.001373454               0.999999989              -0.000177287               0.001386329               0.999999989               0.000157315               0.001226800               0.999999989               0.000107204               0.001239849               0.999999989               0.000083384               0.001243097               0.999999989               0.000071596               0.001248308               0.999999989               0.000065124               0.001257908               0.999999989               0.000060831               0.001272029               0.999999989               0.000057091               0.001289951               0.999999989               0.000053012               0.001310924               0.999999989               0.000047321               0.001334181               0.999999989               0.000039249               0.001359073               0.999999989               0.000028192               0.001384920               0.999999989               0.000013539               0.001411043               0.999999989              -0.000005288               0.001436832               0.999999989              -0.000028804               0.001461858               0.999999989              -0.000058137               0.001485790               0.999999989              -0.000094715               0.001508390               0.999999989              -0.000140422               0.001529518               0.999999989               0.000078958               0.001247027               0.999999989               0.000053359               0.001272220               0.999999989               0.000040763               0.001282859               0.999999989               0.000034297               0.001292577               0.999999989               0.000030656               0.001305186               0.999999989               0.000028169               0.001321545               0.999999989               0.000026154               0.001341442               0.999999989               0.000024004               0.001364559               0.999999989               0.000021181               0.001390366               0.999999989               0.000017250               0.001418357               0.999999989               0.000011799               0.001447970               0.999999989               0.000004417               0.001478597               0.999999989              -0.000005100               0.001509624               0.999999989              -0.000017282               0.001540610               0.999999989              -0.000032733               0.001571071               0.999999989              -0.000052516               0.001600450               0.999999989              -0.000078189               0.001628016               0.999999989               0.000000000               0.001253830               0.999999989               0.000000000               0.001283179               0.999999989              -0.000000000               0.001296481               0.999999989              -0.000000000               0.001307915               0.999999989              -0.000000000               0.001321668               0.999999989               0.000000000               0.001338875               0.999999989               0.000000000               0.001359539               0.999999989              -0.000000000               0.001383473               0.999999989              -0.000000000               0.001410251               0.999999989               0.000000000               0.001439421               0.999999989               0.000000000               0.001470389               0.999999989               0.000000000               0.001502577               0.999999989               0.000000000               0.001535445               0.999999989              -0.000000000               0.001568541               0.999999989               0.000000000               0.001601405               0.999999989              -0.000000000               0.001633367               0.999999989              -0.000000000               0.001663430               0.999999989 </DataArray>
<DataArray type="Float64"                                    Name="defo"                                                      NumberOfComponents=" 3" format="ascii">
             -0.000839656               0.000000000               0.999999989              -0.000884744               0.000000000               0.999999989              -0.000903649               0.000000000               0.999999989              -0.000913983              -0.000000000               0.999999989              -0.000922154               0.000000000               0.999999989              -0.000930353               0.000000000               0.999999989              -0.000939476               0.000000000               0.999999989              -0.000949532               0.000000000               0.999999989              -0.000960201              -0.000000000               0.999999989              -0.000971055              -0.000000000               0.999999989              -0.000981783              -0.000000000               0.999999989              -0.000991889              -0.000000000               0.999999989              -0.001001164               0.000000000               0.999999989              -0.001009374               0.000000000               0.999999989              -0.001016033              -0.000000000               0.999999989              -0.001020741               0.000000000               0.999999989              -0.001022751               0.000000000               0.999999989              -0.000835079               0.000117911               0.999999989              -0.000876330               0.000093307               0.999999989              -0.000892766               0.000081694               0.999999989              -0.000901375               0.000076500               0.999999989              -0.000908301               0.000074466               0.999999989              -0.000915639               0.000073961               0.999999989              -0.000923933               0.000073927               0.999999989              -0.000933075               0.000073714               0.999999989              -0.000942753               0.000072908               0.999999989              -0.000952476               0.000071142               0.999999989              -0.000961798               0.000068175               0.999999989              -0.000970431               0.000063770               0.999999989              -0.000978091               0.000057581               0.999999989              -0.000984382               0.000049140               0.999999989              -0.000988951               0.000037762               0.999999989              -0.000991406               0.000022671               0.999999989              -0.000991223               0.000002871               0.999999989              -0.000821638               0.000234806               0.999999989              -0.000851605               0.000186319               0.999999989              -0.000860878               0.000164197               0.999999989              -0.000864831               0.000154812               0.999999989              -0.000868530               0.000151678               0.999999989              -0.000873353               0.000151221               0.999999989              -0.000879323               0.000151559               0.999999989              -0.000886094               0.000151390               0.999999989              -0.000893067               0.000149870               0.999999989              -0.000899631               0.000146405               0.999999989              -0.000905263               0.000140639               0.999999989              -0.000909652               0.000132178               0.999999989              -0.000912431               0.000120241               0.999999989              -0.000913246               0.000104032               0.999999989              -0.000911885               0.000082705               0.999999989              -0.000908158               0.000055285               0.999999989              -0.000901975               0.000020463               0.999999989              -0.000799429               0.000349743               0.999999989              -0.000811514               0.000278780               0.999999989              -0.000810333               0.000248319               0.999999989              -0.000808043               0.000236486               0.999999989              -0.000807605               0.000233384               0.999999989              -0.000809108               0.000233878               0.999999989              -0.000812013               0.000235136               0.999999989              -0.000815346               0.000235439               0.999999989              -0.000818282               0.000233416               0.999999989              -0.000820172               0.000228366               0.999999989              -0.000820481               0.000219876               0.999999989              -0.000818757               0.000207390               0.999999989              -0.000814553               0.000190041               0.999999989              -0.000807644               0.000167148               0.999999989              -0.000798021               0.000138053               0.999999989              -0.000785867               0.000102130               0.999999989              -0.000771348               0.000058633               0.999999989              -0.000768584               0.000461736               0.999999989              -0.000757846               0.000370756               0.999999989              -0.000745029               0.000334727               0.999999989              -0.000736518               0.000322334               0.999999989              -0.000732313               0.000320364               0.999999989              -0.000730876               0.000322378               0.999999989              -0.000730505               0.000324749               0.999999989              -0.000729812               0.000325488               0.999999989              -0.000727928               0.000323027               0.999999989              -0.000724083               0.000316445               0.999999989              -0.000717725               0.000305101               0.999999989              -0.000708243               0.000288686               0.999999989              -0.000695458               0.000266449               0.999999989              -0.000679364               0.000237995               0.999999989              -0.000660131               0.000203187               0.999999989              -0.000638121               0.000161959               0.999999989              -0.000613882               0.000114553               0.999999989              -0.000729803               0.000569680               0.999999989              -0.000693323               0.000462450               0.999999989              -0.000669668               0.000423655               0.999999989              -0.000656503               0.000412188               0.999999989              -0.000649759               0.000412011               0.999999989              -0.000645897               0.000415784               0.999999989              -0.000642304               0.000419031               0.999999989              -0.000637345               0.000419838               0.999999989              -0.000629893               0.000416647               0.999999989              -0.000619187               0.000408268               0.999999989              -0.000604687               0.000394187               0.999999989              -0.000585999               0.000374073               0.999999989              -0.000563132               0.000347888               0.999999989              -0.000536447               0.000315597               0.999999989              -0.000506448               0.000277293               0.999999989              -0.000473913               0.000233744               0.999999989              -0.000439866               0.000186449               0.999999989              -0.000683855               0.000672604               0.999999989              -0.000621170               0.000553971               0.999999989              -0.000589308               0.000514762               0.999999989              -0.000573805               0.000505123               0.999999989              -0.000565812               0.000506894               0.999999989              -0.000560144               0.000512113               0.999999989              -0.000553436               0.000515810               0.999999989              -0.000543707               0.000516119               0.999999989              -0.000529889               0.000511813               0.999999989              -0.000511261               0.000501424               0.999999989              -0.000487271               0.000484668               0.999999989              -0.000458109               0.000461631               0.999999989              -0.000424132               0.000432630               0.999999989              -0.000386188               0.000398005               0.999999989              -0.000345162               0.000358484               0.999999989              -0.000302271               0.000315594               0.999999989              -0.000258931               0.000271485               0.999999989              -0.000631577               0.000769609               0.999999989              -0.000544895               0.000645153               0.999999989              -0.000508406               0.000607258               0.999999989              -0.000493008               0.000599597               0.999999989              -0.000484988               0.000602889               0.999999989              -0.000477777               0.000608950               0.999999989              -0.000467522               0.000612634               0.999999989              -0.000452448               0.000612150               0.999999989              -0.000431312               0.000606413               0.999999989              -0.000403444               0.000594014               0.999999989              -0.000368804               0.000575064               0.999999989              -0.000328187               0.000549977               0.999999989              -0.000282495               0.000519429               0.999999989              -0.000232912               0.000484308               0.999999989              -0.000180806               0.000445931               0.999999989              -0.000127846               0.000405996               0.999999989              -0.000075208               0.000366748               0.999999989              -0.000574663               0.000858899               0.999999989              -0.000466980               0.000736067               0.999999989              -0.000430857               0.000699802               0.999999989              -0.000417449               0.000693478               0.999999989              -0.000409979               0.000697825               0.999999989              -0.000401069               0.000704254               0.999999989              -0.000386854               0.000707704               0.999999989              -0.000365465               0.000706341               0.999999989              -0.000335776               0.000698841               0.999999989              -0.000297259               0.000684657               0.999999989              -0.000250851               0.000664185               0.999999989              -0.000197888               0.000638325               0.999999989              -0.000139573               0.000608036               0.999999989              -0.000077607               0.000574664               0.999999989              -0.000013812               0.000540082               0.999999989               0.000050205               0.000505993               0.999999989               0.000113613               0.000473324               0.999999989              -0.000515441               0.000943820               0.999999989              -0.000401382               0.000839062               0.999999989              -0.000363206               0.000799725               0.999999989              -0.000349345               0.000789540               0.999999989              -0.000342428               0.000791489               0.999999989              -0.000335327               0.000797731               0.999999989              -0.000324270               0.000803765               0.999999989              -0.000307065               0.000806928               0.999999989              -0.000282500               0.000806063               0.999999989              -0.000249679               0.000800288               0.999999989              -0.000209059               0.000789713               0.999999989              -0.000161450               0.000774763               0.999999989              -0.000107532               0.000756172               0.999999989              -0.000048333               0.000734728               0.999999989               0.000014734               0.000711495               0.999999989               0.000080071               0.000687884               0.999999989               0.000146126               0.000665214               0.999999989              -0.000450692               0.001021526               0.999999989              -0.000338071               0.000939235               0.999999989              -0.000297886               0.000902835               0.999999989              -0.000282853               0.000890858               0.999999989              -0.000275859               0.000891450               0.999999989              -0.000269775               0.000897759               0.999999989              -0.000261153               0.000905929               0.999999989              -0.000247603               0.000913283               0.999999989              -0.000227629               0.000918256               0.999999989              -0.000200438               0.000919983               0.999999989              -0.000165750               0.000918025               0.999999989              -0.000124054               0.000912642               0.999999989              -0.000075537               0.000904154               0.999999989              -0.000020935               0.000893289               0.999999989               0.000038956               0.000880623               0.999999989               0.000103088               0.000867108               0.999999989               0.000169424               0.000853613               0.999999989              -0.000381769               0.001089954               0.999999989              -0.000277050               0.001033502               0.999999989              -0.000236581               0.001004278               0.999999989              -0.000220316               0.000993614               0.999999989              -0.000212765               0.000994280               0.999999989              -0.000207229               0.001001301               0.999999989              -0.000200206               0.001011552               0.999999989              -0.000189569               0.001022705               0.999999989              -0.000173796               0.001033040               0.999999989              -0.000151940               0.001041561               0.999999989              -0.000123451               0.001047563               0.999999989              -0.000088010               0.001050846               0.999999989              -0.000045651               0.001051611               0.999999989               0.000003249               0.001050264               0.999999989               0.000058329               0.001047155               0.999999989               0.000119126               0.001042979               0.999999989               0.000184597               0.001038485               0.999999989              -0.000309477               0.001147584               0.999999989              -0.000218468               0.001117629               0.999999989              -0.000180298               0.001098736               0.999999989              -0.000163717               0.001092089               0.999999989              -0.000155705               0.001094624               0.999999989              -0.000150284               0.001103333               0.999999989              -0.000144303               0.001115938               0.999999989              -0.000136082               0.001130539               0.999999989              -0.000124021               0.001145793               0.999999989              -0.000107107               0.001160516               0.999999989              -0.000084576               0.001173958               0.999999989              -0.000055903               0.001185621               0.999999989              -0.000020715               0.001195225               0.999999989               0.000021271               0.001202857               0.999999989               0.000070083               0.001208807               0.999999989               0.000126084               0.001213516               0.999999989               0.000189357               0.001217736               0.999999989              -0.000234405               0.001193486               0.999999989              -0.000162025               0.001187554               0.999999989              -0.000129446               0.001180225               0.999999989              -0.000114254               0.001179301               0.999999989              -0.000106428               0.001185108               0.999999989              -0.000101187               0.001196487               0.999999989              -0.000096134               0.001211771               0.999999989              -0.000090081               0.001229727               0.999999989              -0.000081418               0.001249298               0.999999989              -0.000068982               0.001269567               0.999999989              -0.000052300               0.001289774               0.999999989              -0.000030579               0.001309257               0.999999989              -0.000003196               0.001327561               0.999999989               0.000030360               0.001344310               0.999999989               0.000070871               0.001359547               0.999999989               0.000119408               0.001373454               0.999999989               0.000177287               0.001386329               0.999999989              -0.000157315               0.001226800               0.999999989              -0.000107204               0.001239849               0.999999989              -0.000083384               0.001243097               0.999999989              -0.000071596               0.001248308               0.999999989              -0.000065124               0.001257908               0.999999989              -0.000060831               0.001272029               0.999999989              -0.000057091               0.001289951               0.999999989              -0.000053012               0.001310924               0.999999989              -0.000047321               0.001334181               0.999999989              -0.000039249               0.001359073               0.999999989              -0.000028192               0.001384920               0.999999989              -0.000013539               0.001411043               0.999999989               0.000005288               0.001436832               0.999999989               0.000028804               0.001461858               0.999999989               0.000058137               0.001485790               0.999999989               0.000094715               0.001508390               0.999999989               0.000140422               0.001529518               0.999999989              -0.000078958               0.001247027               0.999999989              -0.000053359               0.001272220               0.999999989              -0.000040763               0.001282859               0.999999989              -0.000034297               0.001292577               0.999999989              -0.000030656               0.001305186               0.999999989              -0.000028169               0.001321545               0.999999989              -0.000026154               0.001341442               0.999999989              -0.000024004               0.001364559               0.999999989              -0.000021181               0.001390366               0.999999989              -0.000017250               0.001418357               0.999999989              -0.000011799               0.001447970               0.999999989              -0.000004417               0.001478597               0.999999989               0.000005100               0.001509624               0.999999989               0.000017282               0.001540610               0.999999989               0.000032733               0.001571071               0.999999989               0.000052516               0.001600450               0.999999989               0.000078189               0.001628016               0.999999989               0.000000000               0.001253830               0.999999989               0.000000000               0.001283179               0.999999989              -0.000000000               0.001296481               0.999999989              -0.000000000               0.001307915               0.999999989              -0.000000000               0.001321668               0.999999989               0.000000000               0.001338875               0.999999989               0.000000000               0.001359539               0.999999989              -0.000000000               0.001383473               0.999999989              -0.000000000               0.001410251               0.999999989               0.000000000               0.001439421               0.999999989               0.000000000               0.001470389               0.999999989               0.000000000               0.001502577               0.999999989               0.000000000               0.001535445               0.999999989              -0.000000000               0.001568541               0.999999989               0.000000000               0.001601405               0.999999989              -0.000000000               0.001633367               0.999999989              -0.000000000               0.001663430               0.999999989              -0.000839656               0.000000000               0.999999989              -0.000884744               0.000000000               0.999999989              -0.000903649               0.000000000               0.999999989              -0.000913983              -0.000000000               0.999999989              -0.000922154               0.000000000               0.999999989              -0.000930353               0.000000000               0.999999989              -0.000939476               0.000000000               0.999999989              -0.000949532               0.000000000               0.999999989              -0.000960201              -0.000000000               0.999999989              -0.000971055              -0.000000000               0.999999989              -0.000981783              -0.000000000               0.999999989              -0.000991889              -0.000000000               0.999999989              -0.001001164               0.000000000               0.999999989              -0.001009374               0.000000000               0.999999989              -0.001016033              -0.000000000               0.999999989              -0.001020741               0.000000000               0.999999989              -0.001022751               0.000000000               0.999999989              -0.000835079              -0.000117911               0.999999989              -0.000876330              -0.000093307               0.999999989              -0.000892766              -0.000081694               0.999999989              -0.000901375              -0.000076500               0.999999989              -0.000908301              -0.000074466               0.999999989              -0.000915639              -0.000073961               0.999999989              -0.000923933              -0.000073927               0.999999989              -0.000933075              -0.000073714               0.999999989              -0.000942753              -0.000072908               0.999999989              -0.000952476              -0.000071142               0.999999989              -0.000961798              -0.000068175               0.999999989              -0.000970431              -0.000063770               0.999999989              -0.000978091              -0.000057581               0.999999989              -0.000984382              -0.000049140               0.999999989              -0.000988951              -0.000037762               0.999999989              -0.000991406              -0.000022671               0.999999989              -0.000991223              -0.000002871               0.999999989              -0.000821638              -0.000234806               0.999999989              -0.000851605              -0.000186319               0.999999989              -0.000860878              -0.000164197               0.999999989              -0.000864831              -0.000154812               0.999999989              -0.000868530              -0.000151678               0.999999989              -0.000873353              -0.000151221               0.999999989              -0.000879323              -0.000151559               0.999999989              -0.000886094              -0.000151390               0.999999989              -0.000893067              -0.000149870               0.999999989              -0.000899631              -0.000146405               0.999999989              -0.000905263              -0.000140639               0.999999989              -0.000909652              -0.000132178               0.999999989              -0.000912431              -0.000120241               0.999999989              -0.000913246              -0.000104032               0.999999989              -0.000911885              -0.000082705               0.999999989              -0.000908158              -0.000055285               0.999999989              -0.000901975              -0.000020463               0.999999989              -0.000799429              -0.000349743               0.999999989              -0.000811514              -0.000278780               0.999999989              -0.000810333              -0.000248319               0.999999989              -0.000808043              -0.000236486               0.999999989              -0.000807605              -0.000233384               0.999999989              -0.000809108              -0.000233878               0.999999989              -0.000812013              -0.000235136               0.999999989              -0.000815346              -0.000235439               0.999999989              -0.000818282              -0.000233416               0.999999989              -0.000820172              -0.000228366               0.999999989              -0.000820481              -0.000219876               0.999999989              -0.000818757              -0.000207390               0.999999989              -0.000814553              -0.000190041               0.999999989              -0.000807644              -0.000167148               0.999999989              -0.000798021              -0.000138053               0.999999989              -0.000785867              -0.000102130               0.999999989              -0.000771348              -0.000058633               0.999999989              -0.000768584              -0.000461736               0.999999989              -0.000757846              -0.000370756               0.999999989              -0.000745029              -0.000334727               0.999999989              -0.000736518              -0.000322334               0.999999989              -0.000732313              -0.000320364               0.999999989              -0.000730876              -0.000322378               0.999999989              -0.000730505              -0.000324749               0.999999989              -0.000729812              -0.000325488               0.999999989              -0.000727928              -0.000323027               0.999999989              -0.000724083              -0.000316445               0.999999989              -0.000717725              -0.000305101               0.999999989              -0.000708243              -0.000288686               0.999999989              -0.000695458              -0.000266449               0.999999989              -0.000679364              -0.000237995               0.999999989              -0.000660131              -0.000203187               0.999999989              -0.000638121              -0.000161959               0.999999989              -0.000613882              -0.000114553               0.999999989              -0.000729803              -0.000569680               0.999999989              -0.000693323              -0.000462450               0.999999989              -0.000669668              -0.000423655               0.999999989              -0.000656503              -0.000412188               0.999999989              -0.000649759              -0.000412011               0.999999989              -0.000645897              -0.000415784               0.999999989              -0.000642304              -0.000419031               0.999999989              -0.000637345              -0.000419838               0.999999989              -0.000629893              -0.000416647               0.999999989              -0.000619187              -0.000408268               0.999999989              -0.000604687              -0.000394187               0.999999989              -0.000585999              -0.000374073               0.999999989              -0.000563132              -0.000347888               0.999999989              -0.000536447              -0.000315597               0.999999989              -0.000506448              -0.000277293               0.999999989              -0.000473913              -0.000233744               0.999999989              -0.000439866              -0.000186449               0.999999989              -0.000683855              -0.000672604               0.999999989              -0.000621170              -0.000553971               0.999999989              -0.000589308              -0.000514762               0.999999989              -0.000573805              -0.000505123               0.999999989              -0.000565812              -0.000506894               0.999999989              -0.000560144              -0.000512113               0.999999989              -0.000553436              -0.000515810               0.999999989              -0.000543707              -0.000516119               0.999999989              -0.000529889              -0.000511813               0.999999989              -0.000511261              -0.000501424               0.999999989              -0.000487271              -0.000484668               0.999999989              -0.000458109              -0.000461631               0.999999989              -0.000424132              -0.000432630               0.999999989              -0.000386188              -0.000398005               0.999999989              -0.000345162              -0.000358484               0.999999989              -0.000302271              -0.000315594               0.999999989              -0.000258931              -0.000271485               0.999999989              -0.000631577              -0.000769609               0.999999989              -0.000544895              -0.000645153               0.999999989              -0.000508406              -0.000607258               0.999999989              -0.000493008              -0.000599597               0.999999989              -0.000484988              -0.000602889               0.999999989              -0.000477777              -0.000608950               0.999999989              -0.000467522              -0.000612634               0.999999989              -0.000452448              -0.000612150               0.999999989              -0.000431312              -0.000606413               0.999999989              -0.000403444              -0.000594014               0.999999989              -0.000368804              -0.000575064               0.999999989              -0.000328187              -0.000549977               0.999999989              -0.000282495              -0.000519429               0.999999989              -0.000232912              -0.000484308               0.999999989              -0.000180806              -0.000445931               0.999999989              -0.000127846              -0.000405996               0.999999989              -0.000075208              -0.000366748               0.999999989              -0.000574663              -0.000858899               0.999999989              -0.000466980              -0.000736067               0.999999989              -0.000430857              -0.000699802               0.999999989              -0.000417449              -0.000693478               0.999999989              -0.000409979              -0.000697825               0.999999989              -0.000401069              -0.000704254               0.999999989              -0.000386854              -0.000707704               0.999999989              -0.000365465              -0.000706341               0.999999989              -0.000335776              -0.000698841               0.999999989              -0.000297259              -0.000684657               0.999999989              -0.000250851              -0.000664185               0.999999989              -0.000197888              -0.000638325               0.999999989              -0.000139573              -0.000608036               0.999999989              -0.000077607              -0.000574664               0.999999989              -0.000013812              -0.000540082               0.999999989               0.000050205              -0.000505993               0.999999989               0.000113613              -0.000473324               0.999999989              -0.000515441              -0.000943820               0.999999989              -0.000401382              -0.000839062               0.999999989              -0.000363206              -0.000799725               0.999999989              -0.000349345              -0.000789540               0.999999989              -0.000342428              -0.000791489               0.999999989              -0.000335327              -0.000797731               0.999999989              -0.000324270              -0.000803765               0.999999989              -0.000307065              -0.000806928               0.999999989              -0.000282500              -0.000806063               0.999999989              -0.000249679              -0.000800288               0.999999989              -0.000209059              -0.000789713               0.999999989              -0.000161450              -0.000774763               0.999999989              -0.000107532              -0.000756172               0.999999989              -0.000048333              -0.000734728               0.999999989               0.000014734              -0.000711495               0.999999989               0.000080071              -0.000687884               0.999999989               0.000146126              -0.000665214               0.999999989              -0.000450692              -0.001021526               0.999999989              -0.000338071              -0.000939235               0.999999989              -0.000297886              -0.000902835               0.999999989              -0.000282853              -0.000890858               0.999999989              -0.000275859              -0.000891450               0.999999989              -0.000269775              -0.000897759               0.999999989              -0.000261153              -0.000905929               0.999999989              -0.000247603              -0.000913283               0.999999989              -0.000227629              -0.000918256               0.999999989              -0.000200438              -0.000919983               0.999999989              -0.000165750              -0.000918025               0.999999989              -0.000124054              -0.000912642               0.999999989              -0.000075537              -0.000904154               0.999999989              -0.000020935              -0.000893289               0.999999989               0.000038956              -0.000880623               0.999999989               0.000103088              -0.000867108               0.999999989               0.000169424              -0.000853613               0.999999989              -0.000381769              -0.001089954               0.999999989              -0.000277050              -0.001033502               0.999999989              -0.000236581              -0.001004278               0.999999989              -0.000220316              -0.000993614               0.999999989              -0.000212765              -0.000994280               0.999999989              -0.000207229              -0.001001301               0.999999989              -0.000200206              -0.001011552               0.999999989              -0.000189569              -0.001022705               0.999999989              -0.000173796              -0.001033040               0.999999989              -0.000151940              -0.001041561               0.999999989              -0.000123451              -0.001047563               0.999999989              -0.000088010              -0.001050846               0.999999989              -0.000045651              -0.001051611               0.999999989               0.000003249              -0.001050264               0.999999989               0.000058329              -0.001047155               0.999999989               0.000119126              -0.001042979               0.999999989               0.000184597              -0.001038485               0.999999989              -0.000309477              -0.001147584               0.999999989              -0.000218468              -0.001117629               0.999999989              -0.000180298              -0.001098736               0.999999989              -0.000163717              -0.001092089               0.999999989              -0.000155705              -0.001094624               0.999999989              -0.000150284              -0.001103333               0.999999989              -0.000144303              -0.001115938               0.999999989              -0.000136082              -0.001130539               0.999999989              -0.000124021              -0.001145793               0.999999989              -0.000107107              -0.001160516               0.999999989              -0.000084576              -0.001173958               0.999999989              -0.000055903              -0.001185621               0.999999989              -0.000020715              -0.001195225               0.999999989               0.000021271              -0.001202857               0.999999989               0.000070083              -0.001208807               0.999999989               0.000126084              -0.001213516               0.999999989               0.000189357              -0.001217736               0.999999989              -0.000234405              -0.001193486               0.999999989              -0.000162025              -0.001187554               0.999999989              -0.000129446              -0.001180225               0.999999989              -0.000114254              -0.001179301               0.999999989              -0.000106428              -0.001185108               0.999999989              -0.000101187              -0.001196487               0.999999989              -0.000096134              -0.001211771               0.999999989              -0.000090081              -0.001229727               0.999999989              -0.000081418              -0.001249298               0.999999989              -0.000068982              -0.001269567               0.999999989              -0.000052300              -0.001289774               0.999999989              -0.000030579              -0.001309257               0.999999989              -0.000003196              -0.001327561               0.999999989               0.000030360              -0.001344310               0.999999989               0.000070871              -0.001359547               0.999999989               0.000119408              -0.001373454               0.999999989               0.000177287              -0.001386329               0.999999989              -0.000157315              -0.001226800               0.999999989              -0.000107204              -0.001239849               0.999999989              -0.000083384              -0.001243097               0.999999989              -0.000071596              -0.001248308               0.999999989              -0.000065124              -0.001257908               0.999999989              -0.000060831              -0.001272029               0.999999989              -0.000057091              -0.001289951               0.999999989              -0.000053012              -0.001310924               0.999999989              -0.000047321              -0.001334181               0.999999989              -0.000039249              -0.001359073               0.999999989              -0.000028192              -0.001384920               0.999999989              -0.000013539              -0.001411043               0.999999989               0.000005288              -0.001436832               0.999999989               0.000028804              -0.001461858               0.999999989               0.000058137              -0.001485790               0.999999989               0.000094715              -0.001508390               0.999999989               0.000140422              -0.001529518               0.999999989              -0.000078958              -0.001247027               0.999999989              -0.000053359              -0.001272220               0.999999989              -0.000040763              -0.001282859               0.999999989              -0.000034297              -0.001292577               0.999999989              -0.000030656              -0.001305186               0.999999989              -0.000028169              -0.001321545               0.999999989              -0.000026154              -0.001341442               0.999999989              -0.000024004              -0.001364559               0.999999989              -0.000021181              -0.001390366               0.999999989              -0.000017250              -0.001418357               0.999999989              -0.000011799              -0.001447970               0.999999989              -0.000004417              -0.001478597               0.999999989               0.000005100              -0.001509624               0.999999989               0.000017282              -0.001540610               0.999999989               0.000032733              -0.001571071               0.999999989               0.000052516              -0.001600450               0.999999989               0.000078189              -0.001628016               0.999999989               0.000000000              -0.001253830               0.999999989               0.000000000              -0.001283179               0.999999989              -0.000000000              -0.001296481               0.999999989               0.000000000              -0.001307915               0.999999989               0.000000000              -0.001321668               0.999999989              -0.000000000              -0.001338875               0.999999989               0.000000000              -0.001359539               0.999999989               0.000000000              -0.001383473               0.999999989              -0.000000000              -0.001410251               0.999999989              -0.000000000              -0.001439421               0.999999989               0.000000000              -0.001470389               0.999999989               0.000000000              -0.001502577               0.999999989              -0.000000000              -0.001535445               0.999999989               0.000000000              -0.001568541               0.999999989               0.000000000              -0.001601405               0.999999989              -0.000000000              -0.001633367               0.999999989               0.000000000              -0.001663430               0.999999989               0.000839656              -0.000000000               0.999999989               0.000884744              -0.000000000               0.999999989               0.000903649               0.000000000               0.999999989               0.000913983               0.000000000               0.999999989               0.000922154               0.000000000               0.999999989               0.000930353               0.000000000               0.999999989               0.000939476              -0.000000000               0.999999989               0.000949532               0.000000000               0.999999989               0.000960201               0.000000000               0.999999989               0.000971055              -0.000000000               0.999999989               0.000981783              -0.000000000               0.999999989               0.000991889              -0.000000000               0.999999989               0.001001164               0.000000000               0.999999989               0.001009374               0.000000000               0.999999989               0.001016033               0.000000000               0.999999989               0.001020741               0.000000000               0.999999989               0.001022751              -0.000000000               0.999999989               0.000835079              -0.000117911               0.999999989               0.000876330              -0.000093307               0.999999989               0.000892766              -0.000081694               0.999999989               0.000901375              -0.000076500               0.999999989               0.000908301              -0.000074466               0.999999989               0.000915639              -0.000073961               0.999999989               0.000923933              -0.000073927               0.999999989               0.000933075              -0.000073714               0.999999989               0.000942753              -0.000072908               0.999999989               0.000952476              -0.000071142               0.999999989               0.000961798              -0.000068175               0.999999989               0.000970431              -0.000063770               0.999999989               0.000978091              -0.000057581               0.999999989               0.000984382              -0.000049140               0.999999989               0.000988951              -0.000037762               0.999999989               0.000991406              -0.000022671               0.999999989               0.000991223              -0.000002871               0.999999989               0.000821638              -0.000234806               0.999999989               0.000851605              -0.000186319               0.999999989               0.000860878              -0.000164197               0.999999989               0.000864831              -0.000154812               0.999999989               0.000868530              -0.000151678               0.999999989               0.000873353              -0.000151221               0.999999989               0.000879323              -0.000151559               0.999999989               0.000886094              -0.000151390               0.999999989               0.000893067              -0.000149870               0.999999989               0.000899631              -0.000146405               0.999999989               0.000905263              -0.000140639               0.999999989               0.000909652              -0.000132178               0.999999989               0.000912431              -0.000120241               0.999999989               0.000913246              -0.000104032               0.999999989               0.000911885              -0.000082705               0.999999989               0.000908158              -0.000055285               0.999999989               0.000901975              -0.000020463               0.999999989               0.000799429              -0.000349743               0.999999989               0.000811514              -0.000278780               0.999999989               0.000810333              -0.000248319               0.999999989               0.000808043              -0.000236486               0.999999989               0.000807605              -0.000233384               0.999999989               0.000809108              -0.000233878               0.999999989               0.000812013              -0.000235136               0.999999989               0.000815346              -0.000235439               0.999999989               0.000818282              -0.000233416               0.999999989               0.000820172              -0.000228366               0.999999989               0.000820481              -0.000219876               0.999999989               0.000818757              -0.000207390               0.999999989               0.000814553              -0.000190041               0.999999989               0.000807644              -0.000167148               0.999999989               0.000798021              -0.000138053               0.999999989               0.000785867              -0.000102130               0.999999989               0.000771348              -0.000058633               0.999999989               0.000768584              -0.000461736               0.999999989               0.000757846              -0.000370756               0.999999989               0.000745029              -0.000334727               0.999999989               0.000736518              -0.000322334               0.999999989               0.000732313              -0.000320364               0.999999989               0.000730876              -0.000322378               0.999999989               0.000730505              -0.000324749               0.999999989               0.000729812              -0.000325488               0.999999989               0.000727928              -0.000323027               0.999999989               0.000724083              -0.000316445               0.999999989               0.000717725              -0.000305101               0.999999989               0.000708243              -0.000288686               0.999999989               0.000695458              -0.000266449               0.999999989               0.000679364              -0.000237995               0.999999989               0.000660131              -0.000203187               0.999999989               0.000638121              -0.000161959               0.999999989               0.000613882              -0.000114553               0.999999989               0.000729803              -0.000569680               0.999999989               0.000693323              -0.000462450               0.999999989               0.000669668              -0.000423655               0.999999989               0.000656503              -0.000412188               0.999999989               0.000649759              -0.000412011               0.999999989               0.000645897              -0.000415784               0.999999989               0.000642304              -0.000419031               0.999999989               0.000637345              -0.000419838               0.999999989               0.000629893              -0.000416647               0.999999989               0.000619187              -0.000408268               0.999999989               0.000604687              -0.000394187               0.999999989               0.000585999              -0.000374073               0.999999989               0.000563132              -0.000347888               0.999999989               0.000536447              -0.000315597               0.999999989               0.000506448              -0.000277293               0.999999989               0.000473913              -0.000233744               0.999999989               0.000439866              -0.000186449               0.999999989               0.000683855              -0.000672604               0.999999989               0.000621170              -0.000553971               0.999999989               0.000589308              -0.000514762               0.999999989               0.000573805              -0.000505123               0.999999989               0.000565812              -0.000506894               0.999999989               0.000560144              -0.000512113               0.999999989               0.000553436              -0.000515810               0.999999989               0.000543707              -0.000516119               0.999999989               0.000529889              -0.000511813               0.999999989               0.000511261              -0.000501424               0.999999989               0.000487271              -0.000484668               0.999999989               0.000458109              -0.000461631               0.999999989               0.000424132              -0.000432630               0.999999989               0.000386188              -0.000398005               0.999999989               0.000345162              -0.000358484               0.999999989               0.000302271              -0.000315594               0.999999989               0.000258931              -0.000271485               0.999999989               0.000631577              -0.000769609               0.999999989               0.000544895              -0.000645153               0.999999989               0.000508406              -0.000607258               0.999999989               0.000493008              -0.000599597               0.999999989               0.000484988              -0.000602889               0.999999989               0.000477777              -0.000608950               0.999999989               0.000467522              -0.000612634               0.999999989               0.000452448              -0.000612150               0.999999989               0.000431312              -0.000606413               0.999999989               0.000403444              -0.000594014               0.999999989               0.000368804              -0.000575064               0.999999989               0.000328187              -0.000549977               0.999999989               0.000282495              -0.000519429               0.999999989               0.000232912              -0.000484308               0.999999989               0.000180806              -0.000445931               0.999999989               0.000127846              -0.000405996               0.999999989               0.000075208              -0.000366748               0.999999989               0.000574663              -0.000858899               0.999999989               0.000466980              -0.000736067               0.999999989               0.000430857              -0.000699802               0.999999989               0.000417449              -0.000693478               0.999999989               0.000409979              -0.000697825               0.999999989               0.000401069              -0.000704254               0.999999989               0.000386854              -0.000707704               0.999999989               0.000365465              -0.000706341               0.999999989               0.000335776              -0.000698841               0.999999989               0.000297259              -0.000684657               0.999999989               0.000250851              -0.000664185               0.999999989               0.000197888              -0.000638325               0.999999989               0.000139573              -0.000608036               0.999999989               0.000077607              -0.000574664               0.999999989               0.000013812              -0.000540082               0.999999989              -0.000050205              -0.000505993               0.999999989              -0.000113613              -0.000473324               0.999999989               0.000515441              -0.000943820               0.999999989               0.000401382              -0.000839062               0.999999989               0.000363206              -0.000799725               0.999999989               0.000349345              -0.000789540               0.999999989               0.000342428              -0.000791489               0.999999989               0.000335327              -0.000797731               0.999999989               0.000324270              -0.000803765               0.999999989               0.000307065              -0.000806928               0.999999989               0.000282500              -0.000806063               0.999999989               0.000249679              -0.000800288               0.999999989               0.000209059              -0.000789713               0.999999989               0.000161450              -0.000774763               0.999999989               0.000107532              -0.000756172               0.999999989               0.000048333              -0.000734728               0.999999989              -0.000014734              -0.000711495               0.999999989              -0.000080071              -0.000687884               0.999999989              -0.000146126              -0.000665214               0.999999989               0.000450692              -0.001021526               0.999999989               0.000338071              -0.000939235               0.999999989               0.000297886              -0.000902835               0.999999989               0.000282853              -0.000890858               0.999999989               0.000275859              -0.000891450               0.999999989               0.000269775              -0.000897759               0.999999989               0.000261153              -0.000905929               0.999999989               0.000247603              -0.000913283               0.999999989               0.000227629              -0.000918256               0.999999989               0.000200438              -0.000919983               0.999999989               0.000165750              -0.000918025               0.999999989               0.000124054              -0.000912642               0.999999989               0.000075537              -0.000904154               0.999999989               0.000020935              -0.000893289               0.999999989              -0.000038956              -0.000880623               0.999999989              -0.000103088              -0.000867108               0.999999989              -0.000169424              -0.000853613               0.999999989               0.000381769              -0.001089954               0.999999989               0.000277050              -0.001033502               0.999999989               0.000236581              -0.001004278               0.999999989               0.000220316              -0.000993614               0.999999989               0.000212765              -0.000994280               0.999999989               0.000207229              -0.001001301               0.999999989               0.000200206              -0.001011552               0.999999989               0.000189569              -0.001022705               0.999999989               0.000173796              -0.001033040               0.999999989               0.000151940              -0.001041561               0.999999989               0.000123451              -0.001047563               0.999999989               0.000088010              -0.001050846               0.999999989               0.000045651              -0.001051611               0.999999989              -0.000003249              -0.001050264               0.999999989              -0.000058329              -0.001047155               0.999999989              -0.000119126              -0.001042979               0.999999989              -0.000184597              -0.001038485               0.999999989               0.000309477              -0.001147584               0.999999989               0.000218468              -0.001117629               0.999999989               0.000180298              -0.001098736               0.999999989               0.000163717              -0.001092089               0.999999989               0.000155705              -0.001094624               0.999999989               0.000150284              -0.001103333               0.999999989               0.000144303              -0.001115938               0.999999989               0.000136082              -0.001130539               0.999999989               0.000124021              -0.001145793               0.999999989               0.000107107              -0.001160516               0.999999989               0.000084576              -0.001173958               0.999999989               0.000055903              -0.001185621               0.999999989               0.000020715              -0.001195225               0.999999989              -0.000021271              -0.001202857               0.999999989              -0.000070083              -0.001208807               0.999999989              -0.000126084              -0.001213516               0.999999989              -0.000189357              -0.001217736               0.999999989               0.000234405              -0.001193486               0.999999989               0.000162025              -0.001187554               0.999999989               0.000129446              -0.001180225               0.999999989               0.000114254              -0.001179301               0.999999989               0.000106428              -0.001185108               0.999999989               0.000101187              -0.001196487               0.999999989               0.000096134              -0.001211771               0.999999989               0.000090081              -0.001229727               0.999999989               0.000081418              -0.001249298               0.999999989               0.000068982              -0.001269567               0.999999989               0.000052300              -0.001289774               0.999999989               0.000030579              -0.001309257               0.999999989               0.000003196              -0.001327561               0.999999989              -0.000030360              -0.001344310               0.999999989              -0.000070871              -0.001359547               0.999999989              -0.000119408              -0.001373454               0.999999989              -0.000177287              -0.001386329               0.999999989               0.000157315              -0.001226800               0.999999989               0.000107204              -0.001239849               0.999999989               0.000083384              -0.001243097               0.999999989               0.000071596              -0.001248308               0.999999989               0.000065124              -0.001257908               0.999999989               0.000060831              -0.001272029               0.999999989               0.000057091              -0.001289951               0.999999989               0.000053012              -0.001310924               0.999999989               0.000047321              -0.001334181               0.999999989               0.000039249              -0.001359073               0.999999989               0.000028192              -0.001384920               0.999999989               0.000013539              -0.001411043               0.999999989              -0.000005288              -0.001436832               0.999999989              -0.000028804              -0.001461858               0.999999989              -0.000058137              -0.001485790               0.999999989              -0.000094715              -0.001508390               0.999999989              -0.000140422              -0.001529518               0.999999989               0.000078958              -0.001247027               0.999999989               0.000053359              -0.001272220               0.999999989               0.000040763              -0.001282859               0.999999989               0.000034297              -0.001292577               0.999999989               0.000030656              -0.001305186               0.999999989               0.000028169              -0.001321545               0.999999989               0.000026154              -0.001341442               0.999999989               0.000024004              -0.001364559               0.999999989               0.000021181              -0.001390366               0.999999989               0.000017250              -0.001418357               0.999999989               0.000011799              -0.001447970               0.999999989               0.000004417              -0.001478597               0.999999989              -0.000005100              -0.001509624               0.999999989              -0.000017282              -0.001540610               0.999999989              -0.000032733              -0.001571071               0.999999989              -0.000052516              -0.001600450               0.999999989              -0.000078189              -0.001628016               0.999999989               0.000000000              -0.001253830               0.999999989               0.000000000              -0.001283179               0.999999989              -0.000000000              -0.001296481               0.999999989               0.000000000              -0.001307915               0.999999989               0.000000000              -0.001321668               0.999999989              -0.000000000              -0.001338875               0.999999989               0.000000000              -0.001359539               0.999999989               0.000000000              -0.001383473               0.999999989              -0.000000000              -0.001410251               0.999999989              -0.000000000              -0.001439421               0.999999989               0.000000000              -0.001470389               0.999999989               0.000000000              -0.001502577               0.999999989              -0.000000000              -0.001535445               0.999999989               0.000000000              -0.001568541               0.999999989               0.000000000              -0.001601405               0.999999989              -0.000000000              -0.001633367               0.999999989               0.000000000              -0.001663430               0.999999989               0.000839656              -0.000000000               0.999999989               0.000884744              -0.000000000               0.999999989               0.000903649               0.000000000               0.999999989               0.000913983               0.000000000               0.999999989               0.000922154               0.000000000               0.999999989               0.000930353               0.000000000               0.999999989               0.000939476              -0.000000000               0.999999989               0.000949532               0.000000000               0.999999989               0.000960201               0.000000000               0.999999989               0.000971055              -0.000000000               0.999999989               0.000981783              -0.000000000               0.999999989               0.000991889              -0.000000000               0.999999989               0.001001164               0.000000000               0.999999989               0.001009374               0.000000000               0.999999989               0.001016033               0.000000000               0.999999989               0.001020741               0.000000000               0.999999989               0.001022751              -0.000000000               0.999999989               0.000835079               0.000117911               0.999999989               0.000876330               0.000093307               0.999999989               0.000892766               0.000081694               0.999999989               0.000901375               0.000076500               0.999999989               0.000908301               0.000074466               0.999999989               0.000915639               0.000073961               0.999999989               0.000923933               0.000073927               0.999999989               0.000933075               0.000073714               0.999999989               0.000942753               0.000072908               0.999999989               0.000952476               0.000071142               0.999999989               0.000961798               0.000068175               0.999999989               0.000970431               0.000063770               0.999999989               0.000978091               0.000057581               0.999999989               0.000984382               0.000049140               0.999999989               0.000988951               0.000037762               0.999999989               0.000991406               0.000022671               0.999999989               0.000991223               0.000002871               0.999999989               0.000821638               0.000234806               0.999999989               0.000851605               0.000186319               0.999999989               0.000860878               0.000164197               0.999999989               0.000864831               0.000154812               0.999999989               0.000868530               0.000151678               0.999999989               0.000873353               0.000151221               0.999999989               0.000879323               0.000151559               0.999999989               0.000886094               0.000151390               0.999999989               0.000893067               0.000149870               0.999999989               0.000899631               0.000146405               0.999999989               0.000905263               0.000140639               0.999999989               0.000909652               0.000132178               0.999999989               0.000912431               0.000120241               0.999999989               0.000913246               0.000104032               0.999999989               0.000911885               0.000082705               0.999999989               0.000908158               0.000055285               0.999999989               0.000901975               0.000020463               0.999999989               0.000799429               0.000349743               0.999999989               0.000811514               0.000278780               0.999999989               0.000810333               0.000248319               0.999999989               0.000808043               0.000236486               0.999999989               0.000807605               0.000233384               0.999999989               0.000809108               0.000233878               0.999999989               0.000812013               0.000235136               0.999999989               0.000815346               0.000235439               0.999999989               0.000818282               0.000233416               0.999999989               0.000820172               0.000228366               0.999999989               0.000820481               0.000219876               0.999999989               0.000818757               0.000207390               0.999999989               0.000814553               0.000190041               0.999999989               0.000807644               0.000167148               0.999999989               0.000798021               0.000138053               0.999999989               0.000785867               0.000102130               0.999999989               0.000771348               0.000058633               0.999999989               0.000768584               0.000461736               0.999999989               0.000757846               0.000370756               0.999999989               0.000745029               0.000334727               0.999999989               0.000736518               0.000322334               0.999999989               0.000732313               0.000320364               0.999999989               0.000730876               0.000322378               0.999999989               0.000730505               0.000324749               0.999999989               0.000729812               0.000325488               0.999999989               0.000727928               0.000323027               0.999999989               0.000724083               0.000316445               0.999999989               0.000717725               0.000305101               0.999999989               0.000708243               0.000288686               0.999999989               0.000695458               0.000266449               0.999999989               0.000679364               0.000237995               0.999999989               0.000660131               0.000203187               0.999999989               0.000638121               0.000161959               0.999999989               0.000613882               0.000114553               0.999999989               0.000729803               0.000569680               0.999999989               0.000693323               0.000462450               0.999999989               0.000669668               0.000423655               0.999999989               0.000656503               0.000412188               0.999999989               0.000649759               0.000412011               0.999999989               0.000645897               0.000415784               0.999999989               0.000642304               0.000419031               0.999999989               0.000637345               0.000419838               0.999999989               0.000629893               0.000416647               0.999999989               0.000619187               0.000408268               0.999999989               0.000604687               0.000394187               0.999999989               0.000585999               0.000374073               0.999999989               0.000563132               0.000347888               0.999999989               0.000536447               0.000315597               0.999999989               0.000506448               0.000277293               0.999999989               0.000473913               0.000233744               0.999999989               0.000439866               0.000186449               0.999999989               0.000683855               0.000672604               0.999999989               0.000621170               0.000553971               0.999999989               0.000589308               0.000514762               0.999999989               0.000573805               0.000505123               0.999999989               0.000565812               0.000506894               0.999999989               0.000560144               0.000512113               0.999999989               0.000553436               0.000515810               0.999999989               0.000543707               0.000516119               0.999999989               0.000529889               0.000511813               0.999999989               0.000511261               0.000501424               0.999999989               0.000487271               0.000484668               0.999999989               0.000458109               0.000461631               0.999999989               0.000424132               0.000432630               0.999999989               0.000386188               0.000398005               0.999999989               0.000345162               0.000358484               0.999999989               0.000302271               0.000315594               0.999999989               0.000258931               0.000271485               0.999999989               0.000631577               0.000769609               0.999999989               0.000544895               0.000645153               0.999999989               0.000508406               0.000607258               0.999999989               0.000493008               0.000599597               0.999999989               0.000484988               0.000602889               0.999999989               0.000477777               0.000608950               0.999999989               0.000467522               0.000612634               0.999999989               0.000452448               0.000612150               0.999999989               0.000431312               0.000606413               0.999999989               0.000403444               0.000594014               0.999999989               0.000368804               0.000575064               0.999999989               0.000328187               0.000549977               0.999999989               0.000282495               0.000519429               0.999999989               0.000232912               0.000484308               0.999999989               0.000180806               0.000445931               0.999999989               0.000127846               0.000405996               0.999999989               0.000075208               0.000366748               0.999999989               0.000574663               0.000858899               0.999999989               0.000466980               0.000736067               0.999999989               0.000430857               0.000699802               0.999999989               0.000417449               0.000693478               0.999999989               0.000409979               0.000697825               0.999999989               0.000401069               0.000704254               0.999999989               0.000386854               0.000707704               0.999999989               0.000365465               0.000706341               0.999999989               0.000335776               0.000698841               0.999999989               0.000297259               0.000684657               0.999999989               0.000250851               0.000664185               0.999999989               0.000197888               0.000638325               0.999999989               0.000139573               0.000608036               0.999999989               0.000077607               0.000574664               0.999999989               0.000013812               0.000540082               0.999999989              -0.000050205               0.000505993               0.999999989              -0.000113613               0.000473324               0.999999989               0.000515441               0.000943820               0.999999989               0.000401382               0.000839062               0.999999989               0.000363206               0.000799725               0.999999989               0.000349345               0.000789540               0.999999989               0.000342428               0.000791489               0.999999989               0.000335327               0.000797731               0.999999989               0.000324270               0.000803765               0.999999989               0.000307065               0.000806928               0.999999989               0.000282500               0.000806063               0.999999989               0.000249679               0.000800288               0.999999989               0.000209059               0.000789713               0.999999989               0.000161450               0.000774763               0.999999989               0.000107532               0.000756172               0.999999989               0.000048333               0.000734728               0.999999989              -0.000014734               0.000711495               0.999999989              -0.000080071               0.000687884               0.999999989              -0.000146126               0.000665214               0.999999989               0.000450692               0.001021526               0.999999989               0.000338071               0.000939235               0.999999989               0.000297886               0.000902835               0.999999989               0.000282853               0.000890858               0.999999989               0.000275859               0.000891450               0.999999989               0.000269775               0.000897759               0.999999989               0.000261153               0.000905929               0.999999989               0.000247603               0.000913283               0.999999989               0.000227629               0.000918256               0.999999989               0.000200438               0.000919983               0.999999989               0.000165750               0.000918025               0.999999989               0.000124054               0.000912642               0.999999989               0.000075537               0.000904154               0.999999989               0.000020935               0.000893289               0.999999989              -0.000038956               0.000880623               0.999999989              -0.000103088               0.000867108               0.999999989              -0.000169424               0.000853613               0.999999989               0.000381769               0.001089954               0.999999989               0.000277050               0.001033502               0.999999989               0.000236581               0.001004278               0.999999989               0.000220316               0.000993614               0.999999989               0.000212765               0.000994280               0.999999989               0.000207229               0.001001301               0.999999989               0.000200206               0.001011552               0.999999989               0.000189569               0.001022705               0.999999989               0.000173796               0.001033040               0.999999989               0.000151940               0.001041561               0.999999989               0.000123451               0.001047563               0.999999989               0.000088010               0.001050846               0.999999989               0.000045651               0.001051611               0.999999989              -0.000003249               0.001050264               0.999999989              -0.000058329               0.001047155               0.999999989              -0.000119126               0.001042979               0.999999989              -0.000184597               0.001038485               0.999999989               0.000309477               0.001147584               0.999999989               0.000218468               0.001117629               0.999999989               0.000180298               0.001098736               0.999999989               0.000163717               0.001092089               0.999999989               0.000155705               0.001094624               0.999999989               0.000150284               0.001103333               0.999999989               0.000144303               0.001115938               0.999999989               0.000136082               0.001130539               0.999999989               0.000124021               0.001145793               0.999999989               0.000107107               0.001160516               0.999999989               0.000084576               0.001173958               0.999999989               0.000055903               0.001185621               0.999999989               0.000020715               0.001195225               0.999999989              -0.000021271               0.001202857               0.999999989              -0.000070083               0.001208807               0.999999989              -0.000126084               0.001213516               0.999999989              -0.000189357               0.001217736               0.999999989               0.000234405               0.001193486               0.999999989               0.000162025               0.001187554               0.999999989               0.000129446               0.001180225               0.999999989               0.000114254               0.001179301               0.999999989               0.000106428               0.001185108               0.999999989               0.000101187               0.001196487               0.999999989               0.000096134               0.001211771               0.999999989               0.000090081               0.001229727               0.999999989               0.000081418               0.001249298               0.999999989               0.000068982               0.001269567               0.999999989               0.000052300               0.001289774               0.999999989               0.000030579               0.001309257               0.999999989               0.000003196               0.001327561               0.999999989              -0.000030360               0.001344310               0.999999989              -0.000070871               0.001359547               0.999999989              -0.000119408               0.001373454               0.999999989              -0.000177287               0.001386329               0.999999989               0.000157315               0.001226800               0.999999989               0.000107204               0.001239849               0.999999989               0.000083384               0.001243097               0.999999989               0.000071596               0.001248308               0.999999989               0.000065124               0.001257908               0.999999989               0.000060831               0.001272029               0.999999989               0.000057091               0.001289951               0.999999989               0.000053012               0.001310924               0.999999989               0.000047321               0.001334181               0.999999989               0.000039249               0.001359073               0.999999989               0.000028192               0.001384920               0.999999989               0.000013539               0.001411043               0.999999989              -0.000005288               0.001436832               0.999999989              -0.000028804               0.001461858               0.999999989              -0.000058137               0.001485790               0.999999989              -0.000094715               0.001508390               0.999999989              -0.000140422               0.001529518               0.999999989               0.000078958               0.001247027               0.999999989               0.000053359               0.001272220               0.999999989               0.000040763               0.001282859               0.999999989               0.000034297               0.001292577               0.999999989               0.000030656               0.001305186               0.999999989               0.000028169               0.001321545               0.999999989               0.000026154               0.001341442               0.999999989               0.000024004               0.001364559               0.999999989               0.000021181               0.001390366               0.999999989               0.000017250               0.001418357               0.999999989               0.000011799               0.001447970               0.999999989               0.000004417               0.001478597               0.999999989              -0.000005100               0.001509624               0.999999989              -0.000017282               0.001540610               0.999999989              -0.000032733               0.001571071               0.999999989              -0.000052516               0.001600450               0.999999989              -0.000078189               0.001628016               0.999999989               0.000000000               0.001253830               0.999999989               0.000000000               0.001283179               0.999999989              -0.000000000               0.001296481               0.999999989              -0.000000000               0.001307915               0.999999989              -0.000000000               0.001321668               0.999999989               0.000000000               0.001338875               0.999999989               0.000000000               0.001359539               0.999999989              -0.000000000               0.001383473               0.999999989              -0.000000000               0.001410251               0.999999989               0.000000000               0.001439421               0.999999989               0.000000000               0.001470389               0.999999989               0.000000000               0.001502577               0.999999989               0.000000000               0.001535445               0.999999989              -0.000000000               0.001568541               0.999999989               0.000000000               0.001601405               0.999999989              -0.000000000               0.001633367               0.999999989              -0.000000000               0.001663430               0.999999989 </DataArray>
<DataArray type="Float64"                                    Name="stress"                                                      NumberOfComponents="10" format="ascii">
              0.001996796               0.021379701              -0.000000000              -0.001923660               0.007767716               0.005844056               0.000000000               0.000000000               0.000000000               0.000000000               0.001900744               0.016367048              -0.000000000              -0.001333099               0.005899994               0.004566896               0.000000000               0.000000000               0.000000000               0.000000000               0.002433693               0.012270191              -0.000000000              -0.000621138               0.004297069               0.003675931               0.000000000               0.000000000               0.000000000               0.000000000               0.002234615               0.009938569              -0.000000000              -0.000404340               0.003447603               0.003043263               0.000000000               0.000000000               0.000000000               0.000000000               0.001842067               0.008450530              -0.000000000              -0.000365540               0.002938662               0.002573122               0.000000000               0.000000000               0.000000000               0.000000000               0.001430373               0.007401120              -0.000000000              -0.000388749               0.002596599               0.002207849               0.000000000               0.000000000               0.000000000               0.000000000               0.001055245               0.006587200              -0.000000000              -0.000427682               0.002338272               0.001910590               0.000000000               0.000000000               0.000000000               0.000000000               0.000744379               0.005906413              -0.000000000              -0.000459158               0.002121838               0.001662679               0.000000000               0.000000000               0.000000000               0.000000000               0.000502817               0.005301754              -0.000000000              -0.000474162               0.001925287               0.001451126               0.000000000               0.000000000               0.000000000               0.000000000               0.000319592               0.004734499              -0.000000000              -0.000471964               0.001735472               0.001263508               0.000000000               0.000000000               0.000000000               0.000000000               0.000186179               0.004182181              -0.000000000              -0.000452954               0.001545031               0.001092077               0.000000000               0.000000000               0.000000000               0.000000000               0.000089256               0.003626264               0.000000000              -0.000419811               0.001348680               0.000928868               0.000000000               0.000000000               0.000000000               0.000000000               0.000014353               0.003046286               0.000000000              -0.000375402               0.001140552               0.000765150               0.000000000               0.000000000               0.000000000               0.000000000              -0.000032017               0.002425702              -0.000000000              -0.000315218               0.000913632               0.000598414               0.000000000               0.000000000               0.000000000               0.000000000              -0.000051435               0.001740820               0.000000000              -0.000236890               0.000659231               0.000422341               0.000000000               0.000000000               0.000000000               0.000000000              -0.000037401               0.000969496               0.000000000              -0.000135212               0.000368233               0.000233021               0.000000000               0.000000000               0.000000000               0.000000000              -0.000080689               0.000383818              -0.000000000              -0.000078236               0.000154016               0.000075781               0.000000000               0.000000000               0.000000000               0.000000000               0.002057175               0.020922116              -0.001419249              -0.001843820               0.007588575               0.005744756               0.000000000               0.000000000               0.000000000               0.000000000               0.001842702               0.016076075              -0.000636898              -0.001318493               0.005798136               0.004479643               0.000000000               0.000000000               0.000000000               0.000000000               0.002251803               0.012152814               0.000137720              -0.000674674               0.004275789               0.003601115               0.000000000               0.000000000               0.000000000               0.000000000               0.002007676               0.009915538               0.000460471              -0.000486563               0.003467334               0.002980771               0.000000000               0.000000000               0.000000000               0.000000000               0.001601818               0.008480949               0.000585864              -0.000459436               0.002980100               0.002520664               0.000000000               0.000000000               0.000000000               0.000000000               0.001196713               0.007457418               0.000620591              -0.000483409               0.002646917               0.002163509               0.000000000               0.000000000               0.000000000               0.000000000               0.000843232               0.006658122               0.000614141              -0.000516052               0.002391369               0.001875317               0.000000000               0.000000000               0.000000000               0.000000000               0.000555884               0.005983649               0.000589881              -0.000539499               0.002174363               0.001634864               0.000000000               0.000000000               0.000000000               0.000000000               0.000337283               0.005379634               0.000558295              -0.000545972               0.001975184               0.001429212               0.000000000               0.000000000               0.000000000               0.000000000               0.000180954               0.004814223               0.000524858              -0.000533919               0.001782698               0.001248779               0.000000000               0.000000000               0.000000000               0.000000000               0.000070203               0.004266221               0.000491937              -0.000506950               0.001591043               0.001084092               0.000000000               0.000000000               0.000000000               0.000000000              -0.000008630               0.003717915               0.000454245              -0.000467975               0.001395284               0.000927310               0.000000000               0.000000000               0.000000000               0.000000000              -0.000059004               0.003151139               0.000407385              -0.000416018               0.001189042               0.000773024               0.000000000               0.000000000               0.000000000               0.000000000              -0.000081827               0.002550566               0.000346186              -0.000349505               0.000966682               0.000617177               0.000000000               0.000000000               0.000000000               0.000000000              -0.000080822               0.001901938               0.000263170              -0.000268050               0.000723323               0.000455273               0.000000000               0.000000000               0.000000000               0.000000000              -0.000050513               0.001193469               0.000149543              -0.000168126               0.000453861               0.000285735               0.000000000               0.000000000               0.000000000               0.000000000              -0.000082065               0.000667481               0.000094303              -0.000114209               0.000260561               0.000146352               0.000000000               0.000000000               0.000000000               0.000000000               0.002200041               0.019615040              -0.002621966              -0.001626862               0.007080568               0.005453706               0.000000000               0.000000000               0.000000000               0.000000000               0.001660004               0.015248764              -0.001166205              -0.001283591               0.005510734               0.004227143               0.000000000               0.000000000               0.000000000               0.000000000               0.001725498               0.011825994               0.000260289              -0.000831186               0.004219021               0.003387835               0.000000000               0.000000000               0.000000000               0.000000000               0.001361067               0.009846901               0.000831069              -0.000720461               0.003522421               0.002801960               0.000000000               0.000000000               0.000000000               0.000000000               0.000937320               0.008546547               0.001039897              -0.000716822               0.003087761               0.002370939               0.000000000               0.000000000               0.000000000               0.000000000               0.000564837               0.007593046               0.001090302              -0.000737315               0.002776762               0.002039446               0.000000000               0.000000000               0.000000000               0.000000000               0.000269140               0.006830173               0.001070105              -0.000752843               0.002527649               0.001774806               0.000000000               0.000000000               0.000000000               0.000000000               0.000050284               0.006175133               0.001018626              -0.000753034               0.002309368               0.001556335               0.000000000               0.000000000               0.000000000               0.000000000              -0.000098458               0.005578180               0.000956505              -0.000734193               0.002104106               0.001369913               0.000000000               0.000000000               0.000000000               0.000000000              -0.000186666               0.005016876               0.000893498              -0.000697108               0.001904644               0.001207536               0.000000000               0.000000000               0.000000000               0.000000000              -0.000232160               0.004476171               0.000830865              -0.000646580               0.001707569               0.001060988               0.000000000               0.000000000               0.000000000               0.000000000              -0.000246422               0.003941793               0.000759371              -0.000585131               0.001508961               0.000923830               0.000000000               0.000000000               0.000000000               0.000000000              -0.000231351               0.003402699               0.000671189              -0.000512093               0.001304919               0.000792826               0.000000000               0.000000000               0.000000000               0.000000000              -0.000195449               0.002853670               0.000561183              -0.000430001               0.001094547               0.000664546               0.000000000               0.000000000               0.000000000               0.000000000              -0.000144725               0.002296373               0.000420546              -0.000341318               0.000879222               0.000537905               0.000000000               0.000000000               0.000000000               0.000000000              -0.000077722               0.001737361               0.000234885              -0.000246315               0.000661220               0.000414904               0.000000000               0.000000000               0.000000000               0.000000000              -0.000081074               0.001351106               0.000144239              -0.000199291               0.000516794               0.000317504               0.000000000               0.000000000               0.000000000               0.000000000               0.002304749               0.017627668              -0.003434081              -0.001339176               0.006322222               0.004983046               0.000000000               0.000000000               0.000000000               0.000000000               0.001313413               0.014012777              -0.001512547              -0.001259065               0.005090567               0.003831502               0.000000000               0.000000000               0.000000000               0.000000000               0.000904532               0.011349167               0.000336243              -0.001079444               0.004142832               0.003063389               0.000000000               0.000000000               0.000000000               0.000000000               0.000403599               0.009731045               0.001028257              -0.001065029               0.003598659               0.002533630               0.000000000               0.000000000               0.000000000               0.000000000              -0.000005953               0.008601545               0.001260045              -0.001077423               0.003226294               0.002148871               0.000000000               0.000000000               0.000000000               0.000000000              -0.000301047               0.007732080               0.001299274              -0.001079400               0.002937134               0.001857734               0.000000000               0.000000000               0.000000000               0.000000000              -0.000495179               0.007007596               0.001260813              -0.001061640               0.002689722               0.001628082               0.000000000               0.000000000               0.000000000               0.000000000              -0.000604114               0.006371877               0.001188561              -0.001023025               0.002464946               0.001441921               0.000000000               0.000000000               0.000000000               0.000000000              -0.000649952               0.005786489               0.001102530              -0.000967041               0.002251157               0.001284116               0.000000000               0.000000000               0.000000000               0.000000000              -0.000647143               0.005231819               0.001017107              -0.000896654               0.002042807               0.001146153               0.000000000               0.000000000               0.000000000               0.000000000              -0.000605851               0.004696099               0.000933261              -0.000814205               0.001836752               0.001022547               0.000000000               0.000000000               0.000000000               0.000000000              -0.000531922               0.004176908               0.000839514              -0.000721583               0.001632816               0.000911234               0.000000000               0.000000000               0.000000000               0.000000000              -0.000433710               0.003673993               0.000726867              -0.000621889               0.001431948               0.000810059               0.000000000               0.000000000               0.000000000               0.000000000              -0.000324807               0.003192500               0.000592965              -0.000520864               0.001237777               0.000716913               0.000000000               0.000000000               0.000000000               0.000000000              -0.000216814               0.002742980               0.000431796              -0.000424177               0.001055710               0.000631533               0.000000000               0.000000000               0.000000000               0.000000000              -0.000109801               0.002343300               0.000233984              -0.000334087               0.000892455               0.000558368               0.000000000               0.000000000               0.000000000               0.000000000              -0.000082382               0.002098621               0.000139025              -0.000293220               0.000797273               0.000504053               0.000000000               0.000000000               0.000000000               0.000000000               0.002226988               0.015190392              -0.003787501              -0.001063678               0.005417972               0.004354294               0.000000000               0.000000000               0.000000000               0.000000000               0.000772902               0.012538303              -0.001671019              -0.001277447               0.004605208               0.003327761               0.000000000               0.000000000               0.000000000               0.000000000              -0.000122754               0.010781434               0.000321581              -0.001393709               0.004058345               0.002664636               0.000000000               0.000000000               0.000000000               0.000000000              -0.000704669               0.009552127               0.001004320              -0.001458263               0.003670098               0.002211835               0.000000000               0.000000000               0.000000000               0.000000000              -0.001042876               0.008594314               0.001209236              -0.001465364               0.003353197               0.001887833               0.000000000               0.000000000               0.000000000               0.000000000              -0.001205063               0.007802043               0.001227556              -0.001427151               0.003076372               0.001649221               0.000000000               0.000000000               0.000000000               0.000000000              -0.001252727               0.007105118               0.001179125              -0.001357909               0.002820985               0.001463076               0.000000000               0.000000000               0.000000000               0.000000000              -0.001227535               0.006477066               0.001103020              -0.001269956               0.002582319               0.001312363               0.000000000               0.000000000               0.000000000               0.000000000              -0.001155086               0.005899122               0.001012094              -0.001170545               0.002356536               0.001185991               0.000000000               0.000000000               0.000000000               0.000000000              -0.001048364               0.005353587               0.000919757              -0.001062332               0.002138622               0.001076289               0.000000000               0.000000000               0.000000000               0.000000000              -0.000908873               0.004835661               0.000831298              -0.000945283               0.001926965               0.000981682               0.000000000               0.000000000               0.000000000               0.000000000              -0.000746220               0.004347605               0.000736958              -0.000823281               0.001723614               0.000900333               0.000000000               0.000000000               0.000000000               0.000000000              -0.000577331               0.003899232               0.000624932              -0.000703901               0.001534365               0.000830463               0.000000000               0.000000000               0.000000000               0.000000000              -0.000410340               0.003500313               0.000495270              -0.000591415               0.001363898               0.000772482               0.000000000               0.000000000               0.000000000               0.000000000              -0.000256106               0.003159812               0.000347745              -0.000491015               0.001216932               0.000725917               0.000000000               0.000000000               0.000000000               0.000000000              -0.000121265               0.002898409               0.000182854              -0.000407775               0.001102052               0.000694277               0.000000000               0.000000000               0.000000000               0.000000000              -0.000072643               0.002766595               0.000104964              -0.000373064               0.001046544               0.000673479               0.000000000               0.000000000               0.000000000               0.000000000               0.001865448               0.012566410              -0.003700449              -0.000871259               0.004479181               0.003607921               0.000000000               0.000000000               0.000000000               0.000000000               0.000052965               0.010988408              -0.001679969              -0.001353687               0.004113995               0.002760308               0.000000000               0.000000000               0.000000000               0.000000000              -0.001233853               0.010161831               0.000182435              -0.001732920               0.003964883               0.002231963               0.000000000               0.000000000               0.000000000               0.000000000              -0.001793588               0.009292843               0.000763057              -0.001834196               0.003708982               0.001874786               0.000000000               0.000000000               0.000000000               0.000000000              -0.001986318               0.008487009               0.000926821              -0.001805741               0.003430888               0.001625147               0.000000000               0.000000000               0.000000000               0.000000000              -0.001974135               0.007757614               0.000935621              -0.001709998               0.003155845               0.001445847               0.000000000               0.000000000               0.000000000               0.000000000              -0.001856256               0.007081775               0.000892792              -0.001581314               0.002887673               0.001306359               0.000000000               0.000000000               0.000000000               0.000000000              -0.001685987               0.006461503               0.000836096              -0.001439930               0.002633789               0.001193860               0.000000000               0.000000000               0.000000000               0.000000000              -0.001486095               0.005894796               0.000763702              -0.001294132               0.002396290               0.001102158               0.000000000               0.000000000               0.000000000               0.000000000              -0.001268360               0.005368335               0.000686586              -0.001146674               0.002171652               0.001024978               0.000000000               0.000000000               0.000000000               0.000000000              -0.001036878               0.004885595               0.000612403              -0.000999526               0.001961691               0.000962164               0.000000000               0.000000000               0.000000000               0.000000000              -0.000799709               0.004452570               0.000534555              -0.000856460               0.001769662               0.000913202               0.000000000               0.000000000               0.000000000               0.000000000              -0.000576597               0.004078867               0.000444311              -0.000726081               0.001601636               0.000875555               0.000000000               0.000000000               0.000000000               0.000000000              -0.000376975               0.003771420               0.000336357              -0.000612792               0.001461391               0.000848600               0.000000000               0.000000000               0.000000000               0.000000000              -0.000209867               0.003538802               0.000218298              -0.000521049               0.001353272               0.000832223               0.000000000               0.000000000               0.000000000               0.000000000              -0.000088242               0.003397578               0.000105610              -0.000457787               0.001285110               0.000827324               0.000000000               0.000000000               0.000000000               0.000000000              -0.000040277               0.003354494               0.000053097              -0.000434415               0.001262958               0.000828544               0.000000000               0.000000000               0.000000000               0.000000000               0.001157642               0.009990273              -0.003255728              -0.000814669               0.003601613               0.002786944               0.000000000               0.000000000               0.000000000               0.000000000              -0.000807041               0.009487186              -0.001597790              -0.001488536               0.003658542               0.002170006               0.000000000               0.000000000               0.000000000               0.000000000              -0.002300278               0.009514211              -0.000086883              -0.002051876               0.003855331               0.001803455               0.000000000               0.000000000               0.000000000               0.000000000              -0.002717018               0.008945836               0.000354744              -0.002137106               0.003694284               0.001557178               0.000000000               0.000000000               0.000000000               0.000000000              -0.002707424               0.008259862               0.000490306              -0.002047762               0.003435847               0.001388085               0.000000000               0.000000000               0.000000000               0.000000000              -0.002509162               0.007577635               0.000513488              -0.001888136               0.003155232               0.001267096               0.000000000               0.000000000               0.000000000               0.000000000              -0.002226415               0.006929950               0.000498731              -0.001701145               0.002877008               0.001175863               0.000000000               0.000000000               0.000000000               0.000000000              -0.001912397               0.006336054               0.000479940              -0.001509152               0.002615047               0.001105896               0.000000000               0.000000000               0.000000000               0.000000000              -0.001590678               0.005797007               0.000444266              -0.001321127               0.002372692               0.001051565               0.000000000               0.000000000               0.000000000               0.000000000              -0.001267081               0.005309966               0.000398549              -0.001138898               0.002149604               0.001010705               0.000000000               0.000000000               0.000000000               0.000000000              -0.000957402               0.004882521               0.000353677              -0.000969339               0.001950604               0.000981265               0.000000000               0.000000000               0.000000000               0.000000000              -0.000672801               0.004521121               0.000302643              -0.000817439               0.001779505               0.000962066               0.000000000               0.000000000               0.000000000               0.000000000              -0.000425233               0.004228935               0.000238930              -0.000688078               0.001638990               0.000950912               0.000000000               0.000000000               0.000000000               0.000000000              -0.000226148               0.004011870               0.000161052              -0.000586288               0.001532706               0.000946418               0.000000000               0.000000000               0.000000000               0.000000000              -0.000083347               0.003879270               0.000082192              -0.000516163               0.001465131               0.000948969               0.000000000               0.000000000               0.000000000               0.000000000              -0.000012840               0.003829840               0.000025497              -0.000483544               0.001437782               0.000954238               0.000000000               0.000000000               0.000000000               0.000000000               0.000010337               0.003841249               0.000001063              -0.000476278               0.001439163               0.000962884               0.000000000               0.000000000               0.000000000               0.000000000               0.000125359               0.007618017              -0.002562797              -0.000905242               0.002841060               0.001935818               0.000000000               0.000000000               0.000000000               0.000000000              -0.001762120               0.008124172              -0.001474846              -0.001676313               0.003266801               0.001590488               0.000000000               0.000000000               0.000000000               0.000000000              -0.003218861               0.008841706              -0.000465447              -0.002312280               0.003717966               0.001405686               0.000000000               0.000000000               0.000000000               0.000000000              -0.003392788               0.008494216              -0.000147671              -0.002334067               0.003609399               0.001275333               0.000000000               0.000000000               0.000000000               0.000000000              -0.003155716               0.007910145              -0.000010060              -0.002172156               0.003360741               0.001188585               0.000000000               0.000000000               0.000000000               0.000000000              -0.002772765               0.007285074               0.000053709              -0.001950416               0.003078473               0.001128056               0.000000000               0.000000000               0.000000000               0.000000000              -0.002340665               0.006686696               0.000085060              -0.001713582               0.002800070               0.001086488               0.000000000               0.000000000               0.000000000               0.000000000              -0.001902030               0.006140793               0.000112782              -0.001480857               0.002540530               0.001059673               0.000000000               0.000000000               0.000000000               0.000000000              -0.001472011               0.005644169               0.000126417              -0.001257522               0.002300545               0.001043023               0.000000000               0.000000000               0.000000000               0.000000000              -0.001068505               0.005212850               0.000126018              -0.001052293               0.002088364               0.001036071               0.000000000               0.000000000               0.000000000               0.000000000              -0.000712858               0.004856304               0.000117976              -0.000874358               0.001910204               0.001035847               0.000000000               0.000000000               0.000000000               0.000000000              -0.000413375               0.004577723               0.000097372              -0.000727229               0.001768302               0.001041073               0.000000000               0.000000000               0.000000000               0.000000000              -0.000175341               0.004377507               0.000064570              -0.000612940               0.001663468               0.001050528               0.000000000               0.000000000               0.000000000               0.000000000              -0.000011458               0.004258454               0.000024853              -0.000536602               0.001598338               0.001061736               0.000000000               0.000000000               0.000000000               0.000000000               0.000067382               0.004221258              -0.000010859              -0.000502388               0.001574534               0.001072147               0.000000000               0.000000000               0.000000000               0.000000000               0.000062912               0.004249312              -0.000021027              -0.000507571               0.001585613               0.001078043               0.000000000               0.000000000               0.000000000               0.000000000               0.000046699               0.004294486              -0.000020928              -0.000519297               0.001604580               0.001085283               0.000000000               0.000000000               0.000000000               0.000000000              -0.001100617               0.005618626              -0.001727122              -0.001115058               0.002244542               0.001129484               0.000000000               0.000000000               0.000000000               0.000000000              -0.002706814               0.006908456              -0.001346509              -0.001878608               0.002928998               0.001050390               0.000000000               0.000000000               0.000000000               0.000000000              -0.003949403               0.008152133              -0.000920603              -0.002500037               0.003550696               0.001050659               0.000000000               0.000000000               0.000000000               0.000000000              -0.003862573               0.008035499              -0.000678204              -0.002452896               0.003496105               0.001043209               0.000000000               0.000000000               0.000000000               0.000000000              -0.003434759               0.007587794              -0.000512227              -0.002236503               0.003274740               0.001038237               0.000000000               0.000000000               0.000000000               0.000000000              -0.002906026               0.007051849              -0.000396065              -0.001971236               0.003007672               0.001036436               0.000000000               0.000000000               0.000000000               0.000000000              -0.002348458               0.006529624              -0.000313883              -0.001696870               0.002742143               0.001045273               0.000000000               0.000000000               0.000000000               0.000000000              -0.001806838               0.006043364              -0.000239832              -0.001432981               0.002492095               0.001059114               0.000000000               0.000000000               0.000000000               0.000000000              -0.001295209               0.005594905              -0.000172384              -0.001185063               0.002259971               0.001074907               0.000000000               0.000000000               0.000000000               0.000000000              -0.000838268               0.005209685              -0.000117679              -0.000965559               0.002058397               0.001092838               0.000000000               0.000000000               0.000000000               0.000000000              -0.000454402               0.004905434              -0.000081245              -0.000783578               0.001896321               0.001112743               0.000000000               0.000000000               0.000000000               0.000000000              -0.000144925               0.004684494              -0.000059307              -0.000639907               0.001774785               0.001134878               0.000000000               0.000000000               0.000000000               0.000000000               0.000081823               0.004545656              -0.000047799              -0.000537522               0.001694378               0.001156856               0.000000000               0.000000000               0.000000000               0.000000000               0.000214990               0.004493955              -0.000041931              -0.000481122               0.001658344               0.001177222               0.000000000               0.000000000               0.000000000               0.000000000               0.000257434               0.004530336              -0.000035378              -0.000469753               0.001666681               0.001196928               0.000000000               0.000000000               0.000000000               0.000000000               0.000226367               0.004632592              -0.000022094              -0.000494185               0.001708910               0.001214725               0.000000000               0.000000000               0.000000000               0.000000000               0.000185070               0.004702282              -0.000011974              -0.000518383               0.001740206               0.001221823               0.000000000               0.000000000               0.000000000               0.000000000              -0.002523342               0.003763109              -0.000850716              -0.001416639               0.001726570               0.000309931               0.000000000               0.000000000               0.000000000               0.000000000              -0.003511922               0.005485143              -0.001209559              -0.002002609               0.002495899               0.000493290               0.000000000               0.000000000               0.000000000               0.000000000              -0.004400932               0.007115064              -0.001397157              -0.002539726               0.003218239               0.000678513               0.000000000               0.000000000               0.000000000               0.000000000              -0.004165430               0.007357132              -0.001232928              -0.002481672               0.003279576               0.000797905               0.000000000               0.000000000               0.000000000               0.000000000              -0.003658375               0.007159572              -0.001042584              -0.002266832               0.003142111               0.000875279               0.000000000               0.000000000               0.000000000               0.000000000              -0.003082691               0.006817809              -0.000878230              -0.002008231               0.002941990               0.000933760               0.000000000               0.000000000               0.000000000               0.000000000              -0.002488584               0.006442491              -0.000745951              -0.001738526               0.002726984               0.000988458               0.000000000               0.000000000               0.000000000               0.000000000              -0.001913009               0.006070211              -0.000627443              -0.001476151               0.002515434               0.001039283               0.000000000               0.000000000               0.000000000               0.000000000              -0.001374538               0.005714591              -0.000512194              -0.001229773               0.002314769               0.001084996               0.000000000               0.000000000               0.000000000               0.000000000              -0.000883118               0.005396134              -0.000408300              -0.001005684               0.002133921               0.001128238               0.000000000               0.000000000               0.000000000               0.000000000              -0.000456574               0.005136733              -0.000323067              -0.000813305               0.001983329               0.001170024               0.000000000               0.000000000               0.000000000               0.000000000              -0.000103005               0.004941196              -0.000247416              -0.000656275               0.001865807               0.001209532               0.000000000               0.000000000               0.000000000               0.000000000               0.000169933               0.004810340              -0.000176363              -0.000537566               0.001782619               0.001245053               0.000000000               0.000000000               0.000000000               0.000000000               0.000357144               0.004748726              -0.000114934              -0.000459661               0.001736113               0.001276452               0.000000000               0.000000000               0.000000000               0.000000000               0.000458698               0.004764373              -0.000062526              -0.000423534               0.001729286               0.001305753               0.000000000               0.000000000               0.000000000               0.000000000               0.000486700               0.004857089              -0.000022876              -0.000424623               0.001760554               0.001335932               0.000000000               0.000000000               0.000000000               0.000000000               0.000469578               0.004916276              -0.000003289              -0.000438442               0.001784890               0.001346448               0.000000000               0.000000000               0.000000000               0.000000000              -0.004319241               0.002084345              -0.000007325              -0.001880255               0.001321525              -0.000558731               0.000000000               0.000000000               0.000000000               0.000000000              -0.004414764               0.004044415              -0.001016947              -0.002161084               0.002068485              -0.000092599               0.000000000               0.000000000               0.000000000               0.000000000              -0.004776307               0.005878550              -0.001783240              -0.002525928               0.002801472               0.000275544               0.000000000               0.000000000               0.000000000               0.000000000              -0.004401767               0.006461360              -0.001764812              -0.002458327               0.002973207               0.000514880               0.000000000               0.000000000               0.000000000               0.000000000              -0.003840067               0.006550032              -0.001582740              -0.002258774               0.002936246               0.000677473               0.000000000               0.000000000               0.000000000               0.000000000              -0.003242300               0.006437072              -0.001388524              -0.002020492               0.002819166               0.000798674               0.000000000               0.000000000               0.000000000               0.000000000              -0.002643828               0.006240777              -0.001212927              -0.001771529               0.002670747               0.000899219               0.000000000               0.000000000               0.000000000               0.000000000              -0.002059108               0.006007751              -0.001053114              -0.001523131               0.002510274               0.000987143               0.000000000               0.000000000               0.000000000               0.000000000              -0.001500940               0.005763129              -0.000902066              -0.001283241               0.002348771               0.001065530               0.000000000               0.000000000               0.000000000               0.000000000              -0.000975488               0.005525961              -0.000762159              -0.001056551               0.002194152               0.001137601               0.000000000               0.000000000               0.000000000               0.000000000              -0.000501661               0.005313630              -0.000634059              -0.000852325               0.002055300               0.001202976               0.000000000               0.000000000               0.000000000               0.000000000              -0.000094228               0.005137685              -0.000509286              -0.000677545               0.001938393               0.001260848               0.000000000               0.000000000               0.000000000               0.000000000               0.000244942               0.005008380              -0.000385711              -0.000534193               0.001847508               0.001313315               0.000000000               0.000000000               0.000000000               0.000000000               0.000512859               0.004928174              -0.000269252              -0.000423699               0.001783941               0.001360243               0.000000000               0.000000000               0.000000000               0.000000000               0.000702256               0.004900463              -0.000158655              -0.000349211               0.001749875               0.001400664               0.000000000               0.000000000               0.000000000               0.000000000               0.000808089               0.004930380              -0.000067550              -0.000313263               0.001747865               0.001434601               0.000000000               0.000000000               0.000000000               0.000000000               0.000830076               0.004953284              -0.000028050              -0.000307881               0.001753705               0.001445824               0.000000000               0.000000000               0.000000000               0.000000000              -0.006353165               0.000725639               0.000724368              -0.002473139               0.001066252              -0.001406887               0.000000000               0.000000000               0.000000000               0.000000000              -0.005448657               0.002679090              -0.000755076              -0.002378129               0.001685728              -0.000692401               0.000000000               0.000000000               0.000000000               0.000000000              -0.005086562               0.004450344              -0.001976744              -0.002463749               0.002304681              -0.000159067               0.000000000               0.000000000               0.000000000               0.000000000              -0.004494733               0.005269654              -0.002142982              -0.002344226               0.002537942               0.000193715               0.000000000               0.000000000               0.000000000               0.000000000              -0.003864271               0.005620382              -0.002016714              -0.002151645               0.002590656               0.000439011               0.000000000               0.000000000               0.000000000               0.000000000              -0.003247014               0.005743707              -0.001823963              -0.001935589               0.002559746               0.000624156               0.000000000               0.000000000               0.000000000               0.000000000              -0.002652652               0.005747641              -0.001627938              -0.001713196               0.002486926               0.000773730               0.000000000               0.000000000               0.000000000               0.000000000              -0.002071322               0.005678971              -0.001444757              -0.001486614               0.002388509               0.000901895               0.000000000               0.000000000               0.000000000               0.000000000              -0.001504819               0.005572006              -0.001274327              -0.001260805               0.002277585               0.001016780               0.000000000               0.000000000               0.000000000               0.000000000              -0.000962313               0.005443374              -0.001114445              -0.001041287               0.002161535               0.001120248               0.000000000               0.000000000               0.000000000               0.000000000              -0.000454891               0.005309570              -0.000960870              -0.000834279               0.002047932               0.001213653               0.000000000               0.000000000               0.000000000               0.000000000               0.000002994               0.005186725              -0.000806065              -0.000647217               0.001944630               0.001297413               0.000000000               0.000000000               0.000000000               0.000000000               0.000405384               0.005088788              -0.000649472              -0.000484079               0.001857605               0.001373527               0.000000000               0.000000000               0.000000000               0.000000000               0.000739182               0.005013087              -0.000489557              -0.000349442               0.001787493               0.001438051               0.000000000               0.000000000               0.000000000               0.000000000               0.000997284               0.004967945              -0.000322697              -0.000247011               0.001738302               0.001491291               0.000000000               0.000000000               0.000000000               0.000000000               0.001165088               0.004965414              -0.000155544              -0.000183768               0.001716378               0.001532609               0.000000000               0.000000000               0.000000000               0.000000000               0.001217494               0.004972919              -0.000074395              -0.000165054               0.001712641               0.001547587               0.000000000               0.000000000               0.000000000               0.000000000              -0.008481830              -0.000232567               0.001231995              -0.003151613               0.000973008              -0.002178605               0.000000000               0.000000000               0.000000000               0.000000000              -0.006548031               0.001468094              -0.000466268              -0.002639020               0.001369029              -0.001269992               0.000000000               0.000000000               0.000000000               0.000000000              -0.005345656               0.002956995              -0.001944345              -0.002374241               0.001777066              -0.000597175               0.000000000               0.000000000               0.000000000               0.000000000              -0.004459792               0.003881364              -0.002272751              -0.002157588               0.002012970              -0.000144619               0.000000000               0.000000000               0.000000000               0.000000000              -0.003731204               0.004437778              -0.002227105              -0.001953920               0.002130550               0.000176630               0.000000000               0.000000000               0.000000000               0.000000000              -0.003092726               0.004775352              -0.002068048              -0.001756688               0.002177330               0.000420642               0.000000000               0.000000000               0.000000000               0.000000000              -0.002501437               0.004973585              -0.001886735              -0.001559734               0.002177756               0.000618022               0.000000000               0.000000000               0.000000000               0.000000000              -0.001923957               0.005085144              -0.001708578              -0.001357124               0.002147405               0.000790281               0.000000000               0.000000000               0.000000000               0.000000000              -0.001359593               0.005136788              -0.001535269              -0.001151944               0.002096226               0.000944283               0.000000000               0.000000000               0.000000000               0.000000000              -0.000815913               0.005142436              -0.001370780              -0.000948770               0.002030384               0.001081615               0.000000000               0.000000000               0.000000000               0.000000000              -0.000290500               0.005121608              -0.001212699              -0.000749137               0.001956898               0.001207760               0.000000000               0.000000000               0.000000000               0.000000000               0.000207927               0.005083511              -0.001053933              -0.000557466               0.001880308               0.001322843               0.000000000               0.000000000               0.000000000               0.000000000               0.000667919               0.005039287              -0.000887396              -0.000379441               0.001806226               0.001426785               0.000000000               0.000000000               0.000000000               0.000000000               0.001076256               0.005000082              -0.000706613              -0.000221414               0.001740482               0.001519068               0.000000000               0.000000000               0.000000000               0.000000000               0.001417188               0.004976320              -0.000500796              -0.000090595               0.001688955               0.001598360               0.000000000               0.000000000               0.000000000               0.000000000               0.001669224               0.004979595              -0.000261324               0.000003509               0.001658679               0.001662188               0.000000000               0.000000000               0.000000000               0.000000000               0.001778589               0.004993387              -0.000137585               0.000042797               0.001650180               0.001692977               0.000000000               0.000000000               0.000000000               0.000000000              -0.010510516              -0.000817827               0.001408277              -0.003839212               0.001007121              -0.002832091               0.000000000               0.000000000               0.000000000               0.000000000              -0.007624442               0.000484987              -0.000214502              -0.002919786               0.001134917              -0.001784870               0.000000000               0.000000000               0.000000000               0.000000000              -0.005573209               0.001557994              -0.001683783              -0.002284700               0.001280889              -0.001003811               0.000000000               0.000000000               0.000000000               0.000000000              -0.004351525               0.002470082              -0.002095794              -0.001940579               0.001470210              -0.000470370               0.000000000               0.000000000               0.000000000               0.000000000              -0.003494093               0.003155796              -0.002122061              -0.001704756               0.001620172              -0.000084584               0.000000000               0.000000000               0.000000000               0.000000000              -0.002811072               0.003657725              -0.002015979              -0.001511365               0.001723017               0.000211652               0.000000000               0.000000000               0.000000000               0.000000000              -0.002211684               0.004023322              -0.001878034              -0.001332294               0.001785191               0.000452897               0.000000000               0.000000000               0.000000000               0.000000000              -0.001645744               0.004301189              -0.001731109              -0.001154801               0.001818648               0.000663847               0.000000000               0.000000000               0.000000000               0.000000000              -0.001095311               0.004511622              -0.001575577              -0.000974693               0.001828756               0.000854063               0.000000000               0.000000000               0.000000000               0.000000000              -0.000554400               0.004668234              -0.001427466              -0.000791428               0.001819872               0.001028443               0.000000000               0.000000000               0.000000000               0.000000000              -0.000020333               0.004778930              -0.001286115              -0.000604990               0.001794624               0.001189634               0.000000000               0.000000000               0.000000000               0.000000000               0.000504584               0.004850376              -0.001141583              -0.000417078               0.001755802               0.001338724               0.000000000               0.000000000               0.000000000               0.000000000               0.001016155               0.004891141              -0.000989831              -0.000230335               0.001707142               0.001476807               0.000000000               0.000000000               0.000000000               0.000000000               0.001510705               0.004918643              -0.000818430              -0.000048317               0.001655637               0.001607320               0.000000000               0.000000000               0.000000000               0.000000000               0.001971676               0.004946366              -0.000605659               0.000121081               0.001608412               0.001729493               0.000000000               0.000000000               0.000000000               0.000000000               0.002377187               0.004976632              -0.000331490               0.000269363               0.001569073               0.001838436               0.000000000               0.000000000               0.000000000               0.000000000               0.002611234               0.005011056              -0.000187683               0.000352827               0.001552726               0.001905554               0.000000000               0.000000000               0.000000000               0.000000000              -0.012194587              -0.001114792               0.001212667              -0.004433618               0.001106268              -0.003327351               0.000000000               0.000000000               0.000000000               0.000000000              -0.008547801              -0.000219611              -0.000053345              -0.003177972               0.000986114              -0.002191858               0.000000000               0.000000000               0.000000000               0.000000000              -0.005773948               0.000427909              -0.001231132              -0.002218717               0.000882202              -0.001336515               0.000000000               0.000000000               0.000000000               0.000000000              -0.004231342               0.001251548              -0.001607544              -0.001743195               0.000998240              -0.000744954               0.000000000               0.000000000               0.000000000               0.000000000              -0.003230038               0.001983931              -0.001671073              -0.001459253               0.001147720              -0.000311534               0.000000000               0.000000000               0.000000000               0.000000000              -0.002486367               0.002590105              -0.001618043              -0.001256148               0.001282075               0.000025926               0.000000000               0.000000000               0.000000000               0.000000000              -0.001870696               0.003085491              -0.001530517              -0.001087195               0.001390885               0.000303689               0.000000000               0.000000000               0.000000000               0.000000000              -0.001321240               0.003495365              -0.001426996              -0.000932384               0.001475904               0.000543520               0.000000000               0.000000000               0.000000000               0.000000000              -0.000791219               0.003839800              -0.001313299              -0.000776681               0.001538814               0.000762133               0.000000000               0.000000000               0.000000000               0.000000000              -0.000258102               0.004129710              -0.001202457              -0.000613001               0.001580890               0.000967889               0.000000000               0.000000000               0.000000000               0.000000000               0.000278446               0.004362357              -0.001093908              -0.000440877               0.001601063               0.001160186               0.000000000               0.000000000               0.000000000               0.000000000               0.000823948               0.004541169              -0.000983915              -0.000258666               0.001599929               0.001341264               0.000000000               0.000000000               0.000000000               0.000000000               0.001386006               0.004678813              -0.000869600              -0.000065100               0.001581289               0.001516189               0.000000000               0.000000000               0.000000000               0.000000000               0.001965809               0.004789055              -0.000736015               0.000138545               0.001550154               0.001688699               0.000000000               0.000000000               0.000000000               0.000000000               0.002563552               0.004878870              -0.000559426               0.000351470               0.001509117               0.001860587               0.000000000               0.000000000               0.000000000               0.000000000               0.003174499               0.004948893              -0.000315740               0.000571820               0.001459008               0.002030828               0.000000000               0.000000000               0.000000000               0.000000000               0.003592894               0.005019232              -0.000189564               0.000719924               0.001433086               0.002153010               0.000000000               0.000000000               0.000000000               0.000000000              -0.013308343              -0.001227536               0.000696951              -0.004837184               0.001203208              -0.003633976               0.000000000               0.000000000               0.000000000               0.000000000              -0.009173643              -0.000632572               0.000005274              -0.003361042               0.000909484              -0.002451558               0.000000000               0.000000000               0.000000000               0.000000000              -0.005916341              -0.000306559              -0.000648683              -0.002180306               0.000624578              -0.001555728               0.000000000               0.000000000               0.000000000               0.000000000              -0.004139681               0.000420093              -0.000872849              -0.001604890               0.000674989              -0.000929901               0.000000000               0.000000000               0.000000000               0.000000000              -0.003022249               0.001159688              -0.000922419              -0.001278303               0.000812658              -0.000465645               0.000000000               0.000000000               0.000000000               0.000000000              -0.002226230               0.001819356              -0.000904839              -0.001062254               0.000960530              -0.000101724               0.000000000               0.000000000               0.000000000               0.000000000              -0.001597299               0.002391440              -0.000863807              -0.000897915               0.001096443               0.000198528               0.000000000               0.000000000               0.000000000               0.000000000              -0.001054150               0.002888103              -0.000811310              -0.000756317               0.001214797               0.000458479               0.000000000               0.000000000               0.000000000               0.000000000              -0.000539227               0.003320402              -0.000753807              -0.000617259               0.001312542               0.000695283               0.000000000               0.000000000               0.000000000               0.000000000              -0.000022339               0.003695521              -0.000695387              -0.000470316               0.001388600               0.000918284               0.000000000               0.000000000               0.000000000               0.000000000               0.000510402               0.004011847              -0.000635451              -0.000310080               0.001440629               0.001130549               0.000000000               0.000000000               0.000000000               0.000000000               0.001069529               0.004271411              -0.000575909              -0.000132853               0.001468074               0.001335221               0.000000000               0.000000000               0.000000000               0.000000000               0.001666123               0.004487420              -0.000513946               0.000063868               0.001474503               0.001538370               0.000000000               0.000000000               0.000000000               0.000000000               0.002310307               0.004670537              -0.000439920               0.000282545               0.001462648               0.001745194               0.000000000               0.000000000               0.000000000               0.000000000               0.003017444               0.004819846              -0.000340655               0.000529055               0.001430247               0.001959303               0.000000000               0.000000000               0.000000000               0.000000000               0.003805245               0.004926394              -0.000195810               0.000811160               0.001371728               0.002182888               0.000000000               0.000000000               0.000000000               0.000000000               0.004392109               0.005027164              -0.000121218               0.001018635               0.001336159               0.002354795               0.000000000               0.000000000               0.000000000               0.000000000              -0.013697707              -0.001253756              -0.000000000              -0.004979917               0.001242046              -0.003737872               0.000000000               0.000000000               0.000000000               0.000000000              -0.009393890              -0.000767698              -0.000000000              -0.003426744               0.000886343              -0.002540401               0.000000000               0.000000000               0.000000000               0.000000000              -0.005965549              -0.000559076               0.000000000              -0.002167195               0.000536036              -0.001631159               0.000000000               0.000000000               0.000000000               0.000000000              -0.004104400               0.000126743               0.000000000              -0.001554991               0.000560574              -0.000994417               0.000000000               0.000000000               0.000000000               0.000000000              -0.002945963               0.000862326               0.000000000              -0.001212525               0.000691612              -0.000520913               0.000000000               0.000000000               0.000000000               0.000000000              -0.002127726               0.001538156              -0.000000000              -0.000990165               0.000842768              -0.000147397               0.000000000               0.000000000               0.000000000               0.000000000              -0.001491827               0.002136325              -0.000000000              -0.000826474               0.000987592               0.000161118               0.000000000               0.000000000               0.000000000               0.000000000              -0.000947257               0.002664557              -0.000000000              -0.000688289               0.001117606               0.000429317               0.000000000               0.000000000               0.000000000               0.000000000              -0.000438062               0.003128261               0.000000000              -0.000555305               0.001227845               0.000672540               0.000000000               0.000000000               0.000000000               0.000000000               0.000069322               0.003531102               0.000000000              -0.000415391               0.001315486               0.000900095               0.000000000               0.000000000               0.000000000               0.000000000               0.000596199               0.003873192               0.000000000              -0.000260574               0.001377909               0.001117335               0.000000000               0.000000000               0.000000000               0.000000000               0.001158154               0.004160837               0.000000000              -0.000085797               0.001415531               0.001329734               0.000000000               0.000000000               0.000000000               0.000000000               0.001764637               0.004405317               0.000000000               0.000111073               0.001431400               0.001542473               0.000000000               0.000000000               0.000000000               0.000000000               0.002433574               0.004617976               0.000000000               0.000335340               0.001427530               0.001762870               0.000000000               0.000000000               0.000000000               0.000000000               0.003182917               0.004793822               0.000000000               0.000594360               0.001399804               0.001994165               0.000000000               0.000000000               0.000000000               0.000000000               0.004040595               0.004916186               0.000000000               0.000900691               0.001338482               0.002239173               0.000000000               0.000000000               0.000000000               0.000000000               0.004697460               0.005029523               0.000000000               0.001132846               0.001298875               0.002431721               0.000000000               0.000000000               0.000000000               0.000000000               0.000000000               0.000000000               0.000000000               0.000000000               0.000000000               0.000000000               0.000000000               0.000000000               0.000000000               0.000000000               0.000000000               0.000000000               0.000000000               0.000000000               0.000000000               0.000000000               0.000000000               0.000000000               0.000000000               0.000000000               0.000000000               0.000000000               0.000000000               0.000000000               0.000000000               0.000000000               0.000000000               0.000000000               0.000000000               0.000000000               0.000000000               0.000000000               0.000000000               0.000000000               0.000000000               0.000000000               0.000000000               0.000000000               0.000000000               0.000000000               0.000000000               0.000000000               0.000000000               0.000000000               0.000000000               0.000000000               0.000000000               0.000000000               0.000000000               0.000000000               0.000000000               0.000000000               0.000000000               0.000000000               0.000000000               0.000000000               0.000000000               0.000000000               0.000000000               0.000000000               0.000000000               0.000000000               0.000000000               0.000000000               0.000000000               0.000000000               0.000000000               0.000000000               0.000000000               0.000000000               0.000000000               0.000000000               0.000000000               0.000000000               0.000000000               0.000000000               0.000000000               0.000000000               0.000000000               0.000000000               0.000000000               0.000000000               0.000000000               0.000000000               0.000000000               0.000000000               0.000000000               0.000000000               0.000000000               0.000000000               0.000000000               0.000000000               0.000000000               0.000000000               0.000000000               0.000000000               0.000000000               0.000000000               0.000000000               0.000000000               0.000000000               0.000000000               0.000000000               0.000000000               0.000000000               0.000000000               0.000000000               0.000000000               0.000000000               0.000000000               0.000000000               0.000000000               0.000000000               0.000000000               0.000000000               0.000000000               0.000000000               0.000000000               0.000000000               0.000000000               0.000000000               0.000000000               0.000000000               0.000000000               0.000000000               0.000000000               0.000000000               0.000000000               0.000000000               0.000000000               0.000000000               0.000000000               0.000000000               0.000000000               0.000000000               0.000000000               0.000000000               0.000000000               0.000000000               0.000000000               0.000000000               0.000000000               0.000000000               0.000000000               0.000000000               0.000000000               0.000000000               0.000000000               0.000000000               0.000000000               0.000000000               0.000000000               0.000000000               0.000000000               0.000000000               0.000000000               0.000000000               0.000000000               0.000000000               0.000000000               0.000000000               0.000000000               0.000000000               0.000000000               0.000000000               0.000000000               0.000000000               0.000000000               0.000000000               0.000000000               0.002057175               0.020922116               0.001419249              -0.001843820               0.007588575               0.005744756               0.000000000               0.000000000               0.000000000               0.000000000               0.001842702               0.016076075               0.000636898              -0.001318493               0.005798136               0.004479643               0.000000000               0.000000000               0.000000000               0.000000000               0.002251803               0.012152814              -0.000137720              -0.000674674               0.004275789               0.003601115               0.000000000               0.000000000               0.000000000               0.000000000               0.002007676               0.009915538              -0.000460471              -0.000486563               0.003467334               0.002980771               0.000000000               0.000000000               0.000000000               0.000000000               0.001601818               0.008480949              -0.000585864              -0.000459436               0.002980100               0.002520664               0.000000000               0.000000000               0.000000000               0.000000000               0.001196713               0.007457418              -0.000620591              -0.000483409               0.002646917               0.002163509               0.000000000               0.000000000               0.000000000               0.000000000               0.000843232               0.006658122              -0.000614141              -0.000516052               0.002391369               0.001875317               0.000000000               0.000000000               0.000000000               0.000000000               0.000555884               0.005983649              -0.000589881              -0.000539499               0.002174363               0.001634864               0.000000000               0.000000000               0.000000000               0.000000000               0.000337283               0.005379634              -0.000558295              -0.000545972               0.001975184               0.001429212               0.000000000               0.000000000               0.000000000               0.000000000               0.000180954               0.004814223              -0.000524858              -0.000533919               0.001782698               0.001248779               0.000000000               0.000000000               0.000000000               0.000000000               0.000070203               0.004266221              -0.000491937              -0.000506950               0.001591043               0.001084092               0.000000000               0.000000000               0.000000000               0.000000000              -0.000008630               0.003717915              -0.000454245              -0.000467975               0.001395284               0.000927310               0.000000000               0.000000000               0.000000000               0.000000000              -0.000059004               0.003151139              -0.000407385              -0.000416018               0.001189042               0.000773024               0.000000000               0.000000000               0.000000000               0.000000000              -0.000081827               0.002550566              -0.000346186              -0.000349505               0.000966682               0.000617177               0.000000000               0.000000000               0.000000000               0.000000000              -0.000080822               0.001901938              -0.000263170              -0.000268050               0.000723323               0.000455273               0.000000000               0.000000000               0.000000000               0.000000000              -0.000050513               0.001193469              -0.000149543              -0.000168126               0.000453861               0.000285735               0.000000000               0.000000000               0.000000000               0.000000000              -0.000082065               0.000667481              -0.000094303              -0.000114209               0.000260561               0.000146352               0.000000000               0.000000000               0.000000000               0.000000000               0.002200041               0.019615040               0.002621966              -0.001626862               0.007080568               0.005453706               0.000000000               0.000000000               0.000000000               0.000000000               0.001660004               0.015248764               0.001166205              -0.001283591               0.005510734               0.004227143               0.000000000               0.000000000               0.000000000               0.000000000               0.001725498               0.011825994              -0.000260289              -0.000831186               0.004219021               0.003387835               0.000000000               0.000000000               0.000000000               0.000000000               0.001361067               0.009846901              -0.000831069              -0.000720461               0.003522421               0.002801960               0.000000000               0.000000000               0.000000000               0.000000000               0.000937320               0.008546547              -0.001039897              -0.000716822               0.003087761               0.002370939               0.000000000               0.000000000               0.000000000               0.000000000               0.000564837               0.007593046              -0.001090302              -0.000737315               0.002776762               0.002039446               0.000000000               0.000000000               0.000000000               0.000000000               0.000269140               0.006830173              -0.001070105              -0.000752843               0.002527649               0.001774806               0.000000000               0.000000000               0.000000000               0.000000000               0.000050284               0.006175133              -0.001018626              -0.000753034               0.002309368               0.001556335               0.000000000               0.000000000               0.000000000               0.000000000              -0.000098458               0.005578180              -0.000956505              -0.000734193               0.002104106               0.001369913               0.000000000               0.000000000               0.000000000               0.000000000              -0.000186666               0.005016876              -0.000893498              -0.000697108               0.001904644               0.001207536               0.000000000               0.000000000               0.000000000               0.000000000              -0.000232160               0.004476171              -0.000830865              -0.000646580               0.001707569               0.001060988               0.000000000               0.000000000               0.000000000               0.000000000              -0.000246422               0.003941793              -0.000759371              -0.000585131               0.001508961               0.000923830               0.000000000               0.000000000               0.000000000               0.000000000              -0.000231351               0.003402699              -0.000671189              -0.000512093               0.001304919               0.000792826               0.000000000               0.000000000               0.000000000               0.000000000              -0.000195449               0.002853670              -0.000561183              -0.000430001               0.001094547               0.000664546               0.000000000               0.000000000               0.000000000               0.000000000              -0.000144725               0.002296373              -0.000420546              -0.000341318               0.000879222               0.000537905               0.000000000               0.000000000               0.000000000               0.000000000              -0.000077722               0.001737361              -0.000234885              -0.000246315               0.000661220               0.000414904               0.000000000               0.000000000               0.000000000               0.000000000              -0.000081074               0.001351106              -0.000144239              -0.000199291               0.000516794               0.000317504               0.000000000               0.000000000               0.000000000               0.000000000               0.002304749               0.017627668               0.003434081              -0.001339176               0.006322222               0.004983046               0.000000000               0.000000000               0.000000000               0.000000000               0.001313413               0.014012777               0.001512547              -0.001259065               0.005090567               0.003831502               0.000000000               0.000000000               0.000000000               0.000000000               0.000904532               0.011349167              -0.000336243              -0.001079444               0.004142832               0.003063389               0.000000000               0.000000000               0.000000000               0.000000000               0.000403599               0.009731045              -0.001028257              -0.001065029               0.003598659               0.002533630               0.000000000               0.000000000               0.000000000               0.000000000              -0.000005953               0.008601545              -0.001260045              -0.001077423               0.003226294               0.002148871               0.000000000               0.000000000               0.000000000               0.000000000              -0.000301047               0.007732080              -0.001299274              -0.001079400               0.002937134               0.001857734               0.000000000               0.000000000               0.000000000               0.000000000              -0.000495179               0.007007596              -0.001260813              -0.001061640               0.002689722               0.001628082               0.000000000               0.000000000               0.000000000               0.000000000              -0.000604114               0.006371877              -0.001188561              -0.001023025               0.002464946               0.001441921               0.000000000               0.000000000               0.000000000               0.000000000              -0.000649952               0.005786489              -0.001102530              -0.000967041               0.002251157               0.001284116               0.000000000               0.000000000               0.000000000               0.000000000              -0.000647143               0.005231819              -0.001017107              -0.000896654               0.002042807               0.001146153               0.000000000               0.000000000               0.000000000               0.000000000              -0.000605851               0.004696099              -0.000933261              -0.000814205               0.001836752               0.001022547               0.000000000               0.000000000               0.000000000               0.000000000              -0.000531922               0.004176908              -0.000839514              -0.000721583               0.001632816               0.000911234               0.000000000               0.000000000               0.000000000               0.000000000              -0.000433710               0.003673993              -0.000726867              -0.000621889               0.001431948               0.000810059               0.000000000               0.000000000               0.000000000               0.000000000              -0.000324807               0.003192500              -0.000592965              -0.000520864               0.001237777               0.000716913               0.000000000               0.000000000               0.000000000               0.000000000              -0.000216814               0.002742980              -0.000431796              -0.000424177               0.001055710               0.000631533               0.000000000               0.000000000               0.000000000               0.000000000              -0.000109801               0.002343300              -0.000233984              -0.000334087               0.000892455               0.000558368               0.000000000               0.000000000               0.000000000               0.000000000              -0.000082382               0.002098621              -0.000139025              -0.000293220               0.000797273               0.000504053               0.000000000               0.000000000               0.000000000               0.000000000               0.002226988               0.015190392               0.003787501              -0.001063678               0.005417972               0.004354294               0.000000000               0.000000000               0.000000000               0.000000000               0.000772902               0.012538303               0.001671019              -0.001277447               0.004605208               0.003327761               0.000000000               0.000000000               0.000000000               0.000000000              -0.000122754               0.010781434              -0.000321581              -0.001393709               0.004058345               0.002664636               0.000000000               0.000000000               0.000000000               0.000000000              -0.000704669               0.009552127              -0.001004320              -0.001458263               0.003670098               0.002211835               0.000000000               0.000000000               0.000000000               0.000000000              -0.001042876               0.008594314              -0.001209236              -0.001465364               0.003353197               0.001887833               0.000000000               0.000000000               0.000000000               0.000000000              -0.001205063               0.007802043              -0.001227556              -0.001427151               0.003076372               0.001649221               0.000000000               0.000000000               0.000000000               0.000000000              -0.001252727               0.007105118              -0.001179125              -0.001357909               0.002820985               0.001463076               0.000000000               0.000000000               0.000000000               0.000000000              -0.001227535               0.006477066              -0.001103020              -0.001269956               0.002582319               0.001312363               0.000000000               0.000000000               0.000000000               0.000000000              -0.001155086               0.005899122              -0.001012094              -0.001170545               0.002356536               0.001185991               0.000000000               0.000000000               0.000000000               0.000000000              -0.001048364               0.005353587              -0.000919757              -0.001062332               0.002138622               0.001076289               0.000000000               0.000000000               0.000000000               0.000000000              -0.000908873               0.004835661              -0.000831298              -0.000945283               0.001926965               0.000981682               0.000000000               0.000000000               0.000000000               0.000000000              -0.000746220               0.004347605              -0.000736958              -0.000823281               0.001723614               0.000900333               0.000000000               0.000000000               0.000000000               0.000000000              -0.000577331               0.003899232              -0.000624932              -0.000703901               0.001534365               0.000830463               0.000000000               0.000000000               0.000000000               0.000000000              -0.000410340               0.003500313              -0.000495270              -0.000591415               0.001363898               0.000772482               0.000000000               0.000000000               0.000000000               0.000000000              -0.000256106               0.003159812              -0.000347745              -0.000491015               0.001216932               0.000725917               0.000000000               0.000000000               0.000000000               0.000000000              -0.000121265               0.002898409              -0.000182854              -0.000407775               0.001102052               0.000694277               0.000000000               0.000000000               0.000000000               0.000000000              -0.000072643               0.002766595              -0.000104964              -0.000373064               0.001046544               0.000673479               0.000000000               0.000000000               0.000000000               0.000000000               0.001865448               0.012566410               0.003700449              -0.000871259               0.004479181               0.003607921               0.000000000               0.000000000               0.000000000               0.000000000               0.000052965               0.010988408               0.001679969              -0.001353687               0.004113995               0.002760308               0.000000000               0.000000000               0.000000000               0.000000000              -0.001233853               0.010161831              -0.000182435              -0.001732920               0.003964883               0.002231963               0.000000000               0.000000000               0.000000000               0.000000000              -0.001793588               0.009292843              -0.000763057              -0.001834196               0.003708982               0.001874786               0.000000000               0.000000000               0.000000000               0.000000000              -0.001986318               0.008487009              -0.000926821              -0.001805741               0.003430888               0.001625147               0.000000000               0.000000000               0.000000000               0.000000000              -0.001974135               0.007757614              -0.000935621              -0.001709998               0.003155845               0.001445847               0.000000000               0.000000000               0.000000000               0.000000000              -0.001856256               0.007081775              -0.000892792              -0.001581314               0.002887673               0.001306359               0.000000000               0.000000000               0.000000000               0.000000000              -0.001685987               0.006461503              -0.000836096              -0.001439930               0.002633789               0.001193860               0.000000000               0.000000000               0.000000000               0.000000000              -0.001486095               0.005894796              -0.000763702              -0.001294132               0.002396290               0.001102158               0.000000000               0.000000000               0.000000000               0.000000000              -0.001268360               0.005368335              -0.000686586              -0.001146674               0.002171652               0.001024978               0.000000000               0.000000000               0.000000000               0.000000000              -0.001036878               0.004885595              -0.000612403              -0.000999526               0.001961691               0.000962164               0.000000000               0.000000000               0.000000000               0.000000000              -0.000799709               0.004452570              -0.000534555              -0.000856460               0.001769662               0.000913202               0.000000000               0.000000000               0.000000000               0.000000000              -0.000576597               0.004078867              -0.000444311              -0.000726081               0.001601636               0.000875555               0.000000000               0.000000000               0.000000000               0.000000000              -0.000376975               0.003771420              -0.000336357              -0.000612792               0.001461391               0.000848600               0.000000000               0.000000000               0.000000000               0.000000000              -0.000209867               0.003538802              -0.000218298              -0.000521049               0.001353272               0.000832223               0.000000000               0.000000000               0.000000000               0.000000000              -0.000088242               0.003397578              -0.000105610              -0.000457787               0.001285110               0.000827324               0.000000000               0.000000000               0.000000000               0.000000000              -0.000040277               0.003354494              -0.000053097              -0.000434415               0.001262958               0.000828544               0.000000000               0.000000000               0.000000000               0.000000000               0.001157642               0.009990273               0.003255728              -0.000814669               0.003601613               0.002786944               0.000000000               0.000000000               0.000000000               0.000000000              -0.000807041               0.009487186               0.001597790              -0.001488536               0.003658542               0.002170006               0.000000000               0.000000000               0.000000000               0.000000000              -0.002300278               0.009514211               0.000086883              -0.002051876               0.003855331               0.001803455               0.000000000               0.000000000               0.000000000               0.000000000              -0.002717018               0.008945836              -0.000354744              -0.002137106               0.003694284               0.001557178               0.000000000               0.000000000               0.000000000               0.000000000              -0.002707424               0.008259862              -0.000490306              -0.002047762               0.003435847               0.001388085               0.000000000               0.000000000               0.000000000               0.000000000              -0.002509162               0.007577635              -0.000513488              -0.001888136               0.003155232               0.001267096               0.000000000               0.000000000               0.000000000               0.000000000              -0.002226415               0.006929950              -0.000498731              -0.001701145               0.002877008               0.001175863               0.000000000               0.000000000               0.000000000               0.000000000              -0.001912397               0.006336054              -0.000479940              -0.001509152               0.002615047               0.001105896               0.000000000               0.000000000               0.000000000               0.000000000              -0.001590678               0.005797007              -0.000444266              -0.001321127               0.002372692               0.001051565               0.000000000               0.000000000               0.000000000               0.000000000              -0.001267081               0.005309966              -0.000398549              -0.001138898               0.002149604               0.001010705               0.000000000               0.000000000               0.000000000               0.000000000              -0.000957402               0.004882521              -0.000353677              -0.000969339               0.001950604               0.000981265               0.000000000               0.000000000               0.000000000               0.000000000              -0.000672801               0.004521121              -0.000302643              -0.000817439               0.001779505               0.000962066               0.000000000               0.000000000               0.000000000               0.000000000              -0.000425233               0.004228935              -0.000238930              -0.000688078               0.001638990               0.000950912               0.000000000               0.000000000               0.000000000               0.000000000              -0.000226148               0.004011870              -0.000161052              -0.000586288               0.001532706               0.000946418               0.000000000               0.000000000               0.000000000               0.000000000              -0.000083347               0.003879270              -0.000082192              -0.000516163               0.001465131               0.000948969               0.000000000               0.000000000               0.000000000               0.000000000              -0.000012840               0.003829840              -0.000025497              -0.000483544               0.001437782               0.000954238               0.000000000               0.000000000               0.000000000               0.000000000               0.000010337               0.003841249              -0.000001063              -0.000476278               0.001439163               0.000962884               0.000000000               0.000000000               0.000000000               0.000000000               0.000125359               0.007618017               0.002562797              -0.000905242               0.002841060               0.001935818               0.000000000               0.000000000               0.000000000               0.000000000              -0.001762120               0.008124172               0.001474846              -0.001676313               0.003266801               0.001590488               0.000000000               0.000000000               0.000000000               0.000000000              -0.003218861               0.008841706               0.000465447              -0.002312280               0.003717966               0.001405686               0.000000000               0.000000000               0.000000000               0.000000000              -0.003392788               0.008494216               0.000147671              -0.002334067               0.003609399               0.001275333               0.000000000               0.000000000               0.000000000               0.000000000              -0.003155716               0.007910145               0.000010060              -0.002172156               0.003360741               0.001188585               0.000000000               0.000000000               0.000000000               0.000000000              -0.002772765               0.007285074              -0.000053709              -0.001950416               0.003078473               0.001128056               0.000000000               0.000000000               0.000000000               0.000000000              -0.002340665               0.006686696              -0.000085060              -0.001713582               0.002800070               0.001086488               0.000000000               0.000000000               0.000000000               0.000000000              -0.001902030               0.006140793              -0.000112782              -0.001480857               0.002540530               0.001059673               0.000000000               0.000000000               0.000000000               0.000000000              -0.001472011               0.005644169              -0.000126417              -0.001257522               0.002300545               0.001043023               0.000000000               0.000000000               0.000000000               0.000000000              -0.001068505               0.005212850              -0.000126018              -0.001052293               0.002088364               0.001036071               0.000000000               0.000000000               0.000000000               0.000000000              -0.000712858               0.004856304              -0.000117976              -0.000874358               0.001910204               0.001035847               0.000000000               0.000000000               0.000000000               0.000000000              -0.000413375               0.004577723              -0.000097372              -0.000727229               0.001768302               0.001041073               0.000000000               0.000000000               0.000000000               0.000000000              -0.000175341               0.004377507              -0.000064570              -0.000612940               0.001663468               0.001050528               0.000000000               0.000000000               0.000000000               0.000000000              -0.000011458               0.004258454              -0.000024853              -0.000536602               0.001598338               0.001061736               0.000000000               0.000000000               0.000000000               0.000000000               0.000067382               0.004221258               0.000010859              -0.000502388               0.001574534               0.001072147               0.000000000               0.000000000               0.000000000               0.000000000               0.000062912               0.004249312               0.000021027              -0.000507571               0.001585613               0.001078043               0.000000000               0.000000000               0.000000000               0.000000000               0.000046699               0.004294486               0.000020928              -0.000519297               0.001604580               0.001085283               0.000000000               0.000000000               0.000000000               0.000000000              -0.001100617               0.005618626               0.001727122              -0.001115058               0.002244542               0.001129484               0.000000000               0.000000000               0.000000000               0.000000000              -0.002706814               0.006908456               0.001346509              -0.001878608               0.002928998               0.001050390               0.000000000               0.000000000               0.000000000               0.000000000              -0.003949403               0.008152133               0.000920603              -0.002500037               0.003550696               0.001050659               0.000000000               0.000000000               0.000000000               0.000000000              -0.003862573               0.008035499               0.000678204              -0.002452896               0.003496105               0.001043209               0.000000000               0.000000000               0.000000000               0.000000000              -0.003434759               0.007587794               0.000512227              -0.002236503               0.003274740               0.001038237               0.000000000               0.000000000               0.000000000               0.000000000              -0.002906026               0.007051849               0.000396065              -0.001971236               0.003007672               0.001036436               0.000000000               0.000000000               0.000000000               0.000000000              -0.002348458               0.006529624               0.000313883              -0.001696870               0.002742143               0.001045273               0.000000000               0.000000000               0.000000000               0.000000000              -0.001806838               0.006043364               0.000239832              -0.001432981               0.002492095               0.001059114               0.000000000               0.000000000               0.000000000               0.000000000              -0.001295209               0.005594905               0.000172384              -0.001185063               0.002259971               0.001074907               0.000000000               0.000000000               0.000000000               0.000000000              -0.000838268               0.005209685               0.000117679              -0.000965559               0.002058397               0.001092838               0.000000000               0.000000000               0.000000000               0.000000000              -0.000454402               0.004905434               0.000081245              -0.000783578               0.001896321               0.001112743               0.000000000               0.000000000               0.000000000               0.000000000              -0.000144925               0.004684494               0.000059307              -0.000639907               0.001774785               0.001134878               0.000000000               0.000000000               0.000000000               0.000000000               0.000081823               0.004545656               0.000047799              -0.000537522               0.001694378               0.001156856               0.000000000               0.000000000               0.000000000               0.000000000               0.000214990               0.004493955               0.000041931              -0.000481122               0.001658344               0.001177222               0.000000000               0.000000000               0.000000000               0.000000000               0.000257434               0.004530336               0.000035378              -0.000469753               0.001666681               0.001196928               0.000000000               0.000000000               0.000000000               0.000000000               0.000226367               0.004632592               0.000022094              -0.000494185               0.001708910               0.001214725               0.000000000               0.000000000               0.000000000               0.000000000               0.000185070               0.004702282               0.000011974              -0.000518383               0.001740206               0.001221823               0.000000000               0.000000000               0.000000000               0.000000000              -0.002523342               0.003763109               0.000850716              -0.001416639               0.001726570               0.000309931               0.000000000               0.000000000               0.000000000               0.000000000              -0.003511922               0.005485143               0.001209559              -0.002002609               0.002495899               0.000493290               0.000000000               0.000000000               0.000000000               0.000000000              -0.004400932               0.007115064               0.001397157              -0.002539726               0.003218239               0.000678513               0.000000000               0.000000000               0.000000000               0.000000000              -0.004165430               0.007357132               0.001232928              -0.002481672               0.003279576               0.000797905               0.000000000               0.000000000               0.000000000               0.000000000              -0.003658375               0.007159572               0.001042584              -0.002266832               0.003142111               0.000875279               0.000000000               0.000000000               0.000000000               0.000000000              -0.003082691               0.006817809               0.000878230              -0.002008231               0.002941990               0.000933760               0.000000000               0.000000000               0.000000000               0.000000000              -0.002488584               0.006442491               0.000745951              -0.001738526               0.002726984               0.000988458               0.000000000               0.000000000               0.000000000               0.000000000              -0.001913009               0.006070211               0.000627443              -0.001476151               0.002515434               0.001039283               0.000000000               0.000000000               0.000000000               0.000000000              -0.001374538               0.005714591               0.000512194              -0.001229773               0.002314769               0.001084996               0.000000000               0.000000000               0.000000000               0.000000000              -0.000883118               0.005396134               0.000408300              -0.001005684               0.002133921               0.001128238               0.000000000               0.000000000               0.000000000               0.000000000              -0.000456574               0.005136733               0.000323067              -0.000813305               0.001983329               0.001170024               0.000000000               0.000000000               0.000000000               0.000000000              -0.000103005               0.004941196               0.000247416              -0.000656275               0.001865807               0.001209532               0.000000000               0.000000000               0.000000000               0.000000000               0.000169933               0.004810340               0.000176363              -0.000537566               0.001782619               0.001245053               0.000000000               0.000000000               0.000000000               0.000000000               0.000357144               0.004748726               0.000114934              -0.000459661               0.001736113               0.001276452               0.000000000               0.000000000               0.000000000               0.000000000               0.000458698               0.004764373               0.000062526              -0.000423534               0.001729286               0.001305753               0.000000000               0.000000000               0.000000000               0.000000000               0.000486700               0.004857089               0.000022876              -0.000424623               0.001760554               0.001335932               0.000000000               0.000000000               0.000000000               0.000000000               0.000469578               0.004916276               0.000003289              -0.000438442               0.001784890               0.001346448               0.000000000               0.000000000               0.000000000               0.000000000              -0.004319241               0.002084345               0.000007325              -0.001880255               0.001321525              -0.000558731               0.000000000               0.000000000               0.000000000               0.000000000              -0.004414764               0.004044415               0.001016947              -0.002161084               0.002068485              -0.000092599               0.000000000               0.000000000               0.000000000               0.000000000              -0.004776307               0.005878550               0.001783240              -0.002525928               0.002801472               0.000275544               0.000000000               0.000000000               0.000000000               0.000000000              -0.004401767               0.006461360               0.001764812              -0.002458327               0.002973207               0.000514880               0.000000000               0.000000000               0.000000000               0.000000000              -0.003840067               0.006550032               0.001582740              -0.002258774               0.002936246               0.000677473               0.000000000               0.000000000               0.000000000               0.000000000              -0.003242300               0.006437072               0.001388524              -0.002020492               0.002819166               0.000798674               0.000000000               0.000000000               0.000000000               0.000000000              -0.002643828               0.006240777               0.001212927              -0.001771529               0.002670747               0.000899219               0.000000000               0.000000000               0.000000000               0.000000000              -0.002059108               0.006007751               0.001053114              -0.001523131               0.002510274               0.000987143               0.000000000               0.000000000               0.000000000               0.000000000              -0.001500940               0.005763129               0.000902066              -0.001283241               0.002348771               0.001065530               0.000000000               0.000000000               0.000000000               0.000000000              -0.000975488               0.005525961               0.000762159              -0.001056551               0.002194152               0.001137601               0.000000000               0.000000000               0.000000000               0.000000000              -0.000501661               0.005313630               0.000634059              -0.000852325               0.002055300               0.001202976               0.000000000               0.000000000               0.000000000               0.000000000              -0.000094228               0.005137685               0.000509286              -0.000677545               0.001938393               0.001260848               0.000000000               0.000000000               0.000000000               0.000000000               0.000244942               0.005008380               0.000385711              -0.000534193               0.001847508               0.001313315               0.000000000               0.000000000               0.000000000               0.000000000               0.000512859               0.004928174               0.000269252              -0.000423699               0.001783941               0.001360243               0.000000000               0.000000000               0.000000000               0.000000000               0.000702256               0.004900463               0.000158655              -0.000349211               0.001749875               0.001400664               0.000000000               0.000000000               0.000000000               0.000000000               0.000808089               0.004930380               0.000067550              -0.000313263               0.001747865               0.001434601               0.000000000               0.000000000               0.000000000               0.000000000               0.000830076               0.004953284               0.000028050              -0.000307881               0.001753705               0.001445824               0.000000000               0.000000000               0.000000000               0.000000000              -0.006353165               0.000725639              -0.000724368              -0.002473139               0.001066252              -0.001406887               0.000000000               0.000000000               0.000000000               0.000000000              -0.005448657               0.002679090               0.000755076              -0.002378129               0.001685728              -0.000692401               0.000000000               0.000000000               0.000000000               0.000000000              -0.005086562               0.004450344               0.001976744              -0.002463749               0.002304681              -0.000159067               0.000000000               0.000000000               0.000000000               0.000000000              -0.004494733               0.005269654               0.002142982              -0.002344226               0.002537942               0.000193715               0.000000000               0.000000000               0.000000000               0.000000000              -0.003864271               0.005620382               0.002016714              -0.002151645               0.002590656               0.000439011               0.000000000               0.000000000               0.000000000               0.000000000              -0.003247014               0.005743707               0.001823963              -0.001935589               0.002559746               0.000624156               0.000000000               0.000000000               0.000000000               0.000000000              -0.002652652               0.005747641               0.001627938              -0.001713196               0.002486926               0.000773730               0.000000000               0.000000000               0.000000000               0.000000000              -0.002071322               0.005678971               0.001444757              -0.001486614               0.002388509               0.000901895               0.000000000               0.000000000               0.000000000               0.000000000              -0.001504819               0.005572006               0.001274327              -0.001260805               0.002277585               0.001016780               0.000000000               0.000000000               0.000000000               0.000000000              -0.000962313               0.005443374               0.001114445              -0.001041287               0.002161535               0.001120248               0.000000000               0.000000000               0.000000000               0.000000000              -0.000454891               0.005309570               0.000960870              -0.000834279               0.002047932               0.001213653               0.000000000               0.000000000               0.000000000               0.000000000               0.000002994               0.005186725               0.000806065              -0.000647217               0.001944630               0.001297413               0.000000000               0.000000000               0.000000000               0.000000000               0.000405384               0.005088788               0.000649472              -0.000484079               0.001857605               0.001373527               0.000000000               0.000000000               0.000000000               0.000000000               0.000739182               0.005013087               0.000489557              -0.000349442               0.001787493               0.001438051               0.000000000               0.000000000               0.000000000               0.000000000               0.000997284               0.004967945               0.000322697              -0.000247011               0.001738302               0.001491291               0.000000000               0.000000000               0.000000000               0.000000000               0.001165088               0.004965414               0.000155544              -0.000183768               0.001716378               0.001532609               0.000000000               0.000000000               0.000000000               0.000000000               0.001217494               0.004972919               0.000074395              -0.000165054               0.001712641               0.001547587               0.000000000               0.000000000               0.000000000               0.000000000              -0.008481830              -0.000232567              -0.001231995              -0.003151613               0.000973008              -0.002178605               0.000000000               0.000000000               0.000000000               0.000000000              -0.006548031               0.001468094               0.000466268              -0.002639020               0.001369029              -0.001269992               0.000000000               0.000000000               0.000000000               0.000000000              -0.005345656               0.002956995               0.001944345              -0.002374241               0.001777066              -0.000597175               0.000000000               0.000000000               0.000000000               0.000000000              -0.004459792               0.003881364               0.002272751              -0.002157588               0.002012970              -0.000144619               0.000000000               0.000000000               0.000000000               0.000000000              -0.003731204               0.004437778               0.002227105              -0.001953920               0.002130550               0.000176630               0.000000000               0.000000000               0.000000000               0.000000000              -0.003092726               0.004775352               0.002068048              -0.001756688               0.002177330               0.000420642               0.000000000               0.000000000               0.000000000               0.000000000              -0.002501437               0.004973585               0.001886735              -0.001559734               0.002177756               0.000618022               0.000000000               0.000000000               0.000000000               0.000000000              -0.001923957               0.005085144               0.001708578              -0.001357124               0.002147405               0.000790281               0.000000000               0.000000000               0.000000000               0.000000000              -0.001359593               0.005136788               0.001535269              -0.001151944               0.002096226               0.000944283               0.000000000               0.000000000               0.000000000               0.000000000              -0.000815913               0.005142436               0.001370780              -0.000948770               0.002030384               0.001081615               0.000000000               0.000000000               0.000000000               0.000000000              -0.000290500               0.005121608               0.001212699              -0.000749137               0.001956898               0.001207760               0.000000000               0.000000000               0.000000000               0.000000000               0.000207927               0.005083511               0.001053933              -0.000557466               0.001880308               0.001322843               0.000000000               0.000000000               0.000000000               0.000000000               0.000667919               0.005039287               0.000887396              -0.000379441               0.001806226               0.001426785               0.000000000               0.000000000               0.000000000               0.000000000               0.001076256               0.005000082               0.000706613              -0.000221414               0.001740482               0.001519068               0.000000000               0.000000000               0.000000000               0.000000000               0.001417188               0.004976320               0.000500796              -0.000090595               0.001688955               0.001598360               0.000000000               0.000000000               0.000000000               0.000000000               0.001669224               0.004979595               0.000261324               0.000003509               0.001658679               0.001662188               0.000000000               0.000000000               0.000000000               0.000000000               0.001778589               0.004993387               0.000137585               0.000042797               0.001650180               0.001692977               0.000000000               0.000000000               0.000000000               0.000000000              -0.010510516              -0.000817827              -0.001408277              -0.003839212               0.001007121              -0.002832091               0.000000000               0.000000000               0.000000000               0.000000000              -0.007624442               0.000484987               0.000214502              -0.002919786               0.001134917              -0.001784870               0.000000000               0.000000000               0.000000000               0.000000000              -0.005573209               0.001557994               0.001683783              -0.002284700               0.001280889              -0.001003811               0.000000000               0.000000000               0.000000000               0.000000000              -0.004351525               0.002470082               0.002095794              -0.001940579               0.001470210              -0.000470370               0.000000000               0.000000000               0.000000000               0.000000000              -0.003494093               0.003155796               0.002122061              -0.001704756               0.001620172              -0.000084584               0.000000000               0.000000000               0.000000000               0.000000000              -0.002811072               0.003657725               0.002015979              -0.001511365               0.001723017               0.000211652               0.000000000               0.000000000               0.000000000               0.000000000              -0.002211684               0.004023322               0.001878034              -0.001332294               0.001785191               0.000452897               0.000000000               0.000000000               0.000000000               0.000000000              -0.001645744               0.004301189               0.001731109              -0.001154801               0.001818648               0.000663847               0.000000000               0.000000000               0.000000000               0.000000000              -0.001095311               0.004511622               0.001575577              -0.000974693               0.001828756               0.000854063               0.000000000               0.000000000               0.000000000               0.000000000              -0.000554400               0.004668234               0.001427466              -0.000791428               0.001819872               0.001028443               0.000000000               0.000000000               0.000000000               0.000000000              -0.000020333               0.004778930               0.001286115              -0.000604990               0.001794624               0.001189634               0.000000000               0.000000000               0.000000000               0.000000000               0.000504584               0.004850376               0.001141583              -0.000417078               0.001755802               0.001338724               0.000000000               0.000000000               0.000000000               0.000000000               0.001016155               0.004891141               0.000989831              -0.000230335               0.001707142               0.001476807               0.000000000               0.000000000               0.000000000               0.000000000               0.001510705               0.004918643               0.000818430              -0.000048317               0.001655637               0.001607320               0.000000000               0.000000000               0.000000000               0.000000000               0.001971676               0.004946366               0.000605659               0.000121081               0.001608412               0.001729493               0.000000000               0.000000000               0.000000000               0.000000000               0.002377187               0.004976632               0.000331490               0.000269363               0.001569073               0.001838436               0.000000000               0.000000000               0.000000000               0.000000000               0.002611234               0.005011056               0.000187683               0.000352827               0.001552726               0.001905554               0.000000000               0.000000000               0.000000000               0.000000000              -0.012194587              -0.001114792              -0.001212667              -0.004433618               0.001106268              -0.003327351               0.000000000               0.000000000               0.000000000               0.000000000              -0.008547801              -0.000219611               0.000053345              -0.003177972               0.000986114              -0.002191858               0.000000000               0.000000000               0.000000000               0.000000000              -0.005773948               0.000427909               0.001231132              -0.002218717               0.000882202              -0.001336515               0.000000000               0.000000000               0.000000000               0.000000000              -0.004231342               0.001251548               0.001607544              -0.001743195               0.000998240              -0.000744954               0.000000000               0.000000000               0.000000000               0.000000000              -0.003230038               0.001983931               0.001671073              -0.001459253               0.001147720              -0.000311534               0.000000000               0.000000000               0.000000000               0.000000000              -0.002486367               0.002590105               0.001618043              -0.001256148               0.001282075               0.000025926               0.000000000               0.000000000               0.000000000               0.000000000              -0.001870696               0.003085491               0.001530517              -0.001087195               0.001390885               0.000303689               0.000000000               0.000000000               0.000000000               0.000000000              -0.001321240               0.003495365               0.001426996              -0.000932384               0.001475904               0.000543520               0.000000000               0.000000000               0.000000000               0.000000000              -0.000791219               0.003839800               0.001313299              -0.000776681               0.001538814               0.000762133               0.000000000               0.000000000               0.000000000               0.000000000              -0.000258102               0.004129710               0.001202457              -0.000613001               0.001580890               0.000967889               0.000000000               0.000000000               0.000000000               0.000000000               0.000278446               0.004362357               0.001093908              -0.000440877               0.001601063               0.001160186               0.000000000               0.000000000               0.000000000               0.000000000               0.000823948               0.004541169               0.000983915              -0.000258666               0.001599929               0.001341264               0.000000000               0.000000000               0.000000000               0.000000000               0.001386006               0.004678813               0.000869600              -0.000065100               0.001581289               0.001516189               0.000000000               0.000000000               0.000000000               0.000000000               0.001965809               0.004789055               0.000736015               0.000138545               0.001550154               0.001688699               0.000000000               0.000000000               0.000000000               0.000000000               0.002563552               0.004878870               0.000559426               0.000351470               0.001509117               0.001860587               0.000000000               0.000000000               0.000000000               0.000000000               0.003174499               0.004948893               0.000315740               0.000571820               0.001459008               0.002030828               0.000000000               0.000000000               0.000000000               0.000000000               0.003592894               0.005019232               0.000189564               0.000719924               0.001433086               0.002153010               0.000000000               0.000000000               0.000000000               0.000000000              -0.013308343              -0.001227536              -0.000696951              -0.004837184               0.001203208              -0.003633976               0.000000000               0.000000000               0.000000000               0.000000000              -0.009173643              -0.000632572              -0.000005274              -0.003361042               0.000909484              -0.002451558               0.000000000               0.000000000               0.000000000               0.000000000              -0.005916341              -0.000306559               0.000648683              -0.002180306               0.000624578              -0.001555728               0.000000000               0.000000000               0.000000000               0.000000000              -0.004139681               0.000420093               0.000872849              -0.001604890               0.000674989              -0.000929901               0.000000000               0.000000000               0.000000000               0.000000000              -0.003022249               0.001159688               0.000922419              -0.001278303               0.000812658              -0.000465645               0.000000000               0.000000000               0.000000000               0.000000000              -0.002226230               0.001819356               0.000904839              -0.001062254               0.000960530              -0.000101724               0.000000000               0.000000000               0.000000000               0.000000000              -0.001597299               0.002391440               0.000863807              -0.000897915               0.001096443               0.000198528               0.000000000               0.000000000               0.000000000               0.000000000              -0.001054150               0.002888103               0.000811310              -0.000756317               0.001214797               0.000458479               0.000000000               0.000000000               0.000000000               0.000000000              -0.000539227               0.003320402               0.000753807              -0.000617259               0.001312542               0.000695283               0.000000000               0.000000000               0.000000000               0.000000000              -0.000022339               0.003695521               0.000695387              -0.000470316               0.001388600               0.000918284               0.000000000               0.000000000               0.000000000               0.000000000               0.000510402               0.004011847               0.000635451              -0.000310080               0.001440629               0.001130549               0.000000000               0.000000000               0.000000000               0.000000000               0.001069529               0.004271411               0.000575909              -0.000132853               0.001468074               0.001335221               0.000000000               0.000000000               0.000000000               0.000000000               0.001666123               0.004487420               0.000513946               0.000063868               0.001474503               0.001538370               0.000000000               0.000000000               0.000000000               0.000000000               0.002310307               0.004670537               0.000439920               0.000282545               0.001462648               0.001745194               0.000000000               0.000000000               0.000000000               0.000000000               0.003017444               0.004819846               0.000340655               0.000529055               0.001430247               0.001959303               0.000000000               0.000000000               0.000000000               0.000000000               0.003805245               0.004926394               0.000195810               0.000811160               0.001371728               0.002182888               0.000000000               0.000000000               0.000000000               0.000000000               0.004392109               0.005027164               0.000121218               0.001018635               0.001336159               0.002354795               0.000000000               0.000000000               0.000000000               0.000000000              -0.013697707              -0.001253756               0.000000000              -0.004979917               0.001242046              -0.003737872               0.000000000               0.000000000               0.000000000               0.000000000              -0.009393890              -0.000767698               0.000000000              -0.003426744               0.000886343              -0.002540401               0.000000000               0.000000000               0.000000000               0.000000000              -0.005965549              -0.000559076              -0.000000000              -0.002167195               0.000536036              -0.001631159               0.000000000               0.000000000               0.000000000               0.000000000              -0.004104400               0.000126743              -0.000000000              -0.001554991               0.000560574              -0.000994417               0.000000000               0.000000000               0.000000000               0.000000000              -0.002945963               0.000862326               0.000000000              -0.001212525               0.000691612              -0.000520913               0.000000000               0.000000000               0.000000000               0.000000000              -0.002127726               0.001538156              -0.000000000              -0.000990165               0.000842768              -0.000147397               0.000000000               0.000000000               0.000000000               0.000000000              -0.001491827               0.002136325              -0.000000000              -0.000826474               0.000987592               0.000161118               0.000000000               0.000000000               0.000000000               0.000000000              -0.000947257               0.002664557               0.000000000              -0.000688289               0.001117606               0.000429317               0.000000000               0.000000000               0.000000000               0.000000000              -0.000438062               0.003128261               0.000000000              -0.000555305               0.001227845               0.000672540               0.000000000               0.000000000               0.000000000               0.000000000               0.000069322               0.003531102              -0.000000000              -0.000415391               0.001315486               0.000900095               0.000000000               0.000000000               0.000000000               0.000000000               0.000596199               0.003873192              -0.000000000              -0.000260574               0.001377909               0.001117335               0.000000000               0.000000000               0.000000000               0.000000000               0.001158154               0.004160837              -0.000000000              -0.000085797               0.001415531               0.001329734               0.000000000               0.000000000               0.000000000               0.000000000               0.001764637               0.004405317               0.000000000               0.000111073               0.001431400               0.001542473               0.000000000               0.000000000               0.000000000               0.000000000               0.002433574               0.004617976              -0.000000000               0.000335340               0.001427530               0.001762870               0.000000000               0.000000000               0.000000000               0.000000000               0.003182917               0.004793822               0.000000000               0.000594360               0.001399804               0.001994165               0.000000000               0.000000000               0.000000000               0.000000000               0.004040595               0.004916186              -0.000000000               0.000900691               0.001338482               0.002239173               0.000000000               0.000000000               0.000000000               0.000000000               0.004697460               0.005029523              -0.000000000               0.001132846               0.001298875               0.002431721               0.000000000               0.000000000               0.000000000               0.000000000               0.001996796               0.021379701              -0.000000000              -0.001923660               0.007767716               0.005844056               0.000000000               0.000000000               0.000000000               0.000000000               0.001900744               0.016367048              -0.000000000              -0.001333099               0.005899994               0.004566896               0.000000000               0.000000000               0.000000000               0.000000000               0.002433693               0.012270191              -0.000000000              -0.000621138               0.004297069               0.003675931               0.000000000               0.000000000               0.000000000               0.000000000               0.002234615               0.009938569              -0.000000000              -0.000404340               0.003447603               0.003043263               0.000000000               0.000000000               0.000000000               0.000000000               0.001842067               0.008450530               0.000000000              -0.000365540               0.002938662               0.002573122               0.000000000               0.000000000               0.000000000               0.000000000               0.001430373               0.007401120               0.000000000              -0.000388749               0.002596599               0.002207849               0.000000000               0.000000000               0.000000000               0.000000000               0.001055245               0.006587200              -0.000000000              -0.000427682               0.002338272               0.001910590               0.000000000               0.000000000               0.000000000               0.000000000               0.000744379               0.005906413              -0.000000000              -0.000459158               0.002121838               0.001662679               0.000000000               0.000000000               0.000000000               0.000000000               0.000502817               0.005301754               0.000000000              -0.000474162               0.001925287               0.001451126               0.000000000               0.000000000               0.000000000               0.000000000               0.000319592               0.004734499               0.000000000              -0.000471964               0.001735472               0.001263508               0.000000000               0.000000000               0.000000000               0.000000000               0.000186179               0.004182181               0.000000000              -0.000452954               0.001545031               0.001092077               0.000000000               0.000000000               0.000000000               0.000000000               0.000089256               0.003626264              -0.000000000              -0.000419811               0.001348680               0.000928868               0.000000000               0.000000000               0.000000000               0.000000000               0.000014353               0.003046286              -0.000000000              -0.000375402               0.001140552               0.000765150               0.000000000               0.000000000               0.000000000               0.000000000              -0.000032017               0.002425702              -0.000000000              -0.000315218               0.000913632               0.000598414               0.000000000               0.000000000               0.000000000               0.000000000              -0.000051435               0.001740820               0.000000000              -0.000236890               0.000659231               0.000422341               0.000000000               0.000000000               0.000000000               0.000000000              -0.000037401               0.000969496               0.000000000              -0.000135212               0.000368233               0.000233021               0.000000000               0.000000000               0.000000000               0.000000000              -0.000080689               0.000383818               0.000000000              -0.000078236               0.000154016               0.000075781               0.000000000               0.000000000               0.000000000               0.000000000               0.002057175               0.020922116              -0.001419249              -0.001843820               0.007588575               0.005744756               0.000000000               0.000000000               0.000000000               0.000000000               0.001842702               0.016076075              -0.000636898              -0.001318493               0.005798136               0.004479643               0.000000000               0.000000000               0.000000000               0.000000000               0.002251803               0.012152814               0.000137720              -0.000674674               0.004275789               0.003601115               0.000000000               0.000000000               0.000000000               0.000000000               0.002007676               0.009915538               0.000460471              -0.000486563               0.003467334               0.002980771               0.000000000               0.000000000               0.000000000               0.000000000               0.001601818               0.008480949               0.000585864              -0.000459436               0.002980100               0.002520664               0.000000000               0.000000000               0.000000000               0.000000000               0.001196713               0.007457418               0.000620591              -0.000483409               0.002646917               0.002163509               0.000000000               0.000000000               0.000000000               0.000000000               0.000843232               0.006658122               0.000614141              -0.000516052               0.002391369               0.001875317               0.000000000               0.000000000               0.000000000               0.000000000               0.000555884               0.005983649               0.000589881              -0.000539499               0.002174363               0.001634864               0.000000000               0.000000000               0.000000000               0.000000000               0.000337283               0.005379634               0.000558295              -0.000545972               0.001975184               0.001429212               0.000000000               0.000000000               0.000000000               0.000000000               0.000180954               0.004814223               0.000524858              -0.000533919               0.001782698               0.001248779               0.000000000               0.000000000               0.000000000               0.000000000               0.000070203               0.004266221               0.000491937              -0.000506950               0.001591043               0.001084092               0.000000000               0.000000000               0.000000000               0.000000000              -0.000008630               0.003717915               0.000454245              -0.000467975               0.001395284               0.000927310               0.000000000               0.000000000               0.000000000               0.000000000              -0.000059004               0.003151139               0.000407385              -0.000416018               0.001189042               0.000773024               0.000000000               0.000000000               0.000000000               0.000000000              -0.000081827               0.002550566               0.000346186              -0.000349505               0.000966682               0.000617177               0.000000000               0.000000000               0.000000000               0.000000000              -0.000080822               0.001901938               0.000263170              -0.000268050               0.000723323               0.000455273               0.000000000               0.000000000               0.000000000               0.000000000              -0.000050513               0.001193469               0.000149543              -0.000168126               0.000453861               0.000285735               0.000000000               0.000000000               0.000000000               0.000000000              -0.000082065               0.000667481               0.000094303              -0.000114209               0.000260561               0.000146352               0.000000000               0.000000000               0.000000000               0.000000000               0.002200041               0.019615040              -0.002621966              -0.001626862               0.007080568               0.005453706               0.000000000               0.000000000               0.000000000               0.000000000               0.001660004               0.015248764              -0.001166205              -0.001283591               0.005510734               0.004227143               0.000000000               0.000000000               0.000000000               0.000000000               0.001725498               0.011825994               0.000260289              -0.000831186               0.004219021               0.003387835               0.000000000               0.000000000               0.000000000               0.000000000               0.001361067               0.009846901               0.000831069              -0.000720461               0.003522421               0.002801960               0.000000000               0.000000000               0.000000000               0.000000000               0.000937320               0.008546547               0.001039897              -0.000716822               0.003087761               0.002370939               0.000000000               0.000000000               0.000000000               0.000000000               0.000564837               0.007593046               0.001090302              -0.000737315               0.002776762               0.002039446               0.000000000               0.000000000               0.000000000               0.000000000               0.000269140               0.006830173               0.001070105              -0.000752843               0.002527649               0.001774806               0.000000000               0.000000000               0.000000000               0.000000000               0.000050284               0.006175133               0.001018626              -0.000753034               0.002309368               0.001556335               0.000000000               0.000000000               0.000000000               0.000000000              -0.000098458               0.005578180               0.000956505              -0.000734193               0.002104106               0.001369913               0.000000000               0.000000000               0.000000000               0.000000000              -0.000186666               0.005016876               0.000893498              -0.000697108               0.001904644               0.001207536               0.000000000               0.000000000               0.000000000               0.000000000              -0.000232160               0.004476171               0.000830865              -0.000646580               0.001707569               0.001060988               0.000000000               0.000000000               0.000000000               0.000000000              -0.000246422               0.003941793               0.000759371              -0.000585131               0.001508961               0.000923830               0.000000000               0.000000000               0.000000000               0.000000000              -0.000231351               0.003402699               0.000671189              -0.000512093               0.001304919               0.000792826               0.000000000               0.000000000               0.000000000               0.000000000              -0.000195449               0.002853670               0.000561183              -0.000430001               0.001094547               0.000664546               0.000000000               0.000000000               0.000000000               0.000000000              -0.000144725               0.002296373               0.000420546              -0.000341318               0.000879222               0.000537905               0.000000000               0.000000000               0.000000000               0.000000000              -0.000077722               0.001737361               0.000234885              -0.000246315               0.000661220               0.000414904               0.000000000               0.000000000               0.000000000               0.000000000              -0.000081074               0.001351106               0.000144239              -0.000199291               0.000516794               0.000317504               0.000000000               0.000000000               0.000000000               0.000000000               0.002304749               0.017627668              -0.003434081              -0.001339176               0.006322222               0.004983046               0.000000000               0.000000000               0.000000000               0.000000000               0.001313413               0.014012777              -0.001512547              -0.001259065               0.005090567               0.003831502               0.000000000               0.000000000               0.000000000               0.000000000               0.000904532               0.011349167               0.000336243              -0.001079444               0.004142832               0.003063389               0.000000000               0.000000000               0.000000000               0.000000000               0.000403599               0.009731045               0.001028257              -0.001065029               0.003598659               0.002533630               0.000000000               0.000000000               0.000000000               0.000000000              -0.000005953               0.008601545               0.001260045              -0.001077423               0.003226294               0.002148871               0.000000000               0.000000000               0.000000000               0.000000000              -0.000301047               0.007732080               0.001299274              -0.001079400               0.002937134               0.001857734               0.000000000               0.000000000               0.000000000               0.000000000              -0.000495179               0.007007596               0.001260813              -0.001061640               0.002689722               0.001628082               0.000000000               0.000000000               0.000000000               0.000000000              -0.000604114               0.006371877               0.001188561              -0.001023025               0.002464946               0.001441921               0.000000000               0.000000000               0.000000000               0.000000000              -0.000649952               0.005786489               0.001102530              -0.000967041               0.002251157               0.001284116               0.000000000               0.000000000               0.000000000               0.000000000              -0.000647143               0.005231819               0.001017107              -0.000896654               0.002042807               0.001146153               0.000000000               0.000000000               0.000000000               0.000000000              -0.000605851               0.004696099               0.000933261              -0.000814205               0.001836752               0.001022547               0.000000000               0.000000000               0.000000000               0.000000000              -0.000531922               0.004176908               0.000839514              -0.000721583               0.001632816               0.000911234               0.000000000               0.000000000               0.000000000               0.000000000              -0.000433710               0.003673993               0.000726867              -0.000621889               0.001431948               0.000810059               0.000000000               0.000000000               0.000000000               0.000000000              -0.000324807               0.003192500               0.000592965              -0.000520864               0.001237777               0.000716913               0.000000000               0.000000000               0.000000000               0.000000000              -0.000216814               0.002742980               0.000431796              -0.000424177               0.001055710               0.000631533               0.000000000               0.000000000               0.000000000               0.000000000              -0.000109801               0.002343300               0.000233984              -0.000334087               0.000892455               0.000558368               0.000000000               0.000000000               0.000000000               0.000000000              -0.000082382               0.002098621               0.000139025              -0.000293220               0.000797273               0.000504053               0.000000000               0.000000000               0.000000000               0.000000000               0.002226988               0.015190392              -0.003787501              -0.001063678               0.005417972               0.004354294               0.000000000               0.000000000               0.000000000               0.000000000               0.000772902               0.012538303              -0.001671019              -0.001277447               0.004605208               0.003327761               0.000000000               0.000000000               0.000000000               0.000000000              -0.000122754               0.010781434               0.000321581              -0.001393709               0.004058345               0.002664636               0.000000000               0.000000000               0.000000000               0.000000000              -0.000704669               0.009552127               0.001004320              -0.001458263               0.003670098               0.002211835               0.000000000               0.000000000               0.000000000               0.000000000              -0.001042876               0.008594314               0.001209236              -0.001465364               0.003353197               0.001887833               0.000000000               0.000000000               0.000000000               0.000000000              -0.001205063               0.007802043               0.001227556              -0.001427151               0.003076372               0.001649221               0.000000000               0.000000000               0.000000000               0.000000000              -0.001252727               0.007105118               0.001179125              -0.001357909               0.002820985               0.001463076               0.000000000               0.000000000               0.000000000               0.000000000              -0.001227535               0.006477066               0.001103020              -0.001269956               0.002582319               0.001312363               0.000000000               0.000000000               0.000000000               0.000000000              -0.001155086               0.005899122               0.001012094              -0.001170545               0.002356536               0.001185991               0.000000000               0.000000000               0.000000000               0.000000000              -0.001048364               0.005353587               0.000919757              -0.001062332               0.002138622               0.001076289               0.000000000               0.000000000               0.000000000               0.000000000              -0.000908873               0.004835661               0.000831298              -0.000945283               0.001926965               0.000981682               0.000000000               0.000000000               0.000000000               0.000000000              -0.000746220               0.004347605               0.000736958              -0.000823281               0.001723614               0.000900333               0.000000000               0.000000000               0.000000000               0.000000000              -0.000577331               0.003899232               0.000624932              -0.000703901               0.001534365               0.000830463               0.000000000               0.000000000               0.000000000               0.000000000              -0.000410340               0.003500313               0.000495270              -0.000591415               0.001363898               0.000772482               0.000000000               0.000000000               0.000000000               0.000000000              -0.000256106               0.003159812               0.000347745              -0.000491015               0.001216932               0.000725917               0.000000000               0.000000000               0.000000000               0.000000000              -0.000121265               0.002898409               0.000182854              -0.000407775               0.001102052               0.000694277               0.000000000               0.000000000               0.000000000               0.000000000              -0.000072643               0.002766595               0.000104964              -0.000373064               0.001046544               0.000673479               0.000000000               0.000000000               0.000000000               0.000000000               0.001865448               0.012566410              -0.003700449              -0.000871259               0.004479181               0.003607921               0.000000000               0.000000000               0.000000000               0.000000000               0.000052965               0.010988408              -0.001679969              -0.001353687               0.004113995               0.002760308               0.000000000               0.000000000               0.000000000               0.000000000              -0.001233853               0.010161831               0.000182435              -0.001732920               0.003964883               0.002231963               0.000000000               0.000000000               0.000000000               0.000000000              -0.001793588               0.009292843               0.000763057              -0.001834196               0.003708982               0.001874786               0.000000000               0.000000000               0.000000000               0.000000000              -0.001986318               0.008487009               0.000926821              -0.001805741               0.003430888               0.001625147               0.000000000               0.000000000               0.000000000               0.000000000              -0.001974135               0.007757614               0.000935621              -0.001709998               0.003155845               0.001445847               0.000000000               0.000000000               0.000000000               0.000000000              -0.001856256               0.007081775               0.000892792              -0.001581314               0.002887673               0.001306359               0.000000000               0.000000000               0.000000000               0.000000000              -0.001685987               0.006461503               0.000836096              -0.001439930               0.002633789               0.001193860               0.000000000               0.000000000               0.000000000               0.000000000              -0.001486095               0.005894796               0.000763702              -0.001294132               0.002396290               0.001102158               0.000000000               0.000000000               0.000000000               0.000000000              -0.001268360               0.005368335               0.000686586              -0.001146674               0.002171652               0.001024978               0.000000000               0.000000000               0.000000000               0.000000000              -0.001036878               0.004885595               0.000612403              -0.000999526               0.001961691               0.000962164               0.000000000               0.000000000               0.000000000               0.000000000              -0.000799709               0.004452570               0.000534555              -0.000856460               0.001769662               0.000913202               0.000000000               0.000000000               0.000000000               0.000000000              -0.000576597               0.004078867               0.000444311              -0.000726081               0.001601636               0.000875555               0.000000000               0.000000000               0.000000000               0.000000000              -0.000376975               0.003771420               0.000336357              -0.000612792               0.001461391               0.000848600               0.000000000               0.000000000               0.000000000               0.000000000              -0.000209867               0.003538802               0.000218298              -0.000521049               0.001353272               0.000832223               0.000000000               0.000000000               0.000000000               0.000000000              -0.000088242               0.003397578               0.000105610              -0.000457787               0.001285110               0.000827324               0.000000000               0.000000000               0.000000000               0.000000000              -0.000040277               0.003354494               0.000053097              -0.000434415               0.001262958               0.000828544               0.000000000               0.000000000               0.000000000               0.000000000               0.001157642               0.009990273              -0.003255728              -0.000814669               0.003601613               0.002786944               0.000000000               0.000000000               0.000000000               0.000000000              -0.000807041               0.009487186              -0.001597790              -0.001488536               0.003658542               0.002170006               0.000000000               0.000000000               0.000000000               0.000000000              -0.002300278               0.009514211              -0.000086883              -0.002051876               0.003855331               0.001803455               0.000000000               0.000000000               0.000000000               0.000000000              -0.002717018               0.008945836               0.000354744              -0.002137106               0.003694284               0.001557178               0.000000000               0.000000000               0.000000000               0.000000000              -0.002707424               0.008259862               0.000490306              -0.002047762               0.003435847               0.001388085               0.000000000               0.000000000               0.000000000               0.000000000              -0.002509162               0.007577635               0.000513488              -0.001888136               0.003155232               0.001267096               0.000000000               0.000000000               0.000000000               0.000000000              -0.002226415               0.006929950               0.000498731              -0.001701145               0.002877008               0.001175863               0.000000000               0.000000000               0.000000000               0.000000000              -0.001912397               0.006336054               0.000479940              -0.001509152               0.002615047               0.001105896               0.000000000               0.000000000               0.000000000               0.000000000              -0.001590678               0.005797007               0.000444266              -0.001321127               0.002372692               0.001051565               0.000000000               0.000000000               0.000000000               0.000000000              -0.001267081               0.005309966               0.000398549              -0.001138898               0.002149604               0.001010705               0.000000000               0.000000000               0.000000000               0.000000000              -0.000957402               0.004882521               0.000353677              -0.000969339               0.001950604               0.000981265               0.000000000               0.000000000               0.000000000               0.000000000              -0.000672801               0.004521121               0.000302643              -0.000817439               0.001779505               0.000962066               0.000000000               0.000000000               0.000000000               0.000000000              -0.000425233               0.004228935               0.000238930              -0.000688078               0.001638990               0.000950912               0.000000000               0.000000000               0.000000000               0.000000000              -0.000226148               0.004011870               0.000161052              -0.000586288               0.001532706               0.000946418               0.000000000               0.000000000               0.000000000               0.000000000              -0.000083347               0.003879270               0.000082192              -0.000516163               0.001465131               0.000948969               0.000000000               0.000000000               0.000000000               0.000000000              -0.000012840               0.003829840               0.000025497              -0.000483544               0.001437782               0.000954238               0.000000000               0.000000000               0.000000000               0.000000000               0.000010337               0.003841249               0.000001063              -0.000476278               0.001439163               0.000962884               0.000000000               0.000000000               0.000000000               0.000000000               0.000125359               0.007618017              -0.002562797              -0.000905242               0.002841060               0.001935818               0.000000000               0.000000000               0.000000000               0.000000000              -0.001762120               0.008124172              -0.001474846              -0.001676313               0.003266801               0.001590488               0.000000000               0.000000000               0.000000000               0.000000000              -0.003218861               0.008841706              -0.000465447              -0.002312280               0.003717966               0.001405686               0.000000000               0.000000000               0.000000000               0.000000000              -0.003392788               0.008494216              -0.000147671              -0.002334067               0.003609399               0.001275333               0.000000000               0.000000000               0.000000000               0.000000000              -0.003155716               0.007910145              -0.000010060              -0.002172156               0.003360741               0.001188585               0.000000000               0.000000000               0.000000000               0.000000000              -0.002772765               0.007285074               0.000053709              -0.001950416               0.003078473               0.001128056               0.000000000               0.000000000               0.000000000               0.000000000              -0.002340665               0.006686696               0.000085060              -0.001713582               0.002800070               0.001086488               0.000000000               0.000000000               0.000000000               0.000000000              -0.001902030               0.006140793               0.000112782              -0.001480857               0.002540530               0.001059673               0.000000000               0.000000000               0.000000000               0.000000000              -0.001472011               0.005644169               0.000126417              -0.001257522               0.002300545               0.001043023               0.000000000               0.000000000               0.000000000               0.000000000              -0.001068505               0.005212850               0.000126018              -0.001052293               0.002088364               0.001036071               0.000000000               0.000000000               0.000000000               0.000000000              -0.000712858               0.004856304               0.000117976              -0.000874358               0.001910204               0.001035847               0.000000000               0.000000000               0.000000000               0.000000000              -0.000413375               0.004577723               0.000097372              -0.000727229               0.001768302               0.001041073               0.000000000               0.000000000               0.000000000               0.000000000              -0.000175341               0.004377507               0.000064570              -0.000612940               0.001663468               0.001050528               0.000000000               0.000000000               0.000000000               0.000000000              -0.000011458               0.004258454               0.000024853              -0.000536602               0.001598338               0.001061736               0.000000000               0.000000000               0.000000000               0.000000000               0.000067382               0.004221258              -0.000010859              -0.000502388               0.001574534               0.001072147               0.000000000               0.000000000               0.000000000               0.000000000               0.000062912               0.004249312              -0.000021027              -0.000507571               0.001585613               0.001078043               0.000000000               0.000000000               0.000000000               0.000000000               0.000046699               0.004294486              -0.000020928              -0.000519297               0.001604580               0.001085283               0.000000000               0.000000000               0.000000000               0.000000000              -0.001100617               0.005618626              -0.001727122              -0.001115058               0.002244542               0.001129484               0.000000000               0.000000000               0.000000000               0.000000000              -0.002706814               0.006908456              -0.001346509              -0.001878608               0.002928998               0.001050390               0.000000000               0.000000000               0.000000000               0.000000000              -0.003949403               0.008152133              -0.000920603              -0.002500037               0.003550696               0.001050659               0.000000000               0.000000000               0.000000000               0.000000000              -0.003862573               0.008035499              -0.000678204              -0.002452896               0.003496105               0.001043209               0.000000000               0.000000000               0.000000000               0.000000000              -0.003434759               0.007587794              -0.000512227              -0.002236503               0.003274740               0.001038237               0.000000000               0.000000000               0.000000000               0.000000000              -0.002906026               0.007051849              -0.000396065              -0.001971236               0.003007672               0.001036436               0.000000000               0.000000000               0.000000000               0.000000000              -0.002348458               0.006529624              -0.000313883              -0.001696870               0.002742143               0.001045273               0.000000000               0.000000000               0.000000000               0.000000000              -0.001806838               0.006043364              -0.000239832              -0.001432981               0.002492095               0.001059114               0.000000000               0.000000000               0.000000000               0.000000000              -0.001295209               0.005594905              -0.000172384              -0.001185063               0.002259971               0.001074907               0.000000000               0.000000000               0.000000000               0.000000000              -0.000838268               0.005209685              -0.000117679              -0.000965559               0.002058397               0.001092838               0.000000000               0.000000000               0.000000000               0.000000000              -0.000454402               0.004905434              -0.000081245              -0.000783578               0.001896321               0.001112743               0.000000000               0.000000000               0.000000000               0.000000000              -0.000144925               0.004684494              -0.000059307              -0.000639907               0.001774785               0.001134878               0.000000000               0.000000000               0.000000000               0.000000000               0.000081823               0.004545656              -0.000047799              -0.000537522               0.001694378               0.001156856               0.000000000               0.000000000               0.000000000               0.000000000               0.000214990               0.004493955              -0.000041931              -0.000481122               0.001658344               0.001177222               0.000000000               0.000000000               0.000000000               0.000000000               0.000257434               0.004530336              -0.000035378              -0.000469753               0.001666681               0.001196928               0.000000000               0.000000000               0.000000000               0.000000000               0.000226367               0.004632592              -0.000022094              -0.000494185               0.001708910               0.001214725               0.000000000               0.000000000               0.000000000               0.000000000               0.000185070               0.004702282              -0.000011974              -0.000518383               0.001740206               0.001221823               0.000000000               0.000000000               0.000000000               0.000000000              -0.002523342               0.003763109              -0.000850716              -0.001416639               0.001726570               0.000309931               0.000000000               0.000000000               0.000000000               0.000000000              -0.003511922               0.005485143              -0.001209559              -0.002002609               0.002495899               0.000493290               0.000000000               0.000000000               0.000000000               0.000000000              -0.004400932               0.007115064              -0.001397157              -0.002539726               0.003218239               0.000678513               0.000000000               0.000000000               0.000000000               0.000000000              -0.004165430               0.007357132              -0.001232928              -0.002481672               0.003279576               0.000797905               0.000000000               0.000000000               0.000000000               0.000000000              -0.003658375               0.007159572              -0.001042584              -0.002266832               0.003142111               0.000875279               0.000000000               0.000000000               0.000000000               0.000000000              -0.003082691               0.006817809              -0.000878230              -0.002008231               0.002941990               0.000933760               0.000000000               0.000000000               0.000000000               0.000000000              -0.002488584               0.006442491              -0.000745951              -0.001738526               0.002726984               0.000988458               0.000000000               0.000000000               0.000000000               0.000000000              -0.001913009               0.006070211              -0.000627443              -0.001476151               0.002515434               0.001039283               0.000000000               0.000000000               0.000000000               0.000000000              -0.001374538               0.005714591              -0.000512194              -0.001229773               0.002314769               0.001084996               0.000000000               0.000000000               0.000000000               0.000000000              -0.000883118               0.005396134              -0.000408300              -0.001005684               0.002133921               0.001128238               0.000000000               0.000000000               0.000000000               0.000000000              -0.000456574               0.005136733              -0.000323067              -0.000813305               0.001983329               0.001170024               0.000000000               0.000000000               0.000000000               0.000000000              -0.000103005               0.004941196              -0.000247416              -0.000656275               0.001865807               0.001209532               0.000000000               0.000000000               0.000000000               0.000000000               0.000169933               0.004810340              -0.000176363              -0.000537566               0.001782619               0.001245053               0.000000000               0.000000000               0.000000000               0.000000000               0.000357144               0.004748726              -0.000114934              -0.000459661               0.001736113               0.001276452               0.000000000               0.000000000               0.000000000               0.000000000               0.000458698               0.004764373              -0.000062526              -0.000423534               0.001729286               0.001305753               0.000000000               0.000000000               0.000000000               0.000000000               0.000486700               0.004857089              -0.000022876              -0.000424623               0.001760554               0.001335932               0.000000000               0.000000000               0.000000000               0.000000000               0.000469578               0.004916276              -0.000003289              -0.000438442               0.001784890               0.001346448               0.000000000               0.000000000               0.000000000               0.000000000              -0.004319241               0.002084345              -0.000007325              -0.001880255               0.001321525              -0.000558731               0.000000000               0.000000000               0.000000000               0.000000000              -0.004414764               0.004044415              -0.001016947              -0.002161084               0.002068485              -0.000092599               0.000000000               0.000000000               0.000000000               0.000000000              -0.004776307               0.005878550              -0.001783240              -0.002525928               0.002801472               0.000275544               0.000000000               0.000000000               0.000000000               0.000000000              -0.004401767               0.006461360              -0.001764812              -0.002458327               0.002973207               0.000514880               0.000000000               0.000000000               0.000000000               0.000000000              -0.003840067               0.006550032              -0.001582740              -0.002258774               0.002936246               0.000677473               0.000000000               0.000000000               0.000000000               0.000000000              -0.003242300               0.006437072              -0.001388524              -0.002020492               0.002819166               0.000798674               0.000000000               0.000000000               0.000000000               0.000000000              -0.002643828               0.006240777              -0.001212927              -0.001771529               0.002670747               0.000899219               0.000000000               0.000000000               0.000000000               0.000000000              -0.002059108               0.006007751              -0.001053114              -0.001523131               0.002510274               0.000987143               0.000000000               0.000000000               0.000000000               0.000000000              -0.001500940               0.005763129              -0.000902066              -0.001283241               0.002348771               0.001065530               0.000000000               0.000000000               0.000000000               0.000000000              -0.000975488               0.005525961              -0.000762159              -0.001056551               0.002194152               0.001137601               0.000000000               0.000000000               0.000000000               0.000000000              -0.000501661               0.005313630              -0.000634059              -0.000852325               0.002055300               0.001202976               0.000000000               0.000000000               0.000000000               0.000000000              -0.000094228               0.005137685              -0.000509286              -0.000677545               0.001938393               0.001260848               0.000000000               0.000000000               0.000000000               0.000000000               0.000244942               0.005008380              -0.000385711              -0.000534193               0.001847508               0.001313315               0.000000000               0.000000000               0.000000000               0.000000000               0.000512859               0.004928174              -0.000269252              -0.000423699               0.001783941               0.001360243               0.000000000               0.000000000               0.000000000               0.000000000               0.000702256               0.004900463              -0.000158655              -0.000349211               0.001749875               0.001400664               0.000000000               0.000000000               0.000000000               0.000000000               0.000808089               0.004930380              -0.000067550              -0.000313263               0.001747865               0.001434601               0.000000000               0.000000000               0.000000000               0.000000000               0.000830076               0.004953284              -0.000028050              -0.000307881               0.001753705               0.001445824               0.000000000               0.000000000               0.000000000               0.000000000              -0.006353165               0.000725639               0.000724368              -0.002473139               0.001066252              -0.001406887               0.000000000               0.000000000               0.000000000               0.000000000              -0.005448657               0.002679090              -0.000755076              -0.002378129               0.001685728              -0.000692401               0.000000000               0.000000000               0.000000000               0.000000000              -0.005086562               0.004450344              -0.001976744              -0.002463749               0.002304681              -0.000159067               0.000000000               0.000000000               0.000000000               0.000000000              -0.004494733               0.005269654              -0.002142982              -0.002344226               0.002537942               0.000193715               0.000000000               0.000000000               0.000000000               0.000000000              -0.003864271               0.005620382              -0.002016714              -0.002151645               0.002590656               0.000439011               0.000000000               0.000000000               0.000000000               0.000000000              -0.003247014               0.005743707              -0.001823963              -0.001935589               0.002559746               0.000624156               0.000000000               0.000000000               0.000000000               0.000000000              -0.002652652               0.005747641              -0.001627938              -0.001713196               0.002486926               0.000773730               0.000000000               0.000000000               0.000000000               0.000000000              -0.002071322               0.005678971              -0.001444757              -0.001486614               0.002388509               0.000901895               0.000000000               0.000000000               0.000000000               0.000000000              -0.001504819               0.005572006              -0.001274327              -0.001260805               0.002277585               0.001016780               0.000000000               0.000000000               0.000000000               0.000000000              -0.000962313               0.005443374              -0.001114445              -0.001041287               0.002161535               0.001120248               0.000000000               0.000000000               0.000000000               0.000000000              -0.000454891               0.005309570              -0.000960870              -0.000834279               0.002047932               0.001213653               0.000000000               0.000000000               0.000000000               0.000000000               0.000002994               0.005186725              -0.000806065              -0.000647217               0.001944630               0.001297413               0.000000000               0.000000000               0.000000000               0.000000000               0.000405384               0.005088788              -0.000649472              -0.000484079               0.001857605               0.001373527               0.000000000               0.000000000               0.000000000               0.000000000               0.000739182               0.005013087              -0.000489557              -0.000349442               0.001787493               0.001438051               0.000000000               0.000000000               0.000000000               0.000000000               0.000997284               0.004967945              -0.000322697              -0.000247011               0.001738302               0.001491291               0.000000000               0.000000000               0.000000000               0.000000000               0.001165088               0.004965414              -0.000155544              -0.000183768               0.001716378               0.001532609               0.000000000               0.000000000               0.000000000               0.000000000               0.001217494               0.004972919              -0.000074395              -0.000165054               0.001712641               0.001547587               0.000000000               0.000000000               0.000000000               0.000000000              -0.008481830              -0.000232567               0.001231995              -0.003151613               0.000973008              -0.002178605               0.000000000               0.000000000               0.000000000               0.000000000              -0.006548031               0.001468094              -0.000466268              -0.002639020               0.001369029              -0.001269992               0.000000000               0.000000000               0.000000000               0.000000000              -0.005345656               0.002956995              -0.001944345              -0.002374241               0.001777066              -0.000597175               0.000000000               0.000000000               0.000000000               0.000000000              -0.004459792               0.003881364              -0.002272751              -0.002157588               0.002012970              -0.000144619               0.000000000               0.000000000               0.000000000               0.000000000              -0.003731204               0.004437778              -0.002227105              -0.001953920               0.002130550               0.000176630               0.000000000               0.000000000               0.000000000               0.000000000              -0.003092726               0.004775352              -0.002068048              -0.001756688               0.002177330               0.000420642               0.000000000               0.000000000               0.000000000               0.000000000              -0.002501437               0.004973585              -0.001886735              -0.001559734               0.002177756               0.000618022               0.000000000               0.000000000               0.000000000               0.000000000              -0.001923957               0.005085144              -0.001708578              -0.001357124               0.002147405               0.000790281               0.000000000               0.000000000               0.000000000               0.000000000              -0.001359593               0.005136788              -0.001535269              -0.001151944               0.002096226               0.000944283               0.000000000               0.000000000               0.000000000               0.000000000              -0.000815913               0.005142436              -0.001370780              -0.000948770               0.002030384               0.001081615               0.000000000               0.000000000               0.000000000               0.000000000              -0.000290500               0.005121608              -0.001212699              -0.000749137               0.001956898               0.001207760               0.000000000               0.000000000               0.000000000               0.000000000               0.000207927               0.005083511              -0.001053933              -0.000557466               0.001880308               0.001322843               0.000000000               0.000000000               0.000000000               0.000000000               0.000667919               0.005039287              -0.000887396              -0.000379441               0.001806226               0.001426785               0.000000000               0.000000000               0.000000000               0.000000000               0.001076256               0.005000082              -0.000706613              -0.000221414               0.001740482               0.001519068               0.000000000               0.000000000               0.000000000               0.000000000               0.001417188               0.004976320              -0.000500796              -0.000090595               0.001688955               0.001598360               0.000000000               0.000000000               0.000000000               0.000000000               0.001669224               0.004979595              -0.000261324               0.000003509               0.001658679               0.001662188               0.000000000               0.000000000               0.000000000               0.000000000               0.001778589               0.004993387              -0.000137585               0.000042797               0.001650180               0.001692977               0.000000000               0.000000000               0.000000000               0.000000000              -0.010510516              -0.000817827               0.001408277              -0.003839212               0.001007121              -0.002832091               0.000000000               0.000000000               0.000000000               0.000000000              -0.007624442               0.000484987              -0.000214502              -0.002919786               0.001134917              -0.001784870               0.000000000               0.000000000               0.000000000               0.000000000              -0.005573209               0.001557994              -0.001683783              -0.002284700               0.001280889              -0.001003811               0.000000000               0.000000000               0.000000000               0.000000000              -0.004351525               0.002470082              -0.002095794              -0.001940579               0.001470210              -0.000470370               0.000000000               0.000000000               0.000000000               0.000000000              -0.003494093               0.003155796              -0.002122061              -0.001704756               0.001620172              -0.000084584               0.000000000               0.000000000               0.000000000               0.000000000              -0.002811072               0.003657725              -0.002015979              -0.001511365               0.001723017               0.000211652               0.000000000               0.000000000               0.000000000               0.000000000              -0.002211684               0.004023322              -0.001878034              -0.001332294               0.001785191               0.000452897               0.000000000               0.000000000               0.000000000               0.000000000              -0.001645744               0.004301189              -0.001731109              -0.001154801               0.001818648               0.000663847               0.000000000               0.000000000               0.000000000               0.000000000              -0.001095311               0.004511622              -0.001575577              -0.000974693               0.001828756               0.000854063               0.000000000               0.000000000               0.000000000               0.000000000              -0.000554400               0.004668234              -0.001427466              -0.000791428               0.001819872               0.001028443               0.000000000               0.000000000               0.000000000               0.000000000              -0.000020333               0.004778930              -0.001286115              -0.000604990               0.001794624               0.001189634               0.000000000               0.000000000               0.000000000               0.000000000               0.000504584               0.004850376              -0.001141583              -0.000417078               0.001755802               0.001338724               0.000000000               0.000000000               0.000000000               0.000000000               0.001016155               0.004891141              -0.000989831              -0.000230335               0.001707142               0.001476807               0.000000000               0.000000000               0.000000000               0.000000000               0.001510705               0.004918643              -0.000818430              -0.000048317               0.001655637               0.001607320               0.000000000               0.000000000               0.000000000               0.000000000               0.001971676               0.004946366              -0.000605659               0.000121081               0.001608412               0.001729493               0.000000000               0.000000000               0.000000000               0.000000000               0.002377187               0.004976632              -0.000331490               0.000269363               0.001569073               0.001838436               0.000000000               0.000000000               0.000000000               0.000000000               0.002611234               0.005011056              -0.000187683               0.000352827               0.001552726               0.001905554               0.000000000               0.000000000               0.000000000               0.000000000              -0.012194587              -0.001114792               0.001212667              -0.004433618               0.001106268              -0.003327351               0.000000000               0.000000000               0.000000000               0.000000000              -0.008547801              -0.000219611              -0.000053345              -0.003177972               0.000986114              -0.002191858               0.000000000               0.000000000               0.000000000               0.000000000              -0.005773948               0.000427909              -0.001231132              -0.002218717               0.000882202              -0.001336515               0.000000000               0.000000000               0.000000000               0.000000000              -0.004231342               0.001251548              -0.001607544              -0.001743195               0.000998240              -0.000744954               0.000000000               0.000000000               0.000000000               0.000000000              -0.003230038               0.001983931              -0.001671073              -0.001459253               0.001147720              -0.000311534               0.000000000               0.000000000               0.000000000               0.000000000              -0.002486367               0.002590105              -0.001618043              -0.001256148               0.001282075               0.000025926               0.000000000               0.000000000               0.000000000               0.000000000              -0.001870696               0.003085491              -0.001530517              -0.001087195               0.001390885               0.000303689               0.000000000               0.000000000               0.000000000               0.000000000              -0.001321240               0.003495365              -0.001426996              -0.000932384               0.001475904               0.000543520               0.000000000               0.000000000               0.000000000               0.000000000              -0.000791219               0.003839800              -0.001313299              -0.000776681               0.001538814               0.000762133               0.000000000               0.000000000               0.000000000               0.000000000              -0.000258102               0.004129710              -0.001202457              -0.000613001               0.001580890               0.000967889               0.000000000               0.000000000               0.000000000               0.000000000               0.000278446               0.004362357              -0.001093908              -0.000440877               0.001601063               0.001160186               0.000000000               0.000000000               0.000000000               0.000000000               0.000823948               0.004541169              -0.000983915              -0.000258666               0.001599929               0.001341264               0.000000000               0.000000000               0.000000000               0.000000000               0.001386006               0.004678813              -0.000869600              -0.000065100               0.001581289               0.001516189               0.000000000               0.000000000               0.000000000               0.000000000               0.001965809               0.004789055              -0.000736015               0.000138545               0.001550154               0.001688699               0.000000000               0.000000000               0.000000000               0.000000000               0.002563552               0.004878870              -0.000559426               0.000351470               0.001509117               0.001860587               0.000000000               0.000000000               0.000000000               0.000000000               0.003174499               0.004948893              -0.000315740               0.000571820               0.001459008               0.002030828               0.000000000               0.000000000               0.000000000               0.000000000               0.003592894               0.005019232              -0.000189564               0.000719924               0.001433086               0.002153010               0.000000000               0.000000000               0.000000000               0.000000000              -0.013308343              -0.001227536               0.000696951              -0.004837184               0.001203208              -0.003633976               0.000000000               0.000000000               0.000000000               0.000000000              -0.009173643              -0.000632572               0.000005274              -0.003361042               0.000909484              -0.002451558               0.000000000               0.000000000               0.000000000               0.000000000              -0.005916341              -0.000306559              -0.000648683              -0.002180306               0.000624578              -0.001555728               0.000000000               0.000000000               0.000000000               0.000000000              -0.004139681               0.000420093              -0.000872849              -0.001604890               0.000674989              -0.000929901               0.000000000               0.000000000               0.000000000               0.000000000              -0.003022249               0.001159688              -0.000922419              -0.001278303               0.000812658              -0.000465645               0.000000000               0.000000000               0.000000000               0.000000000              -0.002226230               0.001819356              -0.000904839              -0.001062254               0.000960530              -0.000101724               0.000000000               0.000000000               0.000000000               0.000000000              -0.001597299               0.002391440              -0.000863807              -0.000897915               0.001096443               0.000198528               0.000000000               0.000000000               0.000000000               0.000000000              -0.001054150               0.002888103              -0.000811310              -0.000756317               0.001214797               0.000458479               0.000000000               0.000000000               0.000000000               0.000000000              -0.000539227               0.003320402              -0.000753807              -0.000617259               0.001312542               0.000695283               0.000000000               0.000000000               0.000000000               0.000000000              -0.000022339               0.003695521              -0.000695387              -0.000470316               0.001388600               0.000918284               0.000000000               0.000000000               0.000000000               0.000000000               0.000510402               0.004011847              -0.000635451              -0.000310080               0.001440629               0.001130549               0.000000000               0.000000000               0.000000000               0.000000000               0.001069529               0.004271411              -0.000575909              -0.000132853               0.001468074               0.001335221               0.000000000               0.000000000               0.000000000               0.000000000               0.001666123               0.004487420              -0.000513946               0.000063868               0.001474503               0.001538370               0.000000000               0.000000000               0.000000000               0.000000000               0.002310307               0.004670537              -0.000439920               0.000282545               0.001462648               0.001745194               0.000000000               0.000000000               0.000000000               0.000000000               0.003017444               0.004819846              -0.000340655               0.000529055               0.001430247               0.001959303               0.000000000               0.000000000               0.000000000               0.000000000               0.003805245               0.004926394              -0.000195810               0.000811160               0.001371728               0.002182888               0.000000000               0.000000000               0.000000000               0.000000000               0.004392109               0.005027164              -0.000121218               0.001018635               0.001336159               0.002354795               0.000000000               0.000000000               0.000000000               0.000000000               0.000000000               0.000000000               0.000000000               0.000000000               0.000000000               0.000000000               0.000000000               0.000000000               0.000000000               0.000000000               0.000000000               0.000000000               0.000000000               0.000000000               0.000000000               0.000000000               0.000000000               0.000000000               0.000000000               0.000000000               0.000000000               0.000000000               0.000000000               0.000000000               0.000000000               0.000000000               0.000000000               0.000000000               0.000000000               0.000000000               0.000000000               0.000000000               0.000000000               0.000000000               0.000000000               0.000000000               0.000000000               0.000000000               0.000000000               0.000000000               0.000000000               0.000000000               0.000000000               0.000000000               0.000000000               0.000000000               0.000000000               0.000000000               0.000000000               0.000000000               0.000000000               0.000000000               0.000000000               0.000000000               0.000000000               0.000000000               0.000000000               0.000000000               0.000000000               0.000000000               0.000000000               0.000000000               0.000000000               0.000000000               0.000000000               0.000000000               0.000000000               0.000000000               0.000000000               0.000000000               0.000000000               0.000000000               0.000000000               0.000000000               0.000000000               0.000000000               0.000000000               0.000000000               0.000000000               0.000000000               0.000000000               0.000000000               0.000000000               0.000000000               0.000000000               0.000000000               0.000000000               0.000000000               0.000000000               0.000000000               0.000000000               0.000000000               0.000000000               0.000000000               0.000000000               0.000000000               0.000000000               0.000000000               0.000000000               0.000000000               0.000000000               0.000000000               0.000000000               0.000000000               0.000000000               0.000000000               0.000000000               0.000000000               0.000000000               0.000000000               0.000000000               0.000000000               0.000000000               0.000000000               0.000000000               0.000000000               0.000000000               0.000000000               0.000000000               0.000000000               0.000000000               0.000000000               0.000000000               0.000000000               0.000000000               0.000000000               0.000000000               0.000000000               0.000000000               0.000000000               0.000000000               0.000000000               0.000000000               0.000000000               0.000000000               0.000000000               0.000000000               0.000000000               0.000000000               0.000000000               0.000000000               0.000000000               0.000000000               0.000000000               0.000000000               0.000000000               0.000000000               0.000000000               0.000000000               0.000000000               0.000000000               0.000000000               0.000000000               0.000000000               0.000000000               0.000000000               0.000000000               0.000000000               0.000000000               0.000000000               0.000000000               0.000000000               0.000000000               0.000000000               0.000000000               0.000000000               0.000000000               0.000000000               0.000000000               0.000000000               0.000000000               0.000000000               0.000000000               0.000000000               0.000000000               0.000000000               0.000000000               0.000000000               0.000000000               0.000000000               0.000000000               0.000000000               0.000000000               0.000000000               0.000000000               0.000000000               0.000000000               0.000000000               0.000000000               0.000000000               0.000000000               0.000000000               0.000000000               0.000000000               0.000000000               0.000000000               0.000000000               0.000000000               0.000000000               0.000000000               0.000000000               0.000000000               0.000000000               0.000000000               0.000000000               0.000000000               0.000000000               0.000000000               0.000000000               0.000000000               0.000000000               0.000000000               0.000000000               0.000000000               0.000000000               0.000000000               0.000000000               0.000000000               0.000000000               0.000000000               0.000000000               0.000000000               0.000000000               0.000000000               0.000000000               0.000000000               0.000000000               0.000000000               0.000000000               0.000000000               0.000000000               0.000000000               0.000000000               0.000000000               0.000000000               0.000000000               0.000000000               0.000000000               0.000000000               0.000000000               0.000000000               0.000000000               0.000000000               0.000000000               0.000000000               0.000000000               0.000000000               0.000000000               0.000000000               0.000000000               0.000000000               0.000000000               0.000000000               0.000000000               0.000000000               0.000000000               0.000000000               0.000000000               0.000000000               0.000000000               0.000000000               0.000000000               0.000000000               0.000000000               0.000000000               0.000000000               0.000000000               0.000000000               0.000000000               0.000000000               0.000000000               0.000000000               0.000000000               0.000000000               0.000000000               0.000000000               0.000000000               0.000000000               0.000000000               0.000000000               0.000000000               0.000000000               0.000000000               0.000000000               0.000000000               0.000000000               0.000000000               0.000000000               0.000000000               0.000000000               0.000000000               0.000000000               0.000000000               0.000000000               0.000000000               0.000000000               0.000000000               0.000000000               0.000000000               0.000000000               0.000000000               0.000000000               0.000000000               0.000000000               0.000000000               0.000000000               0.000000000               0.000000000               0.000000000               0.000000000               0.000000000               0.000000000               0.000000000               0.000000000               0.000000000               0.000000000               0.000000000               0.000000000               0.000000000               0.000000000               0.000000000               0.000000000               0.000000000               0.000000000               0.000000000               0.000000000               0.000000000               0.000000000               0.000000000               0.000000000               0.000000000               0.000000000               0.000000000               0.000000000               0.000000000               0.000000000               0.000000000               0.000000000               0.000000000               0.000000000               0.002057175               0.020922116               0.001419249              -0.001843820               0.007588575               0.005744756               0.000000000               0.000000000               0.000000000               0.000000000               0.001842702               0.016076075               0.000636898              -0.001318493               0.005798136               0.004479643               0.000000000               0.000000000               0.000000000               0.000000000               0.002251803               0.012152814              -0.000137720              -0.000674674               0.004275789               0.003601115               0.000000000               0.000000000               0.000000000               0.000000000               0.002007676               0.009915538              -0.000460471              -0.000486563               0.003467334               0.002980771               0.000000000               0.000000000               0.000000000               0.000000000               0.001601818               0.008480949              -0.000585864              -0.000459436               0.002980100               0.002520664               0.000000000               0.000000000               0.000000000               0.000000000               0.001196713               0.007457418              -0.000620591              -0.000483409               0.002646917               0.002163509               0.000000000               0.000000000               0.000000000               0.000000000               0.000843232               0.006658122              -0.000614141              -0.000516052               0.002391369               0.001875317               0.000000000               0.000000000               0.000000000               0.000000000               0.000555884               0.005983649              -0.000589881              -0.000539499               0.002174363               0.001634864               0.000000000               0.000000000               0.000000000               0.000000000               0.000337283               0.005379634              -0.000558295              -0.000545972               0.001975184               0.001429212               0.000000000               0.000000000               0.000000000               0.000000000               0.000180954               0.004814223              -0.000524858              -0.000533919               0.001782698               0.001248779               0.000000000               0.000000000               0.000000000               0.000000000               0.000070203               0.004266221              -0.000491937              -0.000506950               0.001591043               0.001084092               0.000000000               0.000000000               0.000000000               0.000000000              -0.000008630               0.003717915              -0.000454245              -0.000467975               0.001395284               0.000927310               0.000000000               0.000000000               0.000000000               0.000000000              -0.000059004               0.003151139              -0.000407385              -0.000416018               0.001189042               0.000773024               0.000000000               0.000000000               0.000000000               0.000000000              -0.000081827               0.002550566              -0.000346186              -0.000349505               0.000966682               0.000617177               0.000000000               0.000000000               0.000000000               0.000000000              -0.000080822               0.001901938              -0.000263170              -0.000268050               0.000723323               0.000455273               0.000000000               0.000000000               0.000000000               0.000000000              -0.000050513               0.001193469              -0.000149543              -0.000168126               0.000453861               0.000285735               0.000000000               0.000000000               0.000000000               0.000000000              -0.000082065               0.000667481              -0.000094303              -0.000114209               0.000260561               0.000146352               0.000000000               0.000000000               0.000000000               0.000000000               0.002200041               0.019615040               0.002621966              -0.001626862               0.007080568               0.005453706               0.000000000               0.000000000               0.000000000               0.000000000               0.001660004               0.015248764               0.001166205              -0.001283591               0.005510734               0.004227143               0.000000000               0.000000000               0.000000000               0.000000000               0.001725498               0.011825994              -0.000260289              -0.000831186               0.004219021               0.003387835               0.000000000               0.000000000               0.000000000               0.000000000               0.001361067               0.009846901              -0.000831069              -0.000720461               0.003522421               0.002801960               0.000000000               0.000000000               0.000000000               0.000000000               0.000937320               0.008546547              -0.001039897              -0.000716822               0.003087761               0.002370939               0.000000000               0.000000000               0.000000000               0.000000000               0.000564837               0.007593046              -0.001090302              -0.000737315               0.002776762               0.002039446               0.000000000               0.000000000               0.000000000               0.000000000               0.000269140               0.006830173              -0.001070105              -0.000752843               0.002527649               0.001774806               0.000000000               0.000000000               0.000000000               0.000000000               0.000050284               0.006175133              -0.001018626              -0.000753034               0.002309368               0.001556335               0.000000000               0.000000000               0.000000000               0.000000000              -0.000098458               0.005578180              -0.000956505              -0.000734193               0.002104106               0.001369913               0.000000000               0.000000000               0.000000000               0.000000000              -0.000186666               0.005016876              -0.000893498              -0.000697108               0.001904644               0.001207536               0.000000000               0.000000000               0.000000000               0.000000000              -0.000232160               0.004476171              -0.000830865              -0.000646580               0.001707569               0.001060988               0.000000000               0.000000000               0.000000000               0.000000000              -0.000246422               0.003941793              -0.000759371              -0.000585131               0.001508961               0.000923830               0.000000000               0.000000000               0.000000000               0.000000000              -0.000231351               0.003402699              -0.000671189              -0.000512093               0.001304919               0.000792826               0.000000000               0.000000000               0.000000000               0.000000000              -0.000195449               0.002853670              -0.000561183              -0.000430001               0.001094547               0.000664546               0.000000000               0.000000000               0.000000000               0.000000000              -0.000144725               0.002296373              -0.000420546              -0.000341318               0.000879222               0.000537905               0.000000000               0.000000000               0.000000000               0.000000000              -0.000077722               0.001737361              -0.000234885              -0.000246315               0.000661220               0.000414904               0.000000000               0.000000000               0.000000000               0.000000000              -0.000081074               0.001351106              -0.000144239              -0.000199291               0.000516794               0.000317504               0.000000000               0.000000000               0.000000000               0.000000000               0.002304749               0.017627668               0.003434081              -0.001339176               0.006322222               0.004983046               0.000000000               0.000000000               0.000000000               0.000000000               0.001313413               0.014012777               0.001512547              -0.001259065               0.005090567               0.003831502               0.000000000               0.000000000               0.000000000               0.000000000               0.000904532               0.011349167              -0.000336243              -0.001079444               0.004142832               0.003063389               0.000000000               0.000000000               0.000000000               0.000000000               0.000403599               0.009731045              -0.001028257              -0.001065029               0.003598659               0.002533630               0.000000000               0.000000000               0.000000000               0.000000000              -0.000005953               0.008601545              -0.001260045              -0.001077423               0.003226294               0.002148871               0.000000000               0.000000000               0.000000000               0.000000000              -0.000301047               0.007732080              -0.001299274              -0.001079400               0.002937134               0.001857734               0.000000000               0.000000000               0.000000000               0.000000000              -0.000495179               0.007007596              -0.001260813              -0.001061640               0.002689722               0.001628082               0.000000000               0.000000000               0.000000000               0.000000000              -0.000604114               0.006371877              -0.001188561              -0.001023025               0.002464946               0.001441921               0.000000000               0.000000000               0.000000000               0.000000000              -0.000649952               0.005786489              -0.001102530              -0.000967041               0.002251157               0.001284116               0.000000000               0.000000000               0.000000000               0.000000000              -0.000647143               0.005231819              -0.001017107              -0.000896654               0.002042807               0.001146153               0.000000000               0.000000000               0.000000000               0.000000000              -0.000605851               0.004696099              -0.000933261              -0.000814205               0.001836752               0.001022547               0.000000000               0.000000000               0.000000000               0.000000000              -0.000531922               0.004176908              -0.000839514              -0.000721583               0.001632816               0.000911234               0.000000000               0.000000000               0.000000000               0.000000000              -0.000433710               0.003673993              -0.000726867              -0.000621889               0.001431948               0.000810059               0.000000000               0.000000000               0.000000000               0.000000000              -0.000324807               0.003192500              -0.000592965              -0.000520864               0.001237777               0.000716913               0.000000000               0.000000000               0.000000000               0.000000000              -0.000216814               0.002742980              -0.000431796              -0.000424177               0.001055710               0.000631533               0.000000000               0.000000000               0.000000000               0.000000000              -0.000109801               0.002343300              -0.000233984              -0.000334087               0.000892455               0.000558368               0.000000000               0.000000000               0.000000000               0.000000000              -0.000082382               0.002098621              -0.000139025              -0.000293220               0.000797273               0.000504053               0.000000000               0.000000000               0.000000000               0.000000000               0.002226988               0.015190392               0.003787501              -0.001063678               0.005417972               0.004354294               0.000000000               0.000000000               0.000000000               0.000000000               0.000772902               0.012538303               0.001671019              -0.001277447               0.004605208               0.003327761               0.000000000               0.000000000               0.000000000               0.000000000              -0.000122754               0.010781434              -0.000321581              -0.001393709               0.004058345               0.002664636               0.000000000               0.000000000               0.000000000               0.000000000              -0.000704669               0.009552127              -0.001004320              -0.001458263               0.003670098               0.002211835               0.000000000               0.000000000               0.000000000               0.000000000              -0.001042876               0.008594314              -0.001209236              -0.001465364               0.003353197               0.001887833               0.000000000               0.000000000               0.000000000               0.000000000              -0.001205063               0.007802043              -0.001227556              -0.001427151               0.003076372               0.001649221               0.000000000               0.000000000               0.000000000               0.000000000              -0.001252727               0.007105118              -0.001179125              -0.001357909               0.002820985               0.001463076               0.000000000               0.000000000               0.000000000               0.000000000              -0.001227535               0.006477066              -0.001103020              -0.001269956               0.002582319               0.001312363               0.000000000               0.000000000               0.000000000               0.000000000              -0.001155086               0.005899122              -0.001012094              -0.001170545               0.002356536               0.001185991               0.000000000               0.000000000               0.000000000               0.000000000              -0.001048364               0.005353587              -0.000919757              -0.001062332               0.002138622               0.001076289               0.000000000               0.000000000               0.000000000               0.000000000              -0.000908873               0.004835661              -0.000831298              -0.000945283               0.001926965               0.000981682               0.000000000               0.000000000               0.000000000               0.000000000              -0.000746220               0.004347605              -0.000736958              -0.000823281               0.001723614               0.000900333               0.000000000               0.000000000               0.000000000               0.000000000              -0.000577331               0.003899232              -0.000624932              -0.000703901               0.001534365               0.000830463               0.000000000               0.000000000               0.000000000               0.000000000              -0.000410340               0.003500313              -0.000495270              -0.000591415               0.001363898               0.000772482               0.000000000               0.000000000               0.000000000               0.000000000              -0.000256106               0.003159812              -0.000347745              -0.000491015               0.001216932               0.000725917               0.000000000               0.000000000               0.000000000               0.000000000              -0.000121265               0.002898409              -0.000182854              -0.000407775               0.001102052               0.000694277               0.000000000               0.000000000               0.000000000               0.000000000              -0.000072643               0.002766595              -0.000104964              -0.000373064               0.001046544               0.000673479               0.000000000               0.000000000               0.000000000               0.000000000               0.001865448               0.012566410               0.003700449              -0.000871259               0.004479181               0.003607921               0.000000000               0.000000000               0.000000000               0.000000000               0.000052965               0.010988408               0.001679969              -0.001353687               0.004113995               0.002760308               0.000000000               0.000000000               0.000000000               0.000000000              -0.001233853               0.010161831              -0.000182435              -0.001732920               0.003964883               0.002231963               0.000000000               0.000000000               0.000000000               0.000000000              -0.001793588               0.009292843              -0.000763057              -0.001834196               0.003708982               0.001874786               0.000000000               0.000000000               0.000000000               0.000000000              -0.001986318               0.008487009              -0.000926821              -0.001805741               0.003430888               0.001625147               0.000000000               0.000000000               0.000000000               0.000000000              -0.001974135               0.007757614              -0.000935621              -0.001709998               0.003155845               0.001445847               0.000000000               0.000000000               0.000000000               0.000000000              -0.001856256               0.007081775              -0.000892792              -0.001581314               0.002887673               0.001306359               0.000000000               0.000000000               0.000000000               0.000000000              -0.001685987               0.006461503              -0.000836096              -0.001439930               0.002633789               0.001193860               0.000000000               0.000000000               0.000000000               0.000000000              -0.001486095               0.005894796              -0.000763702              -0.001294132               0.002396290               0.001102158               0.000000000               0.000000000               0.000000000               0.000000000              -0.001268360               0.005368335              -0.000686586              -0.001146674               0.002171652               0.001024978               0.000000000               0.000000000               0.000000000               0.000000000              -0.001036878               0.004885595              -0.000612403              -0.000999526               0.001961691               0.000962164               0.000000000               0.000000000               0.000000000               0.000000000              -0.000799709               0.004452570              -0.000534555              -0.000856460               0.001769662               0.000913202               0.000000000               0.000000000               0.000000000               0.000000000              -0.000576597               0.004078867              -0.000444311              -0.000726081               0.001601636               0.000875555               0.000000000               0.000000000               0.000000000               0.000000000              -0.000376975               0.003771420              -0.000336357              -0.000612792               0.001461391               0.000848600               0.000000000               0.000000000               0.000000000               0.000000000              -0.000209867               0.003538802              -0.000218298              -0.000521049               0.001353272               0.000832223               0.000000000               0.000000000               0.000000000               0.000000000              -0.000088242               0.003397578              -0.000105610              -0.000457787               0.001285110               0.000827324               0.000000000               0.000000000               0.000000000               0.000000000              -0.000040277               0.003354494              -0.000053097              -0.000434415               0.001262958               0.000828544               0.000000000               0.000000000               0.000000000               0.000000000               0.001157642               0.009990273               0.003255728              -0.000814669               0.003601613               0.002786944               0.000000000               0.000000000               0.000000000               0.000000000              -0.000807041               0.009487186               0.001597790              -0.001488536               0.003658542               0.002170006               0.000000000               0.000000000               0.000000000               0.000000000              -0.002300278               0.009514211               0.000086883              -0.002051876               0.003855331               0.001803455               0.000000000               0.000000000               0.000000000               0.000000000              -0.002717018               0.008945836              -0.000354744              -0.002137106               0.003694284               0.001557178               0.000000000               0.000000000               0.000000000               0.000000000              -0.002707424               0.008259862              -0.000490306              -0.002047762               0.003435847               0.001388085               0.000000000               0.000000000               0.000000000               0.000000000              -0.002509162               0.007577635              -0.000513488              -0.001888136               0.003155232               0.001267096               0.000000000               0.000000000               0.000000000               0.000000000              -0.002226415               0.006929950              -0.000498731              -0.001701145               0.002877008               0.001175863               0.000000000               0.000000000               0.000000000               0.000000000              -0.001912397               0.006336054              -0.000479940              -0.001509152               0.002615047               0.001105896               0.000000000               0.000000000               0.000000000               0.000000000              -0.001590678               0.005797007              -0.000444266              -0.001321127               0.002372692               0.001051565               0.000000000               0.000000000               0.000000000               0.000000000              -0.001267081               0.005309966              -0.000398549              -0.001138898               0.002149604               0.001010705               0.000000000               0.000000000               0.000000000               0.000000000              -0.000957402               0.004882521              -0.000353677              -0.000969339               0.001950604               0.000981265               0.000000000               0.000000000               0.000000000               0.000000000              -0.000672801               0.004521121              -0.000302643              -0.000817439               0.001779505               0.000962066               0.000000000               0.000000000               0.000000000               0.000000000              -0.000425233               0.004228935              -0.000238930              -0.000688078               0.001638990               0.000950912               0.000000000               0.000000000               0.000000000               0.000000000              -0.000226148               0.004011870              -0.000161052              -0.000586288               0.001532706               0.000946418               0.000000000               0.000000000               0.000000000               0.000000000              -0.000083347               0.003879270              -0.000082192              -0.000516163               0.001465131               0.000948969               0.000000000               0.000000000               0.000000000               0.000000000              -0.000012840               0.003829840              -0.000025497              -0.000483544               0.001437782               0.000954238               0.000000000               0.000000000               0.000000000               0.000000000               0.000010337               0.003841249              -0.000001063              -0.000476278               0.001439163               0.000962884               0.000000000               0.000000000               0.000000000               0.000000000               0.000125359               0.007618017               0.002562797              -0.000905242               0.002841060               0.001935818               0.000000000               0.000000000               0.000000000               0.000000000              -0.001762120               0.008124172               0.001474846              -0.001676313               0.003266801               0.001590488               0.000000000               0.000000000               0.000000000               0.000000000              -0.003218861               0.008841706               0.000465447              -0.002312280               0.003717966               0.001405686               0.000000000               0.000000000               0.000000000               0.000000000              -0.003392788               0.008494216               0.000147671              -0.002334067               0.003609399               0.001275333               0.000000000               0.000000000               0.000000000               0.000000000              -0.003155716               0.007910145               0.000010060              -0.002172156               0.003360741               0.001188585               0.000000000               0.000000000               0.000000000               0.000000000              -0.002772765               0.007285074              -0.000053709              -0.001950416               0.003078473               0.001128056               0.000000000               0.000000000               0.000000000               0.000000000              -0.002340665               0.006686696              -0.000085060              -0.001713582               0.002800070               0.001086488               0.000000000               0.000000000               0.000000000               0.000000000              -0.001902030               0.006140793              -0.000112782              -0.001480857               0.002540530               0.001059673               0.000000000               0.000000000               0.000000000               0.000000000              -0.001472011               0.005644169              -0.000126417              -0.001257522               0.002300545               0.001043023               0.000000000               0.000000000               0.000000000               0.000000000              -0.001068505               0.005212850              -0.000126018              -0.001052293               0.002088364               0.001036071               0.000000000               0.000000000               0.000000000               0.000000000              -0.000712858               0.004856304              -0.000117976              -0.000874358               0.001910204               0.001035847               0.000000000               0.000000000               0.000000000               0.000000000              -0.000413375               0.004577723              -0.000097372              -0.000727229               0.001768302               0.001041073               0.000000000               0.000000000               0.000000000               0.000000000              -0.000175341               0.004377507              -0.000064570              -0.000612940               0.001663468               0.001050528               0.000000000               0.000000000               0.000000000               0.000000000              -0.000011458               0.004258454              -0.000024853              -0.000536602               0.001598338               0.001061736               0.000000000               0.000000000               0.000000000               0.000000000               0.000067382               0.004221258               0.000010859              -0.000502388               0.001574534               0.001072147               0.000000000               0.000000000               0.000000000               0.000000000               0.000062912               0.004249312               0.000021027              -0.000507571               0.001585613               0.001078043               0.000000000               0.000000000               0.000000000               0.000000000               0.000046699               0.004294486               0.000020928              -0.000519297               0.001604580               0.001085283               0.000000000               0.000000000               0.000000000               0.000000000              -0.001100617               0.005618626               0.001727122              -0.001115058               0.002244542               0.001129484               0.000000000               0.000000000               0.000000000               0.000000000              -0.002706814               0.006908456               0.001346509              -0.001878608               0.002928998               0.001050390               0.000000000               0.000000000               0.000000000               0.000000000              -0.003949403               0.008152133               0.000920603              -0.002500037               0.003550696               0.001050659               0.000000000               0.000000000               0.000000000               0.000000000              -0.003862573               0.008035499               0.000678204              -0.002452896               0.003496105               0.001043209               0.000000000               0.000000000               0.000000000               0.000000000              -0.003434759               0.007587794               0.000512227              -0.002236503               0.003274740               0.001038237               0.000000000               0.000000000               0.000000000               0.000000000              -0.002906026               0.007051849               0.000396065              -0.001971236               0.003007672               0.001036436               0.000000000               0.000000000               0.000000000               0.000000000              -0.002348458               0.006529624               0.000313883              -0.001696870               0.002742143               0.001045273               0.000000000               0.000000000               0.000000000               0.000000000              -0.001806838               0.006043364               0.000239832              -0.001432981               0.002492095               0.001059114               0.000000000               0.000000000               0.000000000               0.000000000              -0.001295209               0.005594905               0.000172384              -0.001185063               0.002259971               0.001074907               0.000000000               0.000000000               0.000000000               0.000000000              -0.000838268               0.005209685               0.000117679              -0.000965559               0.002058397               0.001092838               0.000000000               0.000000000               0.000000000               0.000000000              -0.000454402               0.004905434               0.000081245              -0.000783578               0.001896321               0.001112743               0.000000000               0.000000000               0.000000000               0.000000000              -0.000144925               0.004684494               0.000059307              -0.000639907               0.001774785               0.001134878               0.000000000               0.000000000               0.000000000               0.000000000               0.000081823               0.004545656               0.000047799              -0.000537522               0.001694378               0.001156856               0.000000000               0.000000000               0.000000000               0.000000000               0.000214990               0.004493955               0.000041931              -0.000481122               0.001658344               0.001177222               0.000000000               0.000000000               0.000000000               0.000000000               0.000257434               0.004530336               0.000035378              -0.000469753               0.001666681               0.001196928               0.000000000               0.000000000               0.000000000               0.000000000               0.000226367               0.004632592               0.000022094              -0.000494185               0.001708910               0.001214725               0.000000000               0.000000000               0.000000000               0.000000000               0.000185070               0.004702282               0.000011974              -0.000518383               0.001740206               0.001221823               0.000000000               0.000000000               0.000000000               0.000000000              -0.002523342               0.003763109               0.000850716              -0.001416639               0.001726570               0.000309931               0.000000000               0.000000000               0.000000000               0.000000000              -0.003511922               0.005485143               0.001209559              -0.002002609               0.002495899               0.000493290               0.000000000               0.000000000               0.000000000               0.000000000              -0.004400932               0.007115064               0.001397157              -0.002539726               0.003218239               0.000678513               0.000000000               0.000000000               0.000000000               0.000000000              -0.004165430               0.007357132               0.001232928              -0.002481672               0.003279576               0.000797905               0.000000000               0.000000000               0.000000000               0.000000000              -0.003658375               0.007159572               0.001042584              -0.002266832               0.003142111               0.000875279               0.000000000               0.000000000               0.000000000               0.000000000              -0.003082691               0.006817809               0.000878230              -0.002008231               0.002941990               0.000933760               0.000000000               0.000000000               0.000000000               0.000000000              -0.002488584               0.006442491               0.000745951              -0.001738526               0.002726984               0.000988458               0.000000000               0.000000000               0.000000000               0.000000000              -0.001913009               0.006070211               0.000627443              -0.001476151               0.002515434               0.001039283               0.000000000               0.000000000               0.000000000               0.000000000              -0.001374538               0.005714591               0.000512194              -0.001229773               0.002314769               0.001084996               0.000000000               0.000000000               0.000000000               0.000000000              -0.000883118               0.005396134               0.000408300              -0.001005684               0.002133921               0.001128238               0.000000000               0.000000000               0.000000000               0.000000000              -0.000456574               0.005136733               0.000323067              -0.000813305               0.001983329               0.001170024               0.000000000               0.000000000               0.000000000               0.000000000              -0.000103005               0.004941196               0.000247416              -0.000656275               0.001865807               0.001209532               0.000000000               0.000000000               0.000000000               0.000000000               0.000169933               0.004810340               0.000176363              -0.000537566               0.001782619               0.001245053               0.000000000               0.000000000               0.000000000               0.000000000               0.000357144               0.004748726               0.000114934              -0.000459661               0.001736113               0.001276452               0.000000000               0.000000000               0.000000000               0.000000000               0.000458698               0.004764373               0.000062526              -0.000423534               0.001729286               0.001305753               0.000000000               0.000000000               0.000000000               0.000000000               0.000486700               0.004857089               0.000022876              -0.000424623               0.001760554               0.001335932               0.000000000               0.000000000               0.000000000               0.000000000               0.000469578               0.004916276               0.000003289              -0.000438442               0.001784890               0.001346448               0.000000000               0.000000000               0.000000000               0.000000000              -0.004319241               0.002084345               0.000007325              -0.001880255               0.001321525              -0.000558731               0.000000000               0.000000000               0.000000000               0.000000000              -0.004414764               0.004044415               0.001016947              -0.002161084               0.002068485              -0.000092599               0.000000000               0.000000000               0.000000000               0.000000000              -0.004776307               0.005878550               0.001783240              -0.002525928               0.002801472               0.000275544               0.000000000               0.000000000               0.000000000               0.000000000              -0.004401767               0.006461360               0.001764812              -0.002458327               0.002973207               0.000514880               0.000000000               0.000000000               0.000000000               0.000000000              -0.003840067               0.006550032               0.001582740              -0.002258774               0.002936246               0.000677473               0.000000000               0.000000000               0.000000000               0.000000000              -0.003242300               0.006437072               0.001388524              -0.002020492               0.002819166               0.000798674               0.000000000               0.000000000               0.000000000               0.000000000              -0.002643828               0.006240777               0.001212927              -0.001771529               0.002670747               0.000899219               0.000000000               0.000000000               0.000000000               0.000000000              -0.002059108               0.006007751               0.001053114              -0.001523131               0.002510274               0.000987143               0.000000000               0.000000000               0.000000000               0.000000000              -0.001500940               0.005763129               0.000902066              -0.001283241               0.002348771               0.001065530               0.000000000               0.000000000               0.000000000               0.000000000              -0.000975488               0.005525961               0.000762159              -0.001056551               0.002194152               0.001137601               0.000000000               0.000000000               0.000000000               0.000000000              -0.000501661               0.005313630               0.000634059              -0.000852325               0.002055300               0.001202976               0.000000000               0.000000000               0.000000000               0.000000000              -0.000094228               0.005137685               0.000509286              -0.000677545               0.001938393               0.001260848               0.000000000               0.000000000               0.000000000               0.000000000               0.000244942               0.005008380               0.000385711              -0.000534193               0.001847508               0.001313315               0.000000000               0.000000000               0.000000000               0.000000000               0.000512859               0.004928174               0.000269252              -0.000423699               0.001783941               0.001360243               0.000000000               0.000000000               0.000000000               0.000000000               0.000702256               0.004900463               0.000158655              -0.000349211               0.001749875               0.001400664               0.000000000               0.000000000               0.000000000               0.000000000               0.000808089               0.004930380               0.000067550              -0.000313263               0.001747865               0.001434601               0.000000000               0.000000000               0.000000000               0.000000000               0.000830076               0.004953284               0.000028050              -0.000307881               0.001753705               0.001445824               0.000000000               0.000000000               0.000000000               0.000000000              -0.006353165               0.000725639              -0.000724368              -0.002473139               0.001066252              -0.001406887               0.000000000               0.000000000               0.000000000               0.000000000              -0.005448657               0.002679090               0.000755076              -0.002378129               0.001685728              -0.000692401               0.000000000               0.000000000               0.000000000               0.000000000              -0.005086562               0.004450344               0.001976744              -0.002463749               0.002304681              -0.000159067               0.000000000               0.000000000               0.000000000               0.000000000              -0.004494733               0.005269654               0.002142982              -0.002344226               0.002537942               0.000193715               0.000000000               0.000000000               0.000000000               0.000000000              -0.003864271               0.005620382               0.002016714              -0.002151645               0.002590656               0.000439011               0.000000000               0.000000000               0.000000000               0.000000000              -0.003247014               0.005743707               0.001823963              -0.001935589               0.002559746               0.000624156               0.000000000               0.000000000               0.000000000               0.000000000              -0.002652652               0.005747641               0.001627938              -0.001713196               0.002486926               0.000773730               0.000000000               0.000000000               0.000000000               0.000000000              -0.002071322               0.005678971               0.001444757              -0.001486614               0.002388509               0.000901895               0.000000000               0.000000000               0.000000000               0.000000000              -0.001504819               0.005572006               0.001274327              -0.001260805               0.002277585               0.001016780               0.000000000               0.000000000               0.000000000               0.000000000              -0.000962313               0.005443374               0.001114445              -0.001041287               0.002161535               0.001120248               0.000000000               0.000000000               0.000000000               0.000000000              -0.000454891               0.005309570               0.000960870              -0.000834279               0.002047932               0.001213653               0.000000000               0.000000000               0.000000000               0.000000000               0.000002994               0.005186725               0.000806065              -0.000647217               0.001944630               0.001297413               0.000000000               0.000000000               0.000000000               0.000000000               0.000405384               0.005088788               0.000649472              -0.000484079               0.001857605               0.001373527               0.000000000               0.000000000               0.000000000               0.000000000               0.000739182               0.005013087               0.000489557              -0.000349442               0.001787493               0.001438051               0.000000000               0.000000000               0.000000000               0.000000000               0.000997284               0.004967945               0.000322697              -0.000247011               0.001738302               0.001491291               0.000000000               0.000000000               0.000000000               0.000000000               0.001165088               0.004965414               0.000155544              -0.000183768               0.001716378               0.001532609               0.000000000               0.000000000               0.000000000               0.000000000               0.001217494               0.004972919               0.000074395              -0.000165054               0.001712641               0.001547587               0.000000000               0.000000000               0.000000000               0.000000000              -0.008481830              -0.000232567              -0.001231995              -0.003151613               0.000973008              -0.002178605               0.000000000               0.000000000               0.000000000               0.000000000              -0.006548031               0.001468094               0.000466268              -0.002639020               0.001369029              -0.001269992               0.000000000               0.000000000               0.000000000               0.000000000              -0.005345656               0.002956995               0.001944345              -0.002374241               0.001777066              -0.000597175               0.000000000               0.000000000               0.000000000               0.000000000              -0.004459792               0.003881364               0.002272751              -0.002157588               0.002012970              -0.000144619               0.000000000               0.000000000               0.000000000               0.000000000              -0.003731204               0.004437778               0.002227105              -0.001953920               0.002130550               0.000176630               0.000000000               0.000000000               0.000000000               0.000000000              -0.003092726               0.004775352               0.002068048              -0.001756688               0.002177330               0.000420642               0.000000000               0.000000000               0.000000000               0.000000000              -0.002501437               0.004973585               0.001886735              -0.001559734               0.002177756               0.000618022               0.000000000               0.000000000               0.000000000               0.000000000              -0.001923957               0.005085144               0.001708578              -0.001357124               0.002147405               0.000790281               0.000000000               0.000000000               0.000000000               0.000000000              -0.001359593               0.005136788               0.001535269              -0.001151944               0.002096226               0.000944283               0.000000000               0.000000000               0.000000000               0.000000000              -0.000815913               0.005142436               0.001370780              -0.000948770               0.002030384               0.001081615               0.000000000               0.000000000               0.000000000               0.000000000              -0.000290500               0.005121608               0.001212699              -0.000749137               0.001956898               0.001207760               0.000000000               0.000000000               0.000000000               0.000000000               0.000207927               0.005083511               0.001053933              -0.000557466               0.001880308               0.001322843               0.000000000               0.000000000               0.000000000               0.000000000               0.000667919               0.005039287               0.000887396              -0.000379441               0.001806226               0.001426785               0.000000000               0.000000000               0.000000000               0.000000000               0.001076256               0.005000082               0.000706613              -0.000221414               0.001740482               0.001519068               0.000000000               0.000000000               0.000000000               0.000000000               0.001417188               0.004976320               0.000500796              -0.000090595               0.001688955               0.001598360               0.000000000               0.000000000               0.000000000               0.000000000               0.001669224               0.004979595               0.000261324               0.000003509               0.001658679               0.001662188               0.000000000               0.000000000               0.000000000               0.000000000               0.001778589               0.004993387               0.000137585               0.000042797               0.001650180               0.001692977               0.000000000               0.000000000               0.000000000               0.000000000              -0.010510516              -0.000817827              -0.001408277              -0.003839212               0.001007121              -0.002832091               0.000000000               0.000000000               0.000000000               0.000000000              -0.007624442               0.000484987               0.000214502              -0.002919786               0.001134917              -0.001784870               0.000000000               0.000000000               0.000000000               0.000000000              -0.005573209               0.001557994               0.001683783              -0.002284700               0.001280889              -0.001003811               0.000000000               0.000000000               0.000000000               0.000000000              -0.004351525               0.002470082               0.002095794              -0.001940579               0.001470210              -0.000470370               0.000000000               0.000000000               0.000000000               0.000000000              -0.003494093               0.003155796               0.002122061              -0.001704756               0.001620172              -0.000084584               0.000000000               0.000000000               0.000000000               0.000000000              -0.002811072               0.003657725               0.002015979              -0.001511365               0.001723017               0.000211652               0.000000000               0.000000000               0.000000000               0.000000000              -0.002211684               0.004023322               0.001878034              -0.001332294               0.001785191               0.000452897               0.000000000               0.000000000               0.000000000               0.000000000              -0.001645744               0.004301189               0.001731109              -0.001154801               0.001818648               0.000663847               0.000000000               0.000000000               0.000000000               0.000000000              -0.001095311               0.004511622               0.001575577              -0.000974693               0.001828756               0.000854063               0.000000000               0.000000000               0.000000000               0.000000000              -0.000554400               0.004668234               0.001427466              -0.000791428               0.001819872               0.001028443               0.000000000               0.000000000               0.000000000               0.000000000              -0.000020333               0.004778930               0.001286115              -0.000604990               0.001794624               0.001189634               0.000000000               0.000000000               0.000000000               0.000000000               0.000504584               0.004850376               0.001141583              -0.000417078               0.001755802               0.001338724               0.000000000               0.000000000               0.000000000               0.000000000               0.001016155               0.004891141               0.000989831              -0.000230335               0.001707142               0.001476807               0.000000000               0.000000000               0.000000000               0.000000000               0.001510705               0.004918643               0.000818430              -0.000048317               0.001655637               0.001607320               0.000000000               0.000000000               0.000000000               0.000000000               0.001971676               0.004946366               0.000605659               0.000121081               0.001608412               0.001729493               0.000000000               0.000000000               0.000000000               0.000000000               0.002377187               0.004976632               0.000331490               0.000269363               0.001569073               0.001838436               0.000000000               0.000000000               0.000000000               0.000000000               0.002611234               0.005011056               0.000187683               0.000352827               0.001552726               0.001905554               0.000000000               0.000000000               0.000000000               0.000000000              -0.012194587              -0.001114792              -0.001212667              -0.004433618               0.001106268              -0.003327351               0.000000000               0.000000000               0.000000000               0.000000000              -0.008547801              -0.000219611               0.000053345              -0.003177972               0.000986114              -0.002191858               0.000000000               0.000000000               0.000000000               0.000000000              -0.005773948               0.000427909               0.001231132              -0.002218717               0.000882202              -0.001336515               0.000000000               0.000000000               0.000000000               0.000000000              -0.004231342               0.001251548               0.001607544              -0.001743195               0.000998240              -0.000744954               0.000000000               0.000000000               0.000000000               0.000000000              -0.003230038               0.001983931               0.001671073              -0.001459253               0.001147720              -0.000311534               0.000000000               0.000000000               0.000000000               0.000000000              -0.002486367               0.002590105               0.001618043              -0.001256148               0.001282075               0.000025926               0.000000000               0.000000000               0.000000000               0.000000000              -0.001870696               0.003085491               0.001530517              -0.001087195               0.001390885               0.000303689               0.000000000               0.000000000               0.000000000               0.000000000              -0.001321240               0.003495365               0.001426996              -0.000932384               0.001475904               0.000543520               0.000000000               0.000000000               0.000000000               0.000000000              -0.000791219               0.003839800               0.001313299              -0.000776681               0.001538814               0.000762133               0.000000000               0.000000000               0.000000000               0.000000000              -0.000258102               0.004129710               0.001202457              -0.000613001               0.001580890               0.000967889               0.000000000               0.000000000               0.000000000               0.000000000               0.000278446               0.004362357               0.001093908              -0.000440877               0.001601063               0.001160186               0.000000000               0.000000000               0.000000000               0.000000000               0.000823948               0.004541169               0.000983915              -0.000258666               0.001599929               0.001341264               0.000000000               0.000000000               0.000000000               0.000000000               0.001386006               0.004678813               0.000869600              -0.000065100               0.001581289               0.001516189               0.000000000               0.000000000               0.000000000               0.000000000               0.001965809               0.004789055               0.000736015               0.000138545               0.001550154               0.001688699               0.000000000               0.000000000               0.000000000               0.000000000               0.002563552               0.004878870               0.000559426               0.000351470               0.001509117               0.001860587               0.000000000               0.000000000               0.000000000               0.000000000               0.003174499               0.004948893               0.000315740               0.000571820               0.001459008               0.002030828               0.000000000               0.000000000               0.000000000               0.000000000               0.003592894               0.005019232               0.000189564               0.000719924               0.001433086               0.002153010               0.000000000               0.000000000               0.000000000               0.000000000              -0.013308343              -0.001227536              -0.000696951              -0.004837184               0.001203208              -0.003633976               0.000000000               0.000000000               0.000000000               0.000000000              -0.009173643              -0.000632572              -0.000005274              -0.003361042               0.000909484              -0.002451558               0.000000000               0.000000000               0.000000000               0.000000000              -0.005916341              -0.000306559               0.000648683              -0.002180306               0.000624578              -0.001555728               0.000000000               0.000000000               0.000000000               0.000000000              -0.004139681               0.000420093               0.000872849              -0.001604890               0.000674989              -0.000929901               0.000000000               0.000000000               0.000000000               0.000000000              -0.003022249               0.001159688               0.000922419              -0.001278303               0.000812658              -0.000465645               0.000000000               0.000000000               0.000000000               0.000000000              -0.002226230               0.001819356               0.000904839              -0.001062254               0.000960530              -0.000101724               0.000000000               0.000000000               0.000000000               0.000000000              -0.001597299               0.002391440               0.000863807              -0.000897915               0.001096443               0.000198528               0.000000000               0.000000000               0.000000000               0.000000000              -0.001054150               0.002888103               0.000811310              -0.000756317               0.001214797               0.000458479               0.000000000               0.000000000               0.000000000               0.000000000              -0.000539227               0.003320402               0.000753807              -0.000617259               0.001312542               0.000695283               0.000000000               0.000000000               0.000000000               0.000000000              -0.000022339               0.003695521               0.000695387              -0.000470316               0.001388600               0.000918284               0.000000000               0.000000000               0.000000000               0.000000000               0.000510402               0.004011847               0.000635451              -0.000310080               0.001440629               0.001130549               0.000000000               0.000000000               0.000000000               0.000000000               0.001069529               0.004271411               0.000575909              -0.000132853               0.001468074               0.001335221               0.000000000               0.000000000               0.000000000               0.000000000               0.001666123               0.004487420               0.000513946               0.000063868               0.001474503               0.001538370               0.000000000               0.000000000               0.000000000               0.000000000               0.002310307               0.004670537               0.000439920               0.000282545               0.001462648               0.001745194               0.000000000               0.000000000               0.000000000               0.000000000               0.003017444               0.004819846               0.000340655               0.000529055               0.001430247               0.001959303               0.000000000               0.000000000               0.000000000               0.000000000               0.003805245               0.004926394               0.000195810               0.000811160               0.001371728               0.002182888               0.000000000               0.000000000               0.000000000               0.000000000               0.004392109               0.005027164               0.000121218               0.001018635               0.001336159               0.002354795               0.000000000               0.000000000               0.000000000               0.000000000               0.000000000               0.000000000               0.000000000               0.000000000               0.000000000               0.000000000               0.000000000               0.000000000               0.000000000               0.000000000               0.000000000               0.000000000               0.000000000               0.000000000               0.000000000               0.000000000               0.000000000               0.000000000               0.000000000               0.000000000               0.000000000               0.000000000               0.000000000               0.000000000               0.000000000               0.000000000               0.000000000               0.000000000               0.000000000               0.000000000               0.000000000               0.000000000               0.000000000               0.000000000               0.000000000               0.000000000               0.000000000               0.000000000               0.000000000               0.000000000               0.000000000               0.000000000               0.000000000               0.000000000               0.000000000               0.000000000               0.000000000               0.000000000               0.000000000               0.000000000               0.000000000               0.000000000               0.000000000               0.000000000               0.000000000               0.000000000               0.000000000               0.000000000               0.000000000               0.000000000               0.000000000               0.000000000               0.000000000               0.000000000               0.000000000               0.000000000               0.000000000               0.000000000               0.000000000               0.000000000               0.000000000               0.000000000               0.000000000               0.000000000               0.000000000               0.000000000               0.000000000               0.000000000               0.000000000               0.000000000               0.000000000               0.000000000               0.000000000               0.000000000               0.000000000               0.000000000               0.000000000               0.000000000               0.000000000               0.000000000               0.000000000               0.000000000               0.000000000               0.000000000               0.000000000               0.000000000               0.000000000               0.000000000               0.000000000               0.000000000               0.000000000               0.000000000               0.000000000               0.000000000               0.000000000               0.000000000               0.000000000               0.000000000               0.000000000               0.000000000               0.000000000               0.000000000               0.000000000               0.000000000               0.000000000               0.000000000               0.000000000               0.000000000               0.000000000               0.000000000               0.000000000               0.000000000               0.000000000               0.000000000               0.000000000               0.000000000               0.000000000               0.000000000               0.000000000               0.000000000               0.000000000               0.000000000               0.000000000               0.000000000               0.000000000               0.000000000               0.000000000               0.000000000               0.000000000               0.000000000               0.000000000               0.000000000               0.000000000               0.000000000               0.000000000               0.000000000               0.000000000               0.000000000               0.000000000               0.000000000               0.000000000               0.000000000               0.000000000               0.000000000               0.000000000               0.000000000               0.000000000               0.000000000               0.000000000               0.000000000               0.000000000               0.000000000               0.000000000               0.000000000               0.000000000               0.000000000               0.000000000               0.000000000               0.000000000               0.000000000 </DataArray>
</PointData>
</Piece>
</UnstructuredGrid> </VTKFile>
