<?xml version="1.0"?>
<VTKFile type="UnstructuredGrid" version="0.1">
<UnstructuredGrid>
<Piece NumberOfPoints="      1156" NumberOfCells="      1024">
<Points>
<DataArray type="Float64"                                    Name="coordinates"                                                      NumberOfComponents=" 3" format="ascii">
              0.133000000               0.000000000               0.000000000               0.155937500               0.000000000               0.000000000               0.178875000               0.000000000               0.000000000               0.201812500               0.000000000               0.000000000               0.224750000               0.000000000               0.000000000               0.247687500               0.000000000               0.000000000               0.270625000               0.000000000               0.000000000               0.293562500               0.000000000               0.000000000               0.316500000               0.000000000               0.000000000               0.339437500               0.000000000               0.000000000               0.362375000               0.000000000               0.000000000               0.385312500               0.000000000               0.000000000               0.408250000               0.000000000               0.000000000               0.431187500               0.000000000               0.000000000               0.454125000               0.000000000               0.000000000               0.477062500               0.000000000               0.000000000               0.500000000               0.000000000               0.000000000               0.132359569               0.013036280               0.000000000               0.155337096               0.016127762               0.000000000               0.178314623               0.019219245               0.000000000               0.201292150               0.022310727               0.000000000               0.224269676               0.025402210               0.000000000               0.247247203               0.028493692               0.000000000               0.270224730               0.031585175               0.000000000               0.293202257               0.034676657               0.000000000               0.316179784               0.037768140               0.000000000               0.339157311               0.040859622               0.000000000               0.362134838               0.043951105               0.000000000               0.385112365               0.047042587               0.000000000               0.408089892               0.050134070               0.000000000               0.431067419               0.053225552               0.000000000               0.454044946               0.056317035               0.000000000               0.477022473               0.059408517               0.000000000               0.500000000               0.062500000               0.000000000               0.130444442               0.025947013               0.000000000               0.153541665               0.032137825               0.000000000               0.176638887               0.038328636               0.000000000               0.199736109               0.044519448               0.000000000               0.222833332               0.050710260               0.000000000               0.245930554               0.056901071               0.000000000               0.269027776               0.063091883               0.000000000               0.292124999               0.069282695               0.000000000               0.315222221               0.075473506               0.000000000               0.338319444               0.081664318               0.000000000               0.361416666               0.087855130               0.000000000               0.384513888               0.094045942               0.000000000               0.407611111               0.100236753               0.000000000               0.430708333               0.106427565               0.000000000               0.453805555               0.112618377               0.000000000               0.476902778               0.118809188               0.000000000               0.500000000               0.125000000               0.000000000               0.127273065               0.038607862               0.000000000               0.150568498               0.047913621               0.000000000               0.173863932               0.057219379               0.000000000               0.197159365               0.066525138               0.000000000               0.220454798               0.075830897               0.000000000               0.243750232               0.085136655               0.000000000               0.267045665               0.094442414               0.000000000               0.290341099               0.103748172               0.000000000               0.313636532               0.113053931               0.000000000               0.336931966               0.122359690               0.000000000               0.360227399               0.131665448               0.000000000               0.383522833               0.140971207               0.000000000               0.406818266               0.150276966               0.000000000               0.430113700               0.159582724               0.000000000               0.453409133               0.168888483               0.000000000               0.476704567               0.178194241               0.000000000               0.500000000               0.187500000               0.000000000               0.122875978               0.050896897               0.000000000               0.146446229               0.063340840               0.000000000               0.170016481               0.075784784               0.000000000               0.193586732               0.088228728               0.000000000               0.217156983               0.100672672               0.000000000               0.240727235               0.113116616               0.000000000               0.264297486               0.125560560               0.000000000               0.287867738               0.138004504               0.000000000               0.311437989               0.150448448               0.000000000               0.335008240               0.162892392               0.000000000               0.358578492               0.175336336               0.000000000               0.382148743               0.187780280               0.000000000               0.405718994               0.200224224               0.000000000               0.429289246               0.212668168               0.000000000               0.452859497               0.225112112               0.000000000               0.476429749               0.237556056               0.000000000               0.500000000               0.250000000               0.000000000               0.117295528               0.062695766               0.000000000               0.141214558               0.078308531               0.000000000               0.165133587               0.093921295               0.000000000               0.189052617               0.109534060               0.000000000               0.212971646               0.125146824               0.000000000               0.236890676               0.140759589               0.000000000               0.260809705               0.156372354               0.000000000               0.284728735               0.171985118               0.000000000               0.308647764               0.187597883               0.000000000               0.332566794               0.203210648               0.000000000               0.356485823               0.218823412               0.000000000               0.380404853               0.234436177               0.000000000               0.404323882               0.250048941               0.000000000               0.428242912               0.265661706               0.000000000               0.452161941               0.281274471               0.000000000               0.476080971               0.296887235               0.000000000               0.500000000               0.312500000               0.000000000               0.110585458               0.073890841               0.000000000               0.134923867               0.092710163               0.000000000               0.159262276               0.111529486               0.000000000               0.183600685               0.130348808               0.000000000               0.207939094               0.149168131               0.000000000               0.232277503               0.167987453               0.000000000               0.256615912               0.186806776               0.000000000               0.280954320               0.205626098               0.000000000               0.305292729               0.224445420               0.000000000               0.329631138               0.243264743               0.000000000               0.353969547               0.262084065               0.000000000               0.378307956               0.280903388               0.000000000               0.402646365               0.299722710               0.000000000               0.426984773               0.318542033               0.000000000               0.451323182               0.337361355               0.000000000               0.475661591               0.356180678               0.000000000               0.500000000               0.375000000               0.000000000               0.102810390               0.084374307               0.000000000               0.127634741               0.106444663               0.000000000               0.152459092               0.128515018               0.000000000               0.177283442               0.150585374               0.000000000               0.202107793               0.172655730               0.000000000               0.226932143               0.194726086               0.000000000               0.251756494               0.216796442               0.000000000               0.276580845               0.238866798               0.000000000               0.301405195               0.260937153               0.000000000               0.326229546               0.283007509               0.000000000               0.351053896               0.305077865               0.000000000               0.375878247               0.327148221               0.000000000               0.400702598               0.349218577               0.000000000               0.425526948               0.371288933               0.000000000               0.450351299               0.393359288               0.000000000               0.475175649               0.415429644               0.000000000               0.500000000               0.437500000               0.000000000               0.094045202               0.094045202               0.000000000               0.119417377               0.119417377               0.000000000               0.144789552               0.144789552               0.000000000               0.170161727               0.170161727               0.000000000               0.195533901               0.195533901               0.000000000               0.220906076               0.220906076               0.000000000               0.246278251               0.246278251               0.000000000               0.271650426               0.271650426               0.000000000               0.297022601               0.297022601               0.000000000               0.322394776               0.322394776               0.000000000               0.347766951               0.347766951               0.000000000               0.373139126               0.373139126               0.000000000               0.398511300               0.398511300               0.000000000               0.423883475               0.423883475               0.000000000               0.449255650               0.449255650               0.000000000               0.474627825               0.474627825               0.000000000               0.500000000               0.500000000               0.000000000               0.084374307               0.102810390               0.000000000               0.106444663               0.127634741               0.000000000               0.128515018               0.152459092               0.000000000               0.150585374               0.177283442               0.000000000               0.172655730               0.202107793               0.000000000               0.194726086               0.226932143               0.000000000               0.216796442               0.251756494               0.000000000               0.238866798               0.276580845               0.000000000               0.260937153               0.301405195               0.000000000               0.283007509               0.326229546               0.000000000               0.305077865               0.351053896               0.000000000               0.327148221               0.375878247               0.000000000               0.349218577               0.400702598               0.000000000               0.371288933               0.425526948               0.000000000               0.393359288               0.450351299               0.000000000               0.415429644               0.475175649               0.000000000               0.437500000               0.500000000               0.000000000               0.073890841               0.110585458               0.000000000               0.092710163               0.134923867               0.000000000               0.111529486               0.159262276               0.000000000               0.130348808               0.183600685               0.000000000               0.149168131               0.207939094               0.000000000               0.167987453               0.232277503               0.000000000               0.186806776               0.256615912               0.000000000               0.205626098               0.280954320               0.000000000               0.224445420               0.305292729               0.000000000               0.243264743               0.329631138               0.000000000               0.262084065               0.353969547               0.000000000               0.280903388               0.378307956               0.000000000               0.299722710               0.402646365               0.000000000               0.318542033               0.426984773               0.000000000               0.337361355               0.451323182               0.000000000               0.356180678               0.475661591               0.000000000               0.375000000               0.500000000               0.000000000               0.062695766               0.117295528               0.000000000               0.078308531               0.141214558               0.000000000               0.093921295               0.165133587               0.000000000               0.109534060               0.189052617               0.000000000               0.125146824               0.212971646               0.000000000               0.140759589               0.236890676               0.000000000               0.156372354               0.260809705               0.000000000               0.171985118               0.284728735               0.000000000               0.187597883               0.308647764               0.000000000               0.203210648               0.332566794               0.000000000               0.218823412               0.356485823               0.000000000               0.234436177               0.380404853               0.000000000               0.250048941               0.404323882               0.000000000               0.265661706               0.428242912               0.000000000               0.281274471               0.452161941               0.000000000               0.296887235               0.476080971               0.000000000               0.312500000               0.500000000               0.000000000               0.050896897               0.122875978               0.000000000               0.063340840               0.146446229               0.000000000               0.075784784               0.170016481               0.000000000               0.088228728               0.193586732               0.000000000               0.100672672               0.217156983               0.000000000               0.113116616               0.240727235               0.000000000               0.125560560               0.264297486               0.000000000               0.138004504               0.287867738               0.000000000               0.150448448               0.311437989               0.000000000               0.162892392               0.335008240               0.000000000               0.175336336               0.358578492               0.000000000               0.187780280               0.382148743               0.000000000               0.200224224               0.405718994               0.000000000               0.212668168               0.429289246               0.000000000               0.225112112               0.452859497               0.000000000               0.237556056               0.476429749               0.000000000               0.250000000               0.500000000               0.000000000               0.038607862               0.127273065               0.000000000               0.047913621               0.150568498               0.000000000               0.057219379               0.173863932               0.000000000               0.066525138               0.197159365               0.000000000               0.075830897               0.220454798               0.000000000               0.085136655               0.243750232               0.000000000               0.094442414               0.267045665               0.000000000               0.103748172               0.290341099               0.000000000               0.113053931               0.313636532               0.000000000               0.122359690               0.336931966               0.000000000               0.131665448               0.360227399               0.000000000               0.140971207               0.383522833               0.000000000               0.150276966               0.406818266               0.000000000               0.159582724               0.430113700               0.000000000               0.168888483               0.453409133               0.000000000               0.178194241               0.476704567               0.000000000               0.187500000               0.500000000               0.000000000               0.025947013               0.130444442               0.000000000               0.032137825               0.153541665               0.000000000               0.038328636               0.176638887               0.000000000               0.044519448               0.199736109               0.000000000               0.050710260               0.222833332               0.000000000               0.056901071               0.245930554               0.000000000               0.063091883               0.269027776               0.000000000               0.069282695               0.292124999               0.000000000               0.075473506               0.315222221               0.000000000               0.081664318               0.338319444               0.000000000               0.087855130               0.361416666               0.000000000               0.094045942               0.384513888               0.000000000               0.100236753               0.407611111               0.000000000               0.106427565               0.430708333               0.000000000               0.112618377               0.453805555               0.000000000               0.118809188               0.476902778               0.000000000               0.125000000               0.500000000               0.000000000               0.013036280               0.132359569               0.000000000               0.016127762               0.155337096               0.000000000               0.019219245               0.178314623               0.000000000               0.022310727               0.201292150               0.000000000               0.025402210               0.224269676               0.000000000               0.028493692               0.247247203               0.000000000               0.031585175               0.270224730               0.000000000               0.034676657               0.293202257               0.000000000               0.037768140               0.316179784               0.000000000               0.040859622               0.339157311               0.000000000               0.043951105               0.362134838               0.000000000               0.047042587               0.385112365               0.000000000               0.050134070               0.408089892               0.000000000               0.053225552               0.431067419               0.000000000               0.056317035               0.454044946               0.000000000               0.059408517               0.477022473               0.000000000               0.062500000               0.500000000               0.000000000               0.000000000               0.133000000               0.000000000               0.000000000               0.155937500               0.000000000               0.000000000               0.178875000               0.000000000               0.000000000               0.201812500               0.000000000               0.000000000               0.224750000               0.000000000               0.000000000               0.247687500               0.000000000               0.000000000               0.270625000               0.000000000               0.000000000               0.293562500               0.000000000               0.000000000               0.316500000               0.000000000               0.000000000               0.339437500               0.000000000               0.000000000               0.362375000               0.000000000               0.000000000               0.385312500               0.000000000               0.000000000               0.408250000               0.000000000               0.000000000               0.431187500               0.000000000               0.000000000               0.454125000               0.000000000               0.000000000               0.477062500               0.000000000               0.000000000               0.500000000               0.000000000               0.133000000               0.000000000               0.000000000               0.155937500               0.000000000               0.000000000               0.178875000               0.000000000               0.000000000               0.201812500               0.000000000               0.000000000               0.224750000               0.000000000               0.000000000               0.247687500               0.000000000               0.000000000               0.270625000               0.000000000               0.000000000               0.293562500               0.000000000               0.000000000               0.316500000               0.000000000               0.000000000               0.339437500               0.000000000               0.000000000               0.362375000               0.000000000               0.000000000               0.385312500               0.000000000               0.000000000               0.408250000               0.000000000               0.000000000               0.431187500               0.000000000               0.000000000               0.454125000               0.000000000               0.000000000               0.477062500               0.000000000               0.000000000               0.500000000               0.000000000               0.000000000               0.132359569              -0.013036280               0.000000000               0.155337096              -0.016127762               0.000000000               0.178314623              -0.019219245               0.000000000               0.201292150              -0.022310727               0.000000000               0.224269676              -0.025402210               0.000000000               0.247247203              -0.028493692               0.000000000               0.270224730              -0.031585175               0.000000000               0.293202257              -0.034676657               0.000000000               0.316179784              -0.037768140               0.000000000               0.339157311              -0.040859622               0.000000000               0.362134838              -0.043951105               0.000000000               0.385112365              -0.047042587               0.000000000               0.408089892              -0.050134070               0.000000000               0.431067419              -0.053225552               0.000000000               0.454044946              -0.056317035               0.000000000               0.477022473              -0.059408517               0.000000000               0.500000000              -0.062500000               0.000000000               0.130444442              -0.025947013               0.000000000               0.153541665              -0.032137825               0.000000000               0.176638887              -0.038328636               0.000000000               0.199736109              -0.044519448               0.000000000               0.222833332              -0.050710260               0.000000000               0.245930554              -0.056901071               0.000000000               0.269027776              -0.063091883               0.000000000               0.292124999              -0.069282695               0.000000000               0.315222221              -0.075473506               0.000000000               0.338319444              -0.081664318               0.000000000               0.361416666              -0.087855130               0.000000000               0.384513888              -0.094045942               0.000000000               0.407611111              -0.100236753               0.000000000               0.430708333              -0.106427565               0.000000000               0.453805555              -0.112618377               0.000000000               0.476902778              -0.118809188               0.000000000               0.500000000              -0.125000000               0.000000000               0.127273065              -0.038607862               0.000000000               0.150568498              -0.047913621               0.000000000               0.173863932              -0.057219379               0.000000000               0.197159365              -0.066525138               0.000000000               0.220454798              -0.075830897               0.000000000               0.243750232              -0.085136655               0.000000000               0.267045665              -0.094442414               0.000000000               0.290341099              -0.103748172               0.000000000               0.313636532              -0.113053931               0.000000000               0.336931966              -0.122359690               0.000000000               0.360227399              -0.131665448               0.000000000               0.383522833              -0.140971207               0.000000000               0.406818266              -0.150276966               0.000000000               0.430113700              -0.159582724               0.000000000               0.453409133              -0.168888483               0.000000000               0.476704567              -0.178194241               0.000000000               0.500000000              -0.187500000               0.000000000               0.122875978              -0.050896897               0.000000000               0.146446229              -0.063340840               0.000000000               0.170016481              -0.075784784               0.000000000               0.193586732              -0.088228728               0.000000000               0.217156983              -0.100672672               0.000000000               0.240727235              -0.113116616               0.000000000               0.264297486              -0.125560560               0.000000000               0.287867738              -0.138004504               0.000000000               0.311437989              -0.150448448               0.000000000               0.335008240              -0.162892392               0.000000000               0.358578492              -0.175336336               0.000000000               0.382148743              -0.187780280               0.000000000               0.405718994              -0.200224224               0.000000000               0.429289246              -0.212668168               0.000000000               0.452859497              -0.225112112               0.000000000               0.476429749              -0.237556056               0.000000000               0.500000000              -0.250000000               0.000000000               0.117295528              -0.062695766               0.000000000               0.141214558              -0.078308531               0.000000000               0.165133587              -0.093921295               0.000000000               0.189052617              -0.109534060               0.000000000               0.212971646              -0.125146824               0.000000000               0.236890676              -0.140759589               0.000000000               0.260809705              -0.156372354               0.000000000               0.284728735              -0.171985118               0.000000000               0.308647764              -0.187597883               0.000000000               0.332566794              -0.203210648               0.000000000               0.356485823              -0.218823412               0.000000000               0.380404853              -0.234436177               0.000000000               0.404323882              -0.250048941               0.000000000               0.428242912              -0.265661706               0.000000000               0.452161941              -0.281274471               0.000000000               0.476080971              -0.296887235               0.000000000               0.500000000              -0.312500000               0.000000000               0.110585458              -0.073890841               0.000000000               0.134923867              -0.092710163               0.000000000               0.159262276              -0.111529486               0.000000000               0.183600685              -0.130348808               0.000000000               0.207939094              -0.149168131               0.000000000               0.232277503              -0.167987453               0.000000000               0.256615912              -0.186806776               0.000000000               0.280954320              -0.205626098               0.000000000               0.305292729              -0.224445420               0.000000000               0.329631138              -0.243264743               0.000000000               0.353969547              -0.262084065               0.000000000               0.378307956              -0.280903388               0.000000000               0.402646365              -0.299722710               0.000000000               0.426984773              -0.318542033               0.000000000               0.451323182              -0.337361355               0.000000000               0.475661591              -0.356180678               0.000000000               0.500000000              -0.375000000               0.000000000               0.102810390              -0.084374307               0.000000000               0.127634741              -0.106444663               0.000000000               0.152459092              -0.128515018               0.000000000               0.177283442              -0.150585374               0.000000000               0.202107793              -0.172655730               0.000000000               0.226932143              -0.194726086               0.000000000               0.251756494              -0.216796442               0.000000000               0.276580845              -0.238866798               0.000000000               0.301405195              -0.260937153               0.000000000               0.326229546              -0.283007509               0.000000000               0.351053896              -0.305077865               0.000000000               0.375878247              -0.327148221               0.000000000               0.400702598              -0.349218577               0.000000000               0.425526948              -0.371288933               0.000000000               0.450351299              -0.393359288               0.000000000               0.475175649              -0.415429644               0.000000000               0.500000000              -0.437500000               0.000000000               0.094045202              -0.094045202               0.000000000               0.119417377              -0.119417377               0.000000000               0.144789552              -0.144789552               0.000000000               0.170161727              -0.170161727               0.000000000               0.195533901              -0.195533901               0.000000000               0.220906076              -0.220906076               0.000000000               0.246278251              -0.246278251               0.000000000               0.271650426              -0.271650426               0.000000000               0.297022601              -0.297022601               0.000000000               0.322394776              -0.322394776               0.000000000               0.347766951              -0.347766951               0.000000000               0.373139126              -0.373139126               0.000000000               0.398511300              -0.398511300               0.000000000               0.423883475              -0.423883475               0.000000000               0.449255650              -0.449255650               0.000000000               0.474627825              -0.474627825               0.000000000               0.500000000              -0.500000000               0.000000000               0.084374307              -0.102810390               0.000000000               0.106444663              -0.127634741               0.000000000               0.128515018              -0.152459092               0.000000000               0.150585374              -0.177283442               0.000000000               0.172655730              -0.202107793               0.000000000               0.194726086              -0.226932143               0.000000000               0.216796442              -0.251756494               0.000000000               0.238866798              -0.276580845               0.000000000               0.260937153              -0.301405195               0.000000000               0.283007509              -0.326229546               0.000000000               0.305077865              -0.351053896               0.000000000               0.327148221              -0.375878247               0.000000000               0.349218577              -0.400702598               0.000000000               0.371288933              -0.425526948               0.000000000               0.393359288              -0.450351299               0.000000000               0.415429644              -0.475175649               0.000000000               0.437500000              -0.500000000               0.000000000               0.073890841              -0.110585458               0.000000000               0.092710163              -0.134923867               0.000000000               0.111529486              -0.159262276               0.000000000               0.130348808              -0.183600685               0.000000000               0.149168131              -0.207939094               0.000000000               0.167987453              -0.232277503               0.000000000               0.186806776              -0.256615912               0.000000000               0.205626098              -0.280954320               0.000000000               0.224445420              -0.305292729               0.000000000               0.243264743              -0.329631138               0.000000000               0.262084065              -0.353969547               0.000000000               0.280903388              -0.378307956               0.000000000               0.299722710              -0.402646365               0.000000000               0.318542033              -0.426984773               0.000000000               0.337361355              -0.451323182               0.000000000               0.356180678              -0.475661591               0.000000000               0.375000000              -0.500000000               0.000000000               0.062695766              -0.117295528               0.000000000               0.078308531              -0.141214558               0.000000000               0.093921295              -0.165133587               0.000000000               0.109534060              -0.189052617               0.000000000               0.125146824              -0.212971646               0.000000000               0.140759589              -0.236890676               0.000000000               0.156372354              -0.260809705               0.000000000               0.171985118              -0.284728735               0.000000000               0.187597883              -0.308647764               0.000000000               0.203210648              -0.332566794               0.000000000               0.218823412              -0.356485823               0.000000000               0.234436177              -0.380404853               0.000000000               0.250048941              -0.404323882               0.000000000               0.265661706              -0.428242912               0.000000000               0.281274471              -0.452161941               0.000000000               0.296887235              -0.476080971               0.000000000               0.312500000              -0.500000000               0.000000000               0.050896897              -0.122875978               0.000000000               0.063340840              -0.146446229               0.000000000               0.075784784              -0.170016481               0.000000000               0.088228728              -0.193586732               0.000000000               0.100672672              -0.217156983               0.000000000               0.113116616              -0.240727235               0.000000000               0.125560560              -0.264297486               0.000000000               0.138004504              -0.287867738               0.000000000               0.150448448              -0.311437989               0.000000000               0.162892392              -0.335008240               0.000000000               0.175336336              -0.358578492               0.000000000               0.187780280              -0.382148743               0.000000000               0.200224224              -0.405718994               0.000000000               0.212668168              -0.429289246               0.000000000               0.225112112              -0.452859497               0.000000000               0.237556056              -0.476429749               0.000000000               0.250000000              -0.500000000               0.000000000               0.038607862              -0.127273065               0.000000000               0.047913621              -0.150568498               0.000000000               0.057219379              -0.173863932               0.000000000               0.066525138              -0.197159365               0.000000000               0.075830897              -0.220454798               0.000000000               0.085136655              -0.243750232               0.000000000               0.094442414              -0.267045665               0.000000000               0.103748172              -0.290341099               0.000000000               0.113053931              -0.313636532               0.000000000               0.122359690              -0.336931966               0.000000000               0.131665448              -0.360227399               0.000000000               0.140971207              -0.383522833               0.000000000               0.150276966              -0.406818266               0.000000000               0.159582724              -0.430113700               0.000000000               0.168888483              -0.453409133               0.000000000               0.178194241              -0.476704567               0.000000000               0.187500000              -0.500000000               0.000000000               0.025947013              -0.130444442               0.000000000               0.032137825              -0.153541665               0.000000000               0.038328636              -0.176638887               0.000000000               0.044519448              -0.199736109               0.000000000               0.050710260              -0.222833332               0.000000000               0.056901071              -0.245930554               0.000000000               0.063091883              -0.269027776               0.000000000               0.069282695              -0.292124999               0.000000000               0.075473506              -0.315222221               0.000000000               0.081664318              -0.338319444               0.000000000               0.087855130              -0.361416666               0.000000000               0.094045942              -0.384513888               0.000000000               0.100236753              -0.407611111               0.000000000               0.106427565              -0.430708333               0.000000000               0.112618377              -0.453805555               0.000000000               0.118809188              -0.476902778               0.000000000               0.125000000              -0.500000000               0.000000000               0.013036280              -0.132359569               0.000000000               0.016127762              -0.155337096               0.000000000               0.019219245              -0.178314623               0.000000000               0.022310727              -0.201292150               0.000000000               0.025402210              -0.224269676               0.000000000               0.028493692              -0.247247203               0.000000000               0.031585175              -0.270224730               0.000000000               0.034676657              -0.293202257               0.000000000               0.037768140              -0.316179784               0.000000000               0.040859622              -0.339157311               0.000000000               0.043951105              -0.362134838               0.000000000               0.047042587              -0.385112365               0.000000000               0.050134070              -0.408089892               0.000000000               0.053225552              -0.431067419               0.000000000               0.056317035              -0.454044946               0.000000000               0.059408517              -0.477022473               0.000000000               0.062500000              -0.500000000               0.000000000               0.000000000              -0.133000000               0.000000000               0.000000000              -0.155937500               0.000000000               0.000000000              -0.178875000               0.000000000               0.000000000              -0.201812500               0.000000000               0.000000000              -0.224750000               0.000000000               0.000000000              -0.247687500               0.000000000               0.000000000              -0.270625000               0.000000000               0.000000000              -0.293562500               0.000000000               0.000000000              -0.316500000               0.000000000               0.000000000              -0.339437500               0.000000000               0.000000000              -0.362375000               0.000000000               0.000000000              -0.385312500               0.000000000               0.000000000              -0.408250000               0.000000000               0.000000000              -0.431187500               0.000000000               0.000000000              -0.454125000               0.000000000               0.000000000              -0.477062500               0.000000000               0.000000000              -0.500000000               0.000000000              -0.133000000               0.000000000               0.000000000              -0.155937500               0.000000000               0.000000000              -0.178875000               0.000000000               0.000000000              -0.201812500               0.000000000               0.000000000              -0.224750000               0.000000000               0.000000000              -0.247687500               0.000000000               0.000000000              -0.270625000               0.000000000               0.000000000              -0.293562500               0.000000000               0.000000000              -0.316500000               0.000000000               0.000000000              -0.339437500               0.000000000               0.000000000              -0.362375000               0.000000000               0.000000000              -0.385312500               0.000000000               0.000000000              -0.408250000               0.000000000               0.000000000              -0.431187500               0.000000000               0.000000000              -0.454125000               0.000000000               0.000000000              -0.477062500               0.000000000               0.000000000              -0.500000000               0.000000000               0.000000000              -0.132359569              -0.013036280               0.000000000              -0.155337096              -0.016127762               0.000000000              -0.178314623              -0.019219245               0.000000000              -0.201292150              -0.022310727               0.000000000              -0.224269676              -0.025402210               0.000000000              -0.247247203              -0.028493692               0.000000000              -0.270224730              -0.031585175               0.000000000              -0.293202257              -0.034676657               0.000000000              -0.316179784              -0.037768140               0.000000000              -0.339157311              -0.040859622               0.000000000              -0.362134838              -0.043951105               0.000000000              -0.385112365              -0.047042587               0.000000000              -0.408089892              -0.050134070               0.000000000              -0.431067419              -0.053225552               0.000000000              -0.454044946              -0.056317035               0.000000000              -0.477022473              -0.059408517               0.000000000              -0.500000000              -0.062500000               0.000000000              -0.130444442              -0.025947013               0.000000000              -0.153541665              -0.032137825               0.000000000              -0.176638887              -0.038328636               0.000000000              -0.199736109              -0.044519448               0.000000000              -0.222833332              -0.050710260               0.000000000              -0.245930554              -0.056901071               0.000000000              -0.269027776              -0.063091883               0.000000000              -0.292124999              -0.069282695               0.000000000              -0.315222221              -0.075473506               0.000000000              -0.338319444              -0.081664318               0.000000000              -0.361416666              -0.087855130               0.000000000              -0.384513888              -0.094045942               0.000000000              -0.407611111              -0.100236753               0.000000000              -0.430708333              -0.106427565               0.000000000              -0.453805555              -0.112618377               0.000000000              -0.476902778              -0.118809188               0.000000000              -0.500000000              -0.125000000               0.000000000              -0.127273065              -0.038607862               0.000000000              -0.150568498              -0.047913621               0.000000000              -0.173863932              -0.057219379               0.000000000              -0.197159365              -0.066525138               0.000000000              -0.220454798              -0.075830897               0.000000000              -0.243750232              -0.085136655               0.000000000              -0.267045665              -0.094442414               0.000000000              -0.290341099              -0.103748172               0.000000000              -0.313636532              -0.113053931               0.000000000              -0.336931966              -0.122359690               0.000000000              -0.360227399              -0.131665448               0.000000000              -0.383522833              -0.140971207               0.000000000              -0.406818266              -0.150276966               0.000000000              -0.430113700              -0.159582724               0.000000000              -0.453409133              -0.168888483               0.000000000              -0.476704567              -0.178194241               0.000000000              -0.500000000              -0.187500000               0.000000000              -0.122875978              -0.050896897               0.000000000              -0.146446229              -0.063340840               0.000000000              -0.170016481              -0.075784784               0.000000000              -0.193586732              -0.088228728               0.000000000              -0.217156983              -0.100672672               0.000000000              -0.240727235              -0.113116616               0.000000000              -0.264297486              -0.125560560               0.000000000              -0.287867738              -0.138004504               0.000000000              -0.311437989              -0.150448448               0.000000000              -0.335008240              -0.162892392               0.000000000              -0.358578492              -0.175336336               0.000000000              -0.382148743              -0.187780280               0.000000000              -0.405718994              -0.200224224               0.000000000              -0.429289246              -0.212668168               0.000000000              -0.452859497              -0.225112112               0.000000000              -0.476429749              -0.237556056               0.000000000              -0.500000000              -0.250000000               0.000000000              -0.117295528              -0.062695766               0.000000000              -0.141214558              -0.078308531               0.000000000              -0.165133587              -0.093921295               0.000000000              -0.189052617              -0.109534060               0.000000000              -0.212971646              -0.125146824               0.000000000              -0.236890676              -0.140759589               0.000000000              -0.260809705              -0.156372354               0.000000000              -0.284728735              -0.171985118               0.000000000              -0.308647764              -0.187597883               0.000000000              -0.332566794              -0.203210648               0.000000000              -0.356485823              -0.218823412               0.000000000              -0.380404853              -0.234436177               0.000000000              -0.404323882              -0.250048941               0.000000000              -0.428242912              -0.265661706               0.000000000              -0.452161941              -0.281274471               0.000000000              -0.476080971              -0.296887235               0.000000000              -0.500000000              -0.312500000               0.000000000              -0.110585458              -0.073890841               0.000000000              -0.134923867              -0.092710163               0.000000000              -0.159262276              -0.111529486               0.000000000              -0.183600685              -0.130348808               0.000000000              -0.207939094              -0.149168131               0.000000000              -0.232277503              -0.167987453               0.000000000              -0.256615912              -0.186806776               0.000000000              -0.280954320              -0.205626098               0.000000000              -0.305292729              -0.224445420               0.000000000              -0.329631138              -0.243264743               0.000000000              -0.353969547              -0.262084065               0.000000000              -0.378307956              -0.280903388               0.000000000              -0.402646365              -0.299722710               0.000000000              -0.426984773              -0.318542033               0.000000000              -0.451323182              -0.337361355               0.000000000              -0.475661591              -0.356180678               0.000000000              -0.500000000              -0.375000000               0.000000000              -0.102810390              -0.084374307               0.000000000              -0.127634741              -0.106444663               0.000000000              -0.152459092              -0.128515018               0.000000000              -0.177283442              -0.150585374               0.000000000              -0.202107793              -0.172655730               0.000000000              -0.226932143              -0.194726086               0.000000000              -0.251756494              -0.216796442               0.000000000              -0.276580845              -0.238866798               0.000000000              -0.301405195              -0.260937153               0.000000000              -0.326229546              -0.283007509               0.000000000              -0.351053896              -0.305077865               0.000000000              -0.375878247              -0.327148221               0.000000000              -0.400702598              -0.349218577               0.000000000              -0.425526948              -0.371288933               0.000000000              -0.450351299              -0.393359288               0.000000000              -0.475175649              -0.415429644               0.000000000              -0.500000000              -0.437500000               0.000000000              -0.094045202              -0.094045202               0.000000000              -0.119417377              -0.119417377               0.000000000              -0.144789552              -0.144789552               0.000000000              -0.170161727              -0.170161727               0.000000000              -0.195533901              -0.195533901               0.000000000              -0.220906076              -0.220906076               0.000000000              -0.246278251              -0.246278251               0.000000000              -0.271650426              -0.271650426               0.000000000              -0.297022601              -0.297022601               0.000000000              -0.322394776              -0.322394776               0.000000000              -0.347766951              -0.347766951               0.000000000              -0.373139126              -0.373139126               0.000000000              -0.398511300              -0.398511300               0.000000000              -0.423883475              -0.423883475               0.000000000              -0.449255650              -0.449255650               0.000000000              -0.474627825              -0.474627825               0.000000000              -0.500000000              -0.500000000               0.000000000              -0.084374307              -0.102810390               0.000000000              -0.106444663              -0.127634741               0.000000000              -0.128515018              -0.152459092               0.000000000              -0.150585374              -0.177283442               0.000000000              -0.172655730              -0.202107793               0.000000000              -0.194726086              -0.226932143               0.000000000              -0.216796442              -0.251756494               0.000000000              -0.238866798              -0.276580845               0.000000000              -0.260937153              -0.301405195               0.000000000              -0.283007509              -0.326229546               0.000000000              -0.305077865              -0.351053896               0.000000000              -0.327148221              -0.375878247               0.000000000              -0.349218577              -0.400702598               0.000000000              -0.371288933              -0.425526948               0.000000000              -0.393359288              -0.450351299               0.000000000              -0.415429644              -0.475175649               0.000000000              -0.437500000              -0.500000000               0.000000000              -0.073890841              -0.110585458               0.000000000              -0.092710163              -0.134923867               0.000000000              -0.111529486              -0.159262276               0.000000000              -0.130348808              -0.183600685               0.000000000              -0.149168131              -0.207939094               0.000000000              -0.167987453              -0.232277503               0.000000000              -0.186806776              -0.256615912               0.000000000              -0.205626098              -0.280954320               0.000000000              -0.224445420              -0.305292729               0.000000000              -0.243264743              -0.329631138               0.000000000              -0.262084065              -0.353969547               0.000000000              -0.280903388              -0.378307956               0.000000000              -0.299722710              -0.402646365               0.000000000              -0.318542033              -0.426984773               0.000000000              -0.337361355              -0.451323182               0.000000000              -0.356180678              -0.475661591               0.000000000              -0.375000000              -0.500000000               0.000000000              -0.062695766              -0.117295528               0.000000000              -0.078308531              -0.141214558               0.000000000              -0.093921295              -0.165133587               0.000000000              -0.109534060              -0.189052617               0.000000000              -0.125146824              -0.212971646               0.000000000              -0.140759589              -0.236890676               0.000000000              -0.156372354              -0.260809705               0.000000000              -0.171985118              -0.284728735               0.000000000              -0.187597883              -0.308647764               0.000000000              -0.203210648              -0.332566794               0.000000000              -0.218823412              -0.356485823               0.000000000              -0.234436177              -0.380404853               0.000000000              -0.250048941              -0.404323882               0.000000000              -0.265661706              -0.428242912               0.000000000              -0.281274471              -0.452161941               0.000000000              -0.296887235              -0.476080971               0.000000000              -0.312500000              -0.500000000               0.000000000              -0.050896897              -0.122875978               0.000000000              -0.063340840              -0.146446229               0.000000000              -0.075784784              -0.170016481               0.000000000              -0.088228728              -0.193586732               0.000000000              -0.100672672              -0.217156983               0.000000000              -0.113116616              -0.240727235               0.000000000              -0.125560560              -0.264297486               0.000000000              -0.138004504              -0.287867738               0.000000000              -0.150448448              -0.311437989               0.000000000              -0.162892392              -0.335008240               0.000000000              -0.175336336              -0.358578492               0.000000000              -0.187780280              -0.382148743               0.000000000              -0.200224224              -0.405718994               0.000000000              -0.212668168              -0.429289246               0.000000000              -0.225112112              -0.452859497               0.000000000              -0.237556056              -0.476429749               0.000000000              -0.250000000              -0.500000000               0.000000000              -0.038607862              -0.127273065               0.000000000              -0.047913621              -0.150568498               0.000000000              -0.057219379              -0.173863932               0.000000000              -0.066525138              -0.197159365               0.000000000              -0.075830897              -0.220454798               0.000000000              -0.085136655              -0.243750232               0.000000000              -0.094442414              -0.267045665               0.000000000              -0.103748172              -0.290341099               0.000000000              -0.113053931              -0.313636532               0.000000000              -0.122359690              -0.336931966               0.000000000              -0.131665448              -0.360227399               0.000000000              -0.140971207              -0.383522833               0.000000000              -0.150276966              -0.406818266               0.000000000              -0.159582724              -0.430113700               0.000000000              -0.168888483              -0.453409133               0.000000000              -0.178194241              -0.476704567               0.000000000              -0.187500000              -0.500000000               0.000000000              -0.025947013              -0.130444442               0.000000000              -0.032137825              -0.153541665               0.000000000              -0.038328636              -0.176638887               0.000000000              -0.044519448              -0.199736109               0.000000000              -0.050710260              -0.222833332               0.000000000              -0.056901071              -0.245930554               0.000000000              -0.063091883              -0.269027776               0.000000000              -0.069282695              -0.292124999               0.000000000              -0.075473506              -0.315222221               0.000000000              -0.081664318              -0.338319444               0.000000000              -0.087855130              -0.361416666               0.000000000              -0.094045942              -0.384513888               0.000000000              -0.100236753              -0.407611111               0.000000000              -0.106427565              -0.430708333               0.000000000              -0.112618377              -0.453805555               0.000000000              -0.118809188              -0.476902778               0.000000000              -0.125000000              -0.500000000               0.000000000              -0.013036280              -0.132359569               0.000000000              -0.016127762              -0.155337096               0.000000000              -0.019219245              -0.178314623               0.000000000              -0.022310727              -0.201292150               0.000000000              -0.025402210              -0.224269676               0.000000000              -0.028493692              -0.247247203               0.000000000              -0.031585175              -0.270224730               0.000000000              -0.034676657              -0.293202257               0.000000000              -0.037768140              -0.316179784               0.000000000              -0.040859622              -0.339157311               0.000000000              -0.043951105              -0.362134838               0.000000000              -0.047042587              -0.385112365               0.000000000              -0.050134070              -0.408089892               0.000000000              -0.053225552              -0.431067419               0.000000000              -0.056317035              -0.454044946               0.000000000              -0.059408517              -0.477022473               0.000000000              -0.062500000              -0.500000000               0.000000000               0.000000000              -0.133000000               0.000000000               0.000000000              -0.155937500               0.000000000               0.000000000              -0.178875000               0.000000000               0.000000000              -0.201812500               0.000000000               0.000000000              -0.224750000               0.000000000               0.000000000              -0.247687500               0.000000000               0.000000000              -0.270625000               0.000000000               0.000000000              -0.293562500               0.000000000               0.000000000              -0.316500000               0.000000000               0.000000000              -0.339437500               0.000000000               0.000000000              -0.362375000               0.000000000               0.000000000              -0.385312500               0.000000000               0.000000000              -0.408250000               0.000000000               0.000000000              -0.431187500               0.000000000               0.000000000              -0.454125000               0.000000000               0.000000000              -0.477062500               0.000000000               0.000000000              -0.500000000               0.000000000              -0.133000000               0.000000000               0.000000000              -0.155937500               0.000000000               0.000000000              -0.178875000               0.000000000               0.000000000              -0.201812500               0.000000000               0.000000000              -0.224750000               0.000000000               0.000000000              -0.247687500               0.000000000               0.000000000              -0.270625000               0.000000000               0.000000000              -0.293562500               0.000000000               0.000000000              -0.316500000               0.000000000               0.000000000              -0.339437500               0.000000000               0.000000000              -0.362375000               0.000000000               0.000000000              -0.385312500               0.000000000               0.000000000              -0.408250000               0.000000000               0.000000000              -0.431187500               0.000000000               0.000000000              -0.454125000               0.000000000               0.000000000              -0.477062500               0.000000000               0.000000000              -0.500000000               0.000000000               0.000000000              -0.132359569               0.013036280               0.000000000              -0.155337096               0.016127762               0.000000000              -0.178314623               0.019219245               0.000000000              -0.201292150               0.022310727               0.000000000              -0.224269676               0.025402210               0.000000000              -0.247247203               0.028493692               0.000000000              -0.270224730               0.031585175               0.000000000              -0.293202257               0.034676657               0.000000000              -0.316179784               0.037768140               0.000000000              -0.339157311               0.040859622               0.000000000              -0.362134838               0.043951105               0.000000000              -0.385112365               0.047042587               0.000000000              -0.408089892               0.050134070               0.000000000              -0.431067419               0.053225552               0.000000000              -0.454044946               0.056317035               0.000000000              -0.477022473               0.059408517               0.000000000              -0.500000000               0.062500000               0.000000000              -0.130444442               0.025947013               0.000000000              -0.153541665               0.032137825               0.000000000              -0.176638887               0.038328636               0.000000000              -0.199736109               0.044519448               0.000000000              -0.222833332               0.050710260               0.000000000              -0.245930554               0.056901071               0.000000000              -0.269027776               0.063091883               0.000000000              -0.292124999               0.069282695               0.000000000              -0.315222221               0.075473506               0.000000000              -0.338319444               0.081664318               0.000000000              -0.361416666               0.087855130               0.000000000              -0.384513888               0.094045942               0.000000000              -0.407611111               0.100236753               0.000000000              -0.430708333               0.106427565               0.000000000              -0.453805555               0.112618377               0.000000000              -0.476902778               0.118809188               0.000000000              -0.500000000               0.125000000               0.000000000              -0.127273065               0.038607862               0.000000000              -0.150568498               0.047913621               0.000000000              -0.173863932               0.057219379               0.000000000              -0.197159365               0.066525138               0.000000000              -0.220454798               0.075830897               0.000000000              -0.243750232               0.085136655               0.000000000              -0.267045665               0.094442414               0.000000000              -0.290341099               0.103748172               0.000000000              -0.313636532               0.113053931               0.000000000              -0.336931966               0.122359690               0.000000000              -0.360227399               0.131665448               0.000000000              -0.383522833               0.140971207               0.000000000              -0.406818266               0.150276966               0.000000000              -0.430113700               0.159582724               0.000000000              -0.453409133               0.168888483               0.000000000              -0.476704567               0.178194241               0.000000000              -0.500000000               0.187500000               0.000000000              -0.122875978               0.050896897               0.000000000              -0.146446229               0.063340840               0.000000000              -0.170016481               0.075784784               0.000000000              -0.193586732               0.088228728               0.000000000              -0.217156983               0.100672672               0.000000000              -0.240727235               0.113116616               0.000000000              -0.264297486               0.125560560               0.000000000              -0.287867738               0.138004504               0.000000000              -0.311437989               0.150448448               0.000000000              -0.335008240               0.162892392               0.000000000              -0.358578492               0.175336336               0.000000000              -0.382148743               0.187780280               0.000000000              -0.405718994               0.200224224               0.000000000              -0.429289246               0.212668168               0.000000000              -0.452859497               0.225112112               0.000000000              -0.476429749               0.237556056               0.000000000              -0.500000000               0.250000000               0.000000000              -0.117295528               0.062695766               0.000000000              -0.141214558               0.078308531               0.000000000              -0.165133587               0.093921295               0.000000000              -0.189052617               0.109534060               0.000000000              -0.212971646               0.125146824               0.000000000              -0.236890676               0.140759589               0.000000000              -0.260809705               0.156372354               0.000000000              -0.284728735               0.171985118               0.000000000              -0.308647764               0.187597883               0.000000000              -0.332566794               0.203210648               0.000000000              -0.356485823               0.218823412               0.000000000              -0.380404853               0.234436177               0.000000000              -0.404323882               0.250048941               0.000000000              -0.428242912               0.265661706               0.000000000              -0.452161941               0.281274471               0.000000000              -0.476080971               0.296887235               0.000000000              -0.500000000               0.312500000               0.000000000              -0.110585458               0.073890841               0.000000000              -0.134923867               0.092710163               0.000000000              -0.159262276               0.111529486               0.000000000              -0.183600685               0.130348808               0.000000000              -0.207939094               0.149168131               0.000000000              -0.232277503               0.167987453               0.000000000              -0.256615912               0.186806776               0.000000000              -0.280954320               0.205626098               0.000000000              -0.305292729               0.224445420               0.000000000              -0.329631138               0.243264743               0.000000000              -0.353969547               0.262084065               0.000000000              -0.378307956               0.280903388               0.000000000              -0.402646365               0.299722710               0.000000000              -0.426984773               0.318542033               0.000000000              -0.451323182               0.337361355               0.000000000              -0.475661591               0.356180678               0.000000000              -0.500000000               0.375000000               0.000000000              -0.102810390               0.084374307               0.000000000              -0.127634741               0.106444663               0.000000000              -0.152459092               0.128515018               0.000000000              -0.177283442               0.150585374               0.000000000              -0.202107793               0.172655730               0.000000000              -0.226932143               0.194726086               0.000000000              -0.251756494               0.216796442               0.000000000              -0.276580845               0.238866798               0.000000000              -0.301405195               0.260937153               0.000000000              -0.326229546               0.283007509               0.000000000              -0.351053896               0.305077865               0.000000000              -0.375878247               0.327148221               0.000000000              -0.400702598               0.349218577               0.000000000              -0.425526948               0.371288933               0.000000000              -0.450351299               0.393359288               0.000000000              -0.475175649               0.415429644               0.000000000              -0.500000000               0.437500000               0.000000000              -0.094045202               0.094045202               0.000000000              -0.119417377               0.119417377               0.000000000              -0.144789552               0.144789552               0.000000000              -0.170161727               0.170161727               0.000000000              -0.195533901               0.195533901               0.000000000              -0.220906076               0.220906076               0.000000000              -0.246278251               0.246278251               0.000000000              -0.271650426               0.271650426               0.000000000              -0.297022601               0.297022601               0.000000000              -0.322394776               0.322394776               0.000000000              -0.347766951               0.347766951               0.000000000              -0.373139126               0.373139126               0.000000000              -0.398511300               0.398511300               0.000000000              -0.423883475               0.423883475               0.000000000              -0.449255650               0.449255650               0.000000000              -0.474627825               0.474627825               0.000000000              -0.500000000               0.500000000               0.000000000              -0.084374307               0.102810390               0.000000000              -0.106444663               0.127634741               0.000000000              -0.128515018               0.152459092               0.000000000              -0.150585374               0.177283442               0.000000000              -0.172655730               0.202107793               0.000000000              -0.194726086               0.226932143               0.000000000              -0.216796442               0.251756494               0.000000000              -0.238866798               0.276580845               0.000000000              -0.260937153               0.301405195               0.000000000              -0.283007509               0.326229546               0.000000000              -0.305077865               0.351053896               0.000000000              -0.327148221               0.375878247               0.000000000              -0.349218577               0.400702598               0.000000000              -0.371288933               0.425526948               0.000000000              -0.393359288               0.450351299               0.000000000              -0.415429644               0.475175649               0.000000000              -0.437500000               0.500000000               0.000000000              -0.073890841               0.110585458               0.000000000              -0.092710163               0.134923867               0.000000000              -0.111529486               0.159262276               0.000000000              -0.130348808               0.183600685               0.000000000              -0.149168131               0.207939094               0.000000000              -0.167987453               0.232277503               0.000000000              -0.186806776               0.256615912               0.000000000              -0.205626098               0.280954320               0.000000000              -0.224445420               0.305292729               0.000000000              -0.243264743               0.329631138               0.000000000              -0.262084065               0.353969547               0.000000000              -0.280903388               0.378307956               0.000000000              -0.299722710               0.402646365               0.000000000              -0.318542033               0.426984773               0.000000000              -0.337361355               0.451323182               0.000000000              -0.356180678               0.475661591               0.000000000              -0.375000000               0.500000000               0.000000000              -0.062695766               0.117295528               0.000000000              -0.078308531               0.141214558               0.000000000              -0.093921295               0.165133587               0.000000000              -0.109534060               0.189052617               0.000000000              -0.125146824               0.212971646               0.000000000              -0.140759589               0.236890676               0.000000000              -0.156372354               0.260809705               0.000000000              -0.171985118               0.284728735               0.000000000              -0.187597883               0.308647764               0.000000000              -0.203210648               0.332566794               0.000000000              -0.218823412               0.356485823               0.000000000              -0.234436177               0.380404853               0.000000000              -0.250048941               0.404323882               0.000000000              -0.265661706               0.428242912               0.000000000              -0.281274471               0.452161941               0.000000000              -0.296887235               0.476080971               0.000000000              -0.312500000               0.500000000               0.000000000              -0.050896897               0.122875978               0.000000000              -0.063340840               0.146446229               0.000000000              -0.075784784               0.170016481               0.000000000              -0.088228728               0.193586732               0.000000000              -0.100672672               0.217156983               0.000000000              -0.113116616               0.240727235               0.000000000              -0.125560560               0.264297486               0.000000000              -0.138004504               0.287867738               0.000000000              -0.150448448               0.311437989               0.000000000              -0.162892392               0.335008240               0.000000000              -0.175336336               0.358578492               0.000000000              -0.187780280               0.382148743               0.000000000              -0.200224224               0.405718994               0.000000000              -0.212668168               0.429289246               0.000000000              -0.225112112               0.452859497               0.000000000              -0.237556056               0.476429749               0.000000000              -0.250000000               0.500000000               0.000000000              -0.038607862               0.127273065               0.000000000              -0.047913621               0.150568498               0.000000000              -0.057219379               0.173863932               0.000000000              -0.066525138               0.197159365               0.000000000              -0.075830897               0.220454798               0.000000000              -0.085136655               0.243750232               0.000000000              -0.094442414               0.267045665               0.000000000              -0.103748172               0.290341099               0.000000000              -0.113053931               0.313636532               0.000000000              -0.122359690               0.336931966               0.000000000              -0.131665448               0.360227399               0.000000000              -0.140971207               0.383522833               0.000000000              -0.150276966               0.406818266               0.000000000              -0.159582724               0.430113700               0.000000000              -0.168888483               0.453409133               0.000000000              -0.178194241               0.476704567               0.000000000              -0.187500000               0.500000000               0.000000000              -0.025947013               0.130444442               0.000000000              -0.032137825               0.153541665               0.000000000              -0.038328636               0.176638887               0.000000000              -0.044519448               0.199736109               0.000000000              -0.050710260               0.222833332               0.000000000              -0.056901071               0.245930554               0.000000000              -0.063091883               0.269027776               0.000000000              -0.069282695               0.292124999               0.000000000              -0.075473506               0.315222221               0.000000000              -0.081664318               0.338319444               0.000000000              -0.087855130               0.361416666               0.000000000              -0.094045942               0.384513888               0.000000000              -0.100236753               0.407611111               0.000000000              -0.106427565               0.430708333               0.000000000              -0.112618377               0.453805555               0.000000000              -0.118809188               0.476902778               0.000000000              -0.125000000               0.500000000               0.000000000              -0.013036280               0.132359569               0.000000000              -0.016127762               0.155337096               0.000000000              -0.019219245               0.178314623               0.000000000              -0.022310727               0.201292150               0.000000000              -0.025402210               0.224269676               0.000000000              -0.028493692               0.247247203               0.000000000              -0.031585175               0.270224730               0.000000000              -0.034676657               0.293202257               0.000000000              -0.037768140               0.316179784               0.000000000              -0.040859622               0.339157311               0.000000000              -0.043951105               0.362134838               0.000000000              -0.047042587               0.385112365               0.000000000              -0.050134070               0.408089892               0.000000000              -0.053225552               0.431067419               0.000000000              -0.056317035               0.454044946               0.000000000              -0.059408517               0.477022473               0.000000000              -0.062500000               0.500000000               0.000000000               0.000000000               0.133000000               0.000000000               0.000000000               0.155937500               0.000000000               0.000000000               0.178875000               0.000000000               0.000000000               0.201812500               0.000000000               0.000000000               0.224750000               0.000000000               0.000000000               0.247687500               0.000000000               0.000000000               0.270625000               0.000000000               0.000000000               0.293562500               0.000000000               0.000000000               0.316500000               0.000000000               0.000000000               0.339437500               0.000000000               0.000000000               0.362375000               0.000000000               0.000000000               0.385312500               0.000000000               0.000000000               0.408250000               0.000000000               0.000000000               0.431187500               0.000000000               0.000000000               0.454125000               0.000000000               0.000000000               0.477062500               0.000000000               0.000000000               0.500000000               0.000000000 </DataArray>
</Points>
<Cells>
<DataArray type="Int32"                                    Name="connectivity"                                                      NumberOfComponents=" 1" format="ascii">
         0          1         18         17          1          2         19         18          2          3         20         19          3          4         21         20          4          5         22         21          5          6         23         22          6          7         24         23          7          8         25         24          8          9         26         25          9         10         27         26         10         11         28         27         11         12         29         28         12         13         30         29         13         14         31         30         14         15         32         31         15         16         33         32         17         18         35         34         18         19         36         35         19         20         37         36         20         21         38         37         21         22         39         38         22         23         40         39         23         24         41         40         24         25         42         41         25         26         43         42         26         27         44         43         27         28         45         44         28         29         46         45         29         30         47         46         30         31         48         47         31         32         49         48         32         33         50         49         34         35         52         51         35         36         53         52         36         37         54         53         37         38         55         54         38         39         56         55         39         40         57         56         40         41         58         57         41         42         59         58         42         43         60         59         43         44         61         60         44         45         62         61         45         46         63         62         46         47         64         63         47         48         65         64         48         49         66         65         49         50         67         66         51         52         69         68         52         53         70         69         53         54         71         70         54         55         72         71         55         56         73         72         56         57         74         73         57         58         75         74         58         59         76         75         59         60         77         76         60         61         78         77         61         62         79         78         62         63         80         79         63         64         81         80         64         65         82         81         65         66         83         82         66         67         84         83         68         69         86         85         69         70         87         86         70         71         88         87         71         72         89         88         72         73         90         89         73         74         91         90         74         75         92         91         75         76         93         92         76         77         94         93         77         78         95         94         78         79         96         95         79         80         97         96         80         81         98         97         81         82         99         98         82         83        100         99         83         84        101        100         85         86        103        102         86         87        104        103         87         88        105        104         88         89        106        105         89         90        107        106         90         91        108        107         91         92        109        108         92         93        110        109         93         94        111        110         94         95        112        111         95         96        113        112         96         97        114        113         97         98        115        114         98         99        116        115         99        100        117        116        100        101        118        117        102        103        120        119        103        104        121        120        104        105        122        121        105        106        123        122        106        107        124        123        107        108        125        124        108        109        126        125        109        110        127        126        110        111        128        127        111        112        129        128        112        113        130        129        113        114        131        130        114        115        132        131        115        116        133        132        116        117        134        133        117        118        135        134        119        120        137        136        120        121        138        137        121        122        139        138        122        123        140        139        123        124        141        140        124        125        142        141        125        126        143        142        126        127        144        143        127        128        145        144        128        129        146        145        129        130        147        146        130        131        148        147        131        132        149        148        132        133        150        149        133        134        151        150        134        135        152        151        136        137        154        153        137        138        155        154        138        139        156        155        139        140        157        156        140        141        158        157        141        142        159        158        142        143        160        159        143        144        161        160        144        145        162        161        145        146        163        162        146        147        164        163        147        148        165        164        148        149        166        165        149        150        167        166        150        151        168        167        151        152        169        168        153        154        171        170        154        155        172        171        155        156        173        172        156        157        174        173        157        158        175        174        158        159        176        175        159        160        177        176        160        161        178        177        161        162        179        178        162        163        180        179        163        164        181        180        164        165        182        181        165        166        183        182        166        167        184        183        167        168        185        184        168        169        186        185        170        171        188        187        171        172        189        188        172        173        190        189        173        174        191        190        174        175        192        191        175        176        193        192        176        177        194        193        177        178        195        194        178        179        196        195        179        180        197        196        180        181        198        197        181        182        199        198        182        183        200        199        183        184        201        200        184        185        202        201        185        186        203        202        187        188        205        204        188        189        206        205        189        190        207        206        190        191        208        207        191        192        209        208        192        193        210        209        193        194        211        210        194        195        212        211        195        196        213        212        196        197        214        213        197        198        215        214        198        199        216        215        199        200        217        216        200        201        218        217        201        202        219        218        202        203        220        219        204        205        222        221        205        206        223        222        206        207        224        223        207        208        225        224        208        209        226        225        209        210        227        226        210        211        228        227        211        212        229        228        212        213        230        229        213        214        231        230        214        215        232        231        215        216        233        232        216        217        234        233        217        218        235        234        218        219        236        235        219        220        237        236        221        222        239        238        222        223        240        239        223        224        241        240        224        225        242        241        225        226        243        242        226        227        244        243        227        228        245        244        228        229        246        245        229        230        247        246        230        231        248        247        231        232        249        248        232        233        250        249        233        234        251        250        234        235        252        251        235        236        253        252        236        237        254        253        238        239        256        255        239        240        257        256        240        241        258        257        241        242        259        258        242        243        260        259        243        244        261        260        244        245        262        261        245        246        263        262        246        247        264        263        247        248        265        264        248        249        266        265        249        250        267        266        250        251        268        267        251        252        269        268        252        253        270        269        253        254        271        270        255        256        273        272        256        257        274        273        257        258        275        274        258        259        276        275        259        260        277        276        260        261        278        277        261        262        279        278        262        263        280        279        263        264        281        280        264        265        282        281        265        266        283        282        266        267        284        283        267        268        285        284        268        269        286        285        269        270        287        286        270        271        288        287        306        307          1          0        307        308          2          1        308        309          3          2        309        310          4          3        310        311          5          4        311        312          6          5        312        313          7          6        313        314          8          7        314        315          9          8        315        316         10          9        316        317         11         10        317        318         12         11        318        319         13         12        319        320         14         13        320        321         15         14        321        322         16         15        323        324        307        306        324        325        308        307        325        326        309        308        326        327        310        309        327        328        311        310        328        329        312        311        329        330        313        312        330        331        314        313        331        332        315        314        332        333        316        315        333        334        317        316        334        335        318        317        335        336        319        318        336        337        320        319        337        338        321        320        338        339        322        321        340        341        324        323        341        342        325        324        342        343        326        325        343        344        327        326        344        345        328        327        345        346        329        328        346        347        330        329        347        348        331        330        348        349        332        331        349        350        333        332        350        351        334        333        351        352        335        334        352        353        336        335        353        354        337        336        354        355        338        337        355        356        339        338        357        358        341        340        358        359        342        341        359        360        343        342        360        361        344        343        361        362        345        344        362        363        346        345        363        364        347        346        364        365        348        347        365        366        349        348        366        367        350        349        367        368        351        350        368        369        352        351        369        370        353        352        370        371        354        353        371        372        355        354        372        373        356        355        374        375        358        357        375        376        359        358        376        377        360        359        377        378        361        360        378        379        362        361        379        380        363        362        380        381        364        363        381        382        365        364        382        383        366        365        383        384        367        366        384        385        368        367        385        386        369        368        386        387        370        369        387        388        371        370        388        389        372        371        389        390        373        372        391        392        375        374        392        393        376        375        393        394        377        376        394        395        378        377        395        396        379        378        396        397        380        379        397        398        381        380        398        399        382        381        399        400        383        382        400        401        384        383        401        402        385        384        402        403        386        385        403        404        387        386        404        405        388        387        405        406        389        388        406        407        390        389        408        409        392        391        409        410        393        392        410        411        394        393        411        412        395        394        412        413        396        395        413        414        397        396        414        415        398        397        415        416        399        398        416        417        400        399        417        418        401        400        418        419        402        401        419        420        403        402        420        421        404        403        421        422        405        404        422        423        406        405        423        424        407        406        425        426        409        408        426        427        410        409        427        428        411        410        428        429        412        411        429        430        413        412        430        431        414        413        431        432        415        414        432        433        416        415        433        434        417        416        434        435        418        417        435        436        419        418        436        437        420        419        437        438        421        420        438        439        422        421        439        440        423        422        440        441        424        423        442        443        426        425        443        444        427        426        444        445        428        427        445        446        429        428        446        447        430        429        447        448        431        430        448        449        432        431        449        450        433        432        450        451        434        433        451        452        435        434        452        453        436        435        453        454        437        436        454        455        438        437        455        456        439        438        456        457        440        439        457        458        441        440        459        460        443        442        460        461        444        443        461        462        445        444        462        463        446        445        463        464        447        446        464        465        448        447        465        466        449        448        466        467        450        449        467        468        451        450        468        469        452        451        469        470        453        452        470        471        454        453        471        472        455        454        472        473        456        455        473        474        457        456        474        475        458        457        476        477        460        459        477        478        461        460        478        479        462        461        479        480        463        462        480        481        464        463        481        482        465        464        482        483        466        465        483        484        467        466        484        485        468        467        485        486        469        468        486        487        470        469        487        488        471        470        488        489        472        471        489        490        473        472        490        491        474        473        491        492        475        474        493        494        477        476        494        495        478        477        495        496        479        478        496        497        480        479        497        498        481        480        498        499        482        481        499        500        483        482        500        501        484        483        501        502        485        484        502        503        486        485        503        504        487        486        504        505        488        487        505        506        489        488        506        507        490        489        507        508        491        490        508        509        492        491        510        511        494        493        511        512        495        494        512        513        496        495        513        514        497        496        514        515        498        497        515        516        499        498        516        517        500        499        517        518        501        500        518        519        502        501        519        520        503        502        520        521        504        503        521        522        505        504        522        523        506        505        523        524        507        506        524        525        508        507        525        526        509        508        527        528        511        510        528        529        512        511        529        530        513        512        530        531        514        513        531        532        515        514        532        533        516        515        533        534        517        516        534        535        518        517        535        536        519        518        536        537        520        519        537        538        521        520        538        539        522        521        539        540        523        522        540        541        524        523        541        542        525        524        542        543        526        525        544        545        528        527        545        546        529        528        546        547        530        529        547        548        531        530        548        549        532        531        549        550        533        532        550        551        534        533        551        552        535        534        552        553        536        535        553        554        537        536        554        555        538        537        555        556        539        538        556        557        540        539        557        558        541        540        558        559        542        541        559        560        543        542        561        562        545        544        562        563        546        545        563        564        547        546        564        565        548        547        565        566        549        548        566        567        550        549        567        568        551        550        568        569        552        551        569        570        553        552        570        571        554        553        571        572        555        554        572        573        556        555        573        574        557        556        574        575        558        557        575        576        559        558        576        577        560        559        578        579        596        595        579        580        597        596        580        581        598        597        581        582        599        598        582        583        600        599        583        584        601        600        584        585        602        601        585        586        603        602        586        587        604        603        587        588        605        604        588        589        606        605        589        590        607        606        590        591        608        607        591        592        609        608        592        593        610        609        593        594        611        610        595        596        613        612        596        597        614        613        597        598        615        614        598        599        616        615        599        600        617        616        600        601        618        617        601        602        619        618        602        603        620        619        603        604        621        620        604        605        622        621        605        606        623        622        606        607        624        623        607        608        625        624        608        609        626        625        609        610        627        626        610        611        628        627        612        613        630        629        613        614        631        630        614        615        632        631        615        616        633        632        616        617        634        633        617        618        635        634        618        619        636        635        619        620        637        636        620        621        638        637        621        622        639        638        622        623        640        639        623        624        641        640        624        625        642        641        625        626        643        642        626        627        644        643        627        628        645        644        629        630        647        646        630        631        648        647        631        632        649        648        632        633        650        649        633        634        651        650        634        635        652        651        635        636        653        652        636        637        654        653        637        638        655        654        638        639        656        655        639        640        657        656        640        641        658        657        641        642        659        658        642        643        660        659        643        644        661        660        644        645        662        661        646        647        664        663        647        648        665        664        648        649        666        665        649        650        667        666        650        651        668        667        651        652        669        668        652        653        670        669        653        654        671        670        654        655        672        671        655        656        673        672        656        657        674        673        657        658        675        674        658        659        676        675        659        660        677        676        660        661        678        677        661        662        679        678        663        664        681        680        664        665        682        681        665        666        683        682        666        667        684        683        667        668        685        684        668        669        686        685        669        670        687        686        670        671        688        687        671        672        689        688        672        673        690        689        673        674        691        690        674        675        692        691        675        676        693        692        676        677        694        693        677        678        695        694        678        679        696        695        680        681        698        697        681        682        699        698        682        683        700        699        683        684        701        700        684        685        702        701        685        686        703        702        686        687        704        703        687        688        705        704        688        689        706        705        689        690        707        706        690        691        708        707        691        692        709        708        692        693        710        709        693        694        711        710        694        695        712        711        695        696        713        712        697        698        715        714        698        699        716        715        699        700        717        716        700        701        718        717        701        702        719        718        702        703        720        719        703        704        721        720        704        705        722        721        705        706        723        722        706        707        724        723        707        708        725        724        708        709        726        725        709        710        727        726        710        711        728        727        711        712        729        728        712        713        730        729        714        715        732        731        715        716        733        732        716        717        734        733        717        718        735        734        718        719        736        735        719        720        737        736        720        721        738        737        721        722        739        738        722        723        740        739        723        724        741        740        724        725        742        741        725        726        743        742        726        727        744        743        727        728        745        744        728        729        746        745        729        730        747        746        731        732        749        748        732        733        750        749        733        734        751        750        734        735        752        751        735        736        753        752        736        737        754        753        737        738        755        754        738        739        756        755        739        740        757        756        740        741        758        757        741        742        759        758        742        743        760        759        743        744        761        760        744        745        762        761        745        746        763        762        746        747        764        763        748        749        766        765        749        750        767        766        750        751        768        767        751        752        769        768        752        753        770        769        753        754        771        770        754        755        772        771        755        756        773        772        756        757        774        773        757        758        775        774        758        759        776        775        759        760        777        776        760        761        778        777        761        762        779        778        762        763        780        779        763        764        781        780        765        766        783        782        766        767        784        783        767        768        785        784        768        769        786        785        769        770        787        786        770        771        788        787        771        772        789        788        772        773        790        789        773        774        791        790        774        775        792        791        775        776        793        792        776        777        794        793        777        778        795        794        778        779        796        795        779        780        797        796        780        781        798        797        782        783        800        799        783        784        801        800        784        785        802        801        785        786        803        802        786        787        804        803        787        788        805        804        788        789        806        805        789        790        807        806        790        791        808        807        791        792        809        808        792        793        810        809        793        794        811        810        794        795        812        811        795        796        813        812        796        797        814        813        797        798        815        814        799        800        817        816        800        801        818        817        801        802        819        818        802        803        820        819        803        804        821        820        804        805        822        821        805        806        823        822        806        807        824        823        807        808        825        824        808        809        826        825        809        810        827        826        810        811        828        827        811        812        829        828        812        813        830        829        813        814        831        830        814        815        832        831        816        817        834        833        817        818        835        834        818        819        836        835        819        820        837        836        820        821        838        837        821        822        839        838        822        823        840        839        823        824        841        840        824        825        842        841        825        826        843        842        826        827        844        843        827        828        845        844        828        829        846        845        829        830        847        846        830        831        848        847        831        832        849        848        833        834        562        561        834        835        563        562        835        836        564        563        836        837        565        564        837        838        566        565        838        839        567        566        839        840        568        567        840        841        569        568        841        842        570        569        842        843        571        570        843        844        572        571        844        845        573        572        845        846        574        573        846        847        575        574        847        848        576        575        848        849        577        576        884        885        579        578        885        886        580        579        886        887        581        580        887        888        582        581        888        889        583        582        889        890        584        583        890        891        585        584        891        892        586        585        892        893        587        586        893        894        588        587        894        895        589        588        895        896        590        589        896        897        591        590        897        898        592        591        898        899        593        592        899        900        594        593        901        902        885        884        902        903        886        885        903        904        887        886        904        905        888        887        905        906        889        888        906        907        890        889        907        908        891        890        908        909        892        891        909        910        893        892        910        911        894        893        911        912        895        894        912        913        896        895        913        914        897        896        914        915        898        897        915        916        899        898        916        917        900        899        918        919        902        901        919        920        903        902        920        921        904        903        921        922        905        904        922        923        906        905        923        924        907        906        924        925        908        907        925        926        909        908        926        927        910        909        927        928        911        910        928        929        912        911        929        930        913        912        930        931        914        913        931        932        915        914        932        933        916        915        933        934        917        916        935        936        919        918        936        937        920        919        937        938        921        920        938        939        922        921        939        940        923        922        940        941        924        923        941        942        925        924        942        943        926        925        943        944        927        926        944        945        928        927        945        946        929        928        946        947        930        929        947        948        931        930        948        949        932        931        949        950        933        932        950        951        934        933        952        953        936        935        953        954        937        936        954        955        938        937        955        956        939        938        956        957        940        939        957        958        941        940        958        959        942        941        959        960        943        942        960        961        944        943        961        962        945        944        962        963        946        945        963        964        947        946        964        965        948        947        965        966        949        948        966        967        950        949        967        968        951        950        969        970        953        952        970        971        954        953        971        972        955        954        972        973        956        955        973        974        957        956        974        975        958        957        975        976        959        958        976        977        960        959        977        978        961        960        978        979        962        961        979        980        963        962        980        981        964        963        981        982        965        964        982        983        966        965        983        984        967        966        984        985        968        967        986        987        970        969        987        988        971        970        988        989        972        971        989        990        973        972        990        991        974        973        991        992        975        974        992        993        976        975        993        994        977        976        994        995        978        977        995        996        979        978        996        997        980        979        997        998        981        980        998        999        982        981        999       1000        983        982       1000       1001        984        983       1001       1002        985        984       1003       1004        987        986       1004       1005        988        987       1005       1006        989        988       1006       1007        990        989       1007       1008        991        990       1008       1009        992        991       1009       1010        993        992       1010       1011        994        993       1011       1012        995        994       1012       1013        996        995       1013       1014        997        996       1014       1015        998        997       1015       1016        999        998       1016       1017       1000        999       1017       1018       1001       1000       1018       1019       1002       1001       1020       1021       1004       1003       1021       1022       1005       1004       1022       1023       1006       1005       1023       1024       1007       1006       1024       1025       1008       1007       1025       1026       1009       1008       1026       1027       1010       1009       1027       1028       1011       1010       1028       1029       1012       1011       1029       1030       1013       1012       1030       1031       1014       1013       1031       1032       1015       1014       1032       1033       1016       1015       1033       1034       1017       1016       1034       1035       1018       1017       1035       1036       1019       1018       1037       1038       1021       1020       1038       1039       1022       1021       1039       1040       1023       1022       1040       1041       1024       1023       1041       1042       1025       1024       1042       1043       1026       1025       1043       1044       1027       1026       1044       1045       1028       1027       1045       1046       1029       1028       1046       1047       1030       1029       1047       1048       1031       1030       1048       1049       1032       1031       1049       1050       1033       1032       1050       1051       1034       1033       1051       1052       1035       1034       1052       1053       1036       1035       1054       1055       1038       1037       1055       1056       1039       1038       1056       1057       1040       1039       1057       1058       1041       1040       1058       1059       1042       1041       1059       1060       1043       1042       1060       1061       1044       1043       1061       1062       1045       1044       1062       1063       1046       1045       1063       1064       1047       1046       1064       1065       1048       1047       1065       1066       1049       1048       1066       1067       1050       1049       1067       1068       1051       1050       1068       1069       1052       1051       1069       1070       1053       1052       1071       1072       1055       1054       1072       1073       1056       1055       1073       1074       1057       1056       1074       1075       1058       1057       1075       1076       1059       1058       1076       1077       1060       1059       1077       1078       1061       1060       1078       1079       1062       1061       1079       1080       1063       1062       1080       1081       1064       1063       1081       1082       1065       1064       1082       1083       1066       1065       1083       1084       1067       1066       1084       1085       1068       1067       1085       1086       1069       1068       1086       1087       1070       1069       1088       1089       1072       1071       1089       1090       1073       1072       1090       1091       1074       1073       1091       1092       1075       1074       1092       1093       1076       1075       1093       1094       1077       1076       1094       1095       1078       1077       1095       1096       1079       1078       1096       1097       1080       1079       1097       1098       1081       1080       1098       1099       1082       1081       1099       1100       1083       1082       1100       1101       1084       1083       1101       1102       1085       1084       1102       1103       1086       1085       1103       1104       1087       1086       1105       1106       1089       1088       1106       1107       1090       1089       1107       1108       1091       1090       1108       1109       1092       1091       1109       1110       1093       1092       1110       1111       1094       1093       1111       1112       1095       1094       1112       1113       1096       1095       1113       1114       1097       1096       1114       1115       1098       1097       1115       1116       1099       1098       1116       1117       1100       1099       1117       1118       1101       1100       1118       1119       1102       1101       1119       1120       1103       1102       1120       1121       1104       1103       1122       1123       1106       1105       1123       1124       1107       1106       1124       1125       1108       1107       1125       1126       1109       1108       1126       1127       1110       1109       1127       1128       1111       1110       1128       1129       1112       1111       1129       1130       1113       1112       1130       1131       1114       1113       1131       1132       1115       1114       1132       1133       1116       1115       1133       1134       1117       1116       1134       1135       1118       1117       1135       1136       1119       1118       1136       1137       1120       1119       1137       1138       1121       1120        272        273       1123       1122        273        274       1124       1123        274        275       1125       1124        275        276       1126       1125        276        277       1127       1126        277        278       1128       1127        278        279       1129       1128        279        280       1130       1129        280        281       1131       1130        281        282       1132       1131        282        283       1133       1132        283        284       1134       1133        284        285       1135       1134        285        286       1136       1135        286        287       1137       1136        287        288       1138       1137 </DataArray>
<DataArray type="Int32"                                    Name="offsets"                                                      NumberOfComponents=" 1" format="ascii">
         4          8         12         16         20         24         28         32         36         40         44         48         52         56         60         64         68         72         76         80         84         88         92         96        100        104        108        112        116        120        124        128        132        136        140        144        148        152        156        160        164        168        172        176        180        184        188        192        196        200        204        208        212        216        220        224        228        232        236        240        244        248        252        256        260        264        268        272        276        280        284        288        292        296        300        304        308        312        316        320        324        328        332        336        340        344        348        352        356        360        364        368        372        376        380        384        388        392        396        400        404        408        412        416        420        424        428        432        436        440        444        448        452        456        460        464        468        472        476        480        484        488        492        496        500        504        508        512        516        520        524        528        532        536        540        544        548        552        556        560        564        568        572        576        580        584        588        592        596        600        604        608        612        616        620        624        628        632        636        640        644        648        652        656        660        664        668        672        676        680        684        688        692        696        700        704        708        712        716        720        724        728        732        736        740        744        748        752        756        760        764        768        772        776        780        784        788        792        796        800        804        808        812        816        820        824        828        832        836        840        844        848        852        856        860        864        868        872        876        880        884        888        892        896        900        904        908        912        916        920        924        928        932        936        940        944        948        952        956        960        964        968        972        976        980        984        988        992        996       1000       1004       1008       1012       1016       1020       1024       1028       1032       1036       1040       1044       1048       1052       1056       1060       1064       1068       1072       1076       1080       1084       1088       1092       1096       1100       1104       1108       1112       1116       1120       1124       1128       1132       1136       1140       1144       1148       1152       1156       1160       1164       1168       1172       1176       1180       1184       1188       1192       1196       1200       1204       1208       1212       1216       1220       1224       1228       1232       1236       1240       1244       1248       1252       1256       1260       1264       1268       1272       1276       1280       1284       1288       1292       1296       1300       1304       1308       1312       1316       1320       1324       1328       1332       1336       1340       1344       1348       1352       1356       1360       1364       1368       1372       1376       1380       1384       1388       1392       1396       1400       1404       1408       1412       1416       1420       1424       1428       1432       1436       1440       1444       1448       1452       1456       1460       1464       1468       1472       1476       1480       1484       1488       1492       1496       1500       1504       1508       1512       1516       1520       1524       1528       1532       1536       1540       1544       1548       1552       1556       1560       1564       1568       1572       1576       1580       1584       1588       1592       1596       1600       1604       1608       1612       1616       1620       1624       1628       1632       1636       1640       1644       1648       1652       1656       1660       1664       1668       1672       1676       1680       1684       1688       1692       1696       1700       1704       1708       1712       1716       1720       1724       1728       1732       1736       1740       1744       1748       1752       1756       1760       1764       1768       1772       1776       1780       1784       1788       1792       1796       1800       1804       1808       1812       1816       1820       1824       1828       1832       1836       1840       1844       1848       1852       1856       1860       1864       1868       1872       1876       1880       1884       1888       1892       1896       1900       1904       1908       1912       1916       1920       1924       1928       1932       1936       1940       1944       1948       1952       1956       1960       1964       1968       1972       1976       1980       1984       1988       1992       1996       2000       2004       2008       2012       2016       2020       2024       2028       2032       2036       2040       2044       2048       2052       2056       2060       2064       2068       2072       2076       2080       2084       2088       2092       2096       2100       2104       2108       2112       2116       2120       2124       2128       2132       2136       2140       2144       2148       2152       2156       2160       2164       2168       2172       2176       2180       2184       2188       2192       2196       2200       2204       2208       2212       2216       2220       2224       2228       2232       2236       2240       2244       2248       2252       2256       2260       2264       2268       2272       2276       2280       2284       2288       2292       2296       2300       2304       2308       2312       2316       2320       2324       2328       2332       2336       2340       2344       2348       2352       2356       2360       2364       2368       2372       2376       2380       2384       2388       2392       2396       2400       2404       2408       2412       2416       2420       2424       2428       2432       2436       2440       2444       2448       2452       2456       2460       2464       2468       2472       2476       2480       2484       2488       2492       2496       2500       2504       2508       2512       2516       2520       2524       2528       2532       2536       2540       2544       2548       2552       2556       2560       2564       2568       2572       2576       2580       2584       2588       2592       2596       2600       2604       2608       2612       2616       2620       2624       2628       2632       2636       2640       2644       2648       2652       2656       2660       2664       2668       2672       2676       2680       2684       2688       2692       2696       2700       2704       2708       2712       2716       2720       2724       2728       2732       2736       2740       2744       2748       2752       2756       2760       2764       2768       2772       2776       2780       2784       2788       2792       2796       2800       2804       2808       2812       2816       2820       2824       2828       2832       2836       2840       2844       2848       2852       2856       2860       2864       2868       2872       2876       2880       2884       2888       2892       2896       2900       2904       2908       2912       2916       2920       2924       2928       2932       2936       2940       2944       2948       2952       2956       2960       2964       2968       2972       2976       2980       2984       2988       2992       2996       3000       3004       3008       3012       3016       3020       3024       3028       3032       3036       3040       3044       3048       3052       3056       3060       3064       3068       3072       3076       3080       3084       3088       3092       3096       3100       3104       3108       3112       3116       3120       3124       3128       3132       3136       3140       3144       3148       3152       3156       3160       3164       3168       3172       3176       3180       3184       3188       3192       3196       3200       3204       3208       3212       3216       3220       3224       3228       3232       3236       3240       3244       3248       3252       3256       3260       3264       3268       3272       3276       3280       3284       3288       3292       3296       3300       3304       3308       3312       3316       3320       3324       3328       3332       3336       3340       3344       3348       3352       3356       3360       3364       3368       3372       3376       3380       3384       3388       3392       3396       3400       3404       3408       3412       3416       3420       3424       3428       3432       3436       3440       3444       3448       3452       3456       3460       3464       3468       3472       3476       3480       3484       3488       3492       3496       3500       3504       3508       3512       3516       3520       3524       3528       3532       3536       3540       3544       3548       3552       3556       3560       3564       3568       3572       3576       3580       3584       3588       3592       3596       3600       3604       3608       3612       3616       3620       3624       3628       3632       3636       3640       3644       3648       3652       3656       3660       3664       3668       3672       3676       3680       3684       3688       3692       3696       3700       3704       3708       3712       3716       3720       3724       3728       3732       3736       3740       3744       3748       3752       3756       3760       3764       3768       3772       3776       3780       3784       3788       3792       3796       3800       3804       3808       3812       3816       3820       3824       3828       3832       3836       3840       3844       3848       3852       3856       3860       3864       3868       3872       3876       3880       3884       3888       3892       3896       3900       3904       3908       3912       3916       3920       3924       3928       3932       3936       3940       3944       3948       3952       3956       3960       3964       3968       3972       3976       3980       3984       3988       3992       3996       4000       4004       4008       4012       4016       4020       4024       4028       4032       4036       4040       4044       4048       4052       4056       4060       4064       4068       4072       4076       4080       4084       4088       4092       4096 </DataArray>
<DataArray type="UInt8"                                    Name="types"                                                      NumberOfComponents=" 1" format="ascii">
         9          9          9          9          9          9          9          9          9          9          9          9          9          9          9          9          9          9          9          9          9          9          9          9          9          9          9          9          9          9          9          9          9          9          9          9          9          9          9          9          9          9          9          9          9          9          9          9          9          9          9          9          9          9          9          9          9          9          9          9          9          9          9          9          9          9          9          9          9          9          9          9          9          9          9          9          9          9          9          9          9          9          9          9          9          9          9          9          9          9          9          9          9          9          9          9          9          9          9          9          9          9          9          9          9          9          9          9          9          9          9          9          9          9          9          9          9          9          9          9          9          9          9          9          9          9          9          9          9          9          9          9          9          9          9          9          9          9          9          9          9          9          9          9          9          9          9          9          9          9          9          9          9          9          9          9          9          9          9          9          9          9          9          9          9          9          9          9          9          9          9          9          9          9          9          9          9          9          9          9          9          9          9          9          9          9          9          9          9          9          9          9          9          9          9          9          9          9          9          9          9          9          9          9          9          9          9          9          9          9          9          9          9          9          9          9          9          9          9          9          9          9          9          9          9          9          9          9          9          9          9          9          9          9          9          9          9          9          9          9          9          9          9          9          9          9          9          9          9          9          9          9          9          9          9          9          9          9          9          9          9          9          9          9          9          9          9          9          9          9          9          9          9          9          9          9          9          9          9          9          9          9          9          9          9          9          9          9          9          9          9          9          9          9          9          9          9          9          9          9          9          9          9          9          9          9          9          9          9          9          9          9          9          9          9          9          9          9          9          9          9          9          9          9          9          9          9          9          9          9          9          9          9          9          9          9          9          9          9          9          9          9          9          9          9          9          9          9          9          9          9          9          9          9          9          9          9          9          9          9          9          9          9          9          9          9          9          9          9          9          9          9          9          9          9          9          9          9          9          9          9          9          9          9          9          9          9          9          9          9          9          9          9          9          9          9          9          9          9          9          9          9          9          9          9          9          9          9          9          9          9          9          9          9          9          9          9          9          9          9          9          9          9          9          9          9          9          9          9          9          9          9          9          9          9          9          9          9          9          9          9          9          9          9          9          9          9          9          9          9          9          9          9          9          9          9          9          9          9          9          9          9          9          9          9          9          9          9          9          9          9          9          9          9          9          9          9          9          9          9          9          9          9          9          9          9          9          9          9          9          9          9          9          9          9          9          9          9          9          9          9          9          9          9          9          9          9          9          9          9          9          9          9          9          9          9          9          9          9          9          9          9          9          9          9          9          9          9          9          9          9          9          9          9          9          9          9          9          9          9          9          9          9          9          9          9          9          9          9          9          9          9          9          9          9          9          9          9          9          9          9          9          9          9          9          9          9          9          9          9          9          9          9          9          9          9          9          9          9          9          9          9          9          9          9          9          9          9          9          9          9          9          9          9          9          9          9          9          9          9          9          9          9          9          9          9          9          9          9          9          9          9          9          9          9          9          9          9          9          9          9          9          9          9          9          9          9          9          9          9          9          9          9          9          9          9          9          9          9          9          9          9          9          9          9          9          9          9          9          9          9          9          9          9          9          9          9          9          9          9          9          9          9          9          9          9          9          9          9          9          9          9          9          9          9          9          9          9          9          9          9          9          9          9          9          9          9          9          9          9          9          9          9          9          9          9          9          9          9          9          9          9          9          9          9          9          9          9          9          9          9          9          9          9          9          9          9          9          9          9          9          9          9          9          9          9          9          9          9          9          9          9          9          9          9          9          9          9          9          9          9          9          9          9          9          9          9          9          9          9          9          9          9          9          9          9          9          9          9          9          9          9          9          9          9          9          9          9          9          9          9          9          9          9          9          9          9          9          9          9          9          9          9          9          9          9          9          9          9          9          9          9          9          9          9          9          9          9          9          9          9          9          9          9          9          9          9          9          9          9          9          9          9          9          9          9          9          9          9          9          9          9          9          9          9          9          9          9          9          9          9          9          9          9          9          9          9          9          9          9          9          9          9          9          9          9          9          9          9          9          9          9          9          9          9          9          9          9          9          9          9          9          9          9          9          9          9          9          9          9          9          9          9          9          9          9          9          9          9          9          9          9          9          9          9          9          9          9          9          9          9          9          9          9          9          9          9          9          9          9          9          9          9          9          9          9          9          9          9          9          9          9          9          9          9          9          9          9          9          9          9          9          9          9          9          9          9          9          9          9          9          9          9          9          9          9          9          9          9          9          9          9          9          9          9          9          9          9          9          9          9          9          9          9          9          9          9          9          9          9          9          9          9          9          9          9          9          9          9          9          9          9          9          9          9          9          9          9          9          9          9          9          9          9          9          9          9          9          9          9          9          9          9          9          9          9          9          9          9          9          9          9          9          9          9          9          9          9          9          9          9          9          9          9          9          9          9          9          9          9          9          9          9          9 </DataArray>
</Cells>
<CellData>
<DataArray type="Int32"                                    Name="material"                                                      NumberOfComponents=" 1" format="ascii">
         1          1          1          1          1          1          1          1          1          1          1          1          1          1          1          1          1          1          1          1          1          1          1          1          1          1          1          1          1          1          1          1          1          1          1          1          1          1          1          1          1          1          1          1          1          1          1          1          1          1          1          1          1          1          1          1          1          1          1          1          1          1          1          1          1          1          1          1          1          1          1          1          1          1          1          1          1          1          1          1          1          1          1          1          1          1          1          1          1          1          1          1          1          1          1          1          1          1          1          1          1          1          1          1          1          1          1          1          1          1          1          1          1          1          1          1          1          1          1          1          1          1          1          1          1          1          1          1          1          1          1          1          1          1          1          1          1          1          1          1          1          1          1          1          1          1          1          1          1          1          1          1          1          1          1          1          1          1          1          1          1          1          1          1          1          1          1          1          1          1          1          1          1          1          1          1          1          1          1          1          1          1          1          1          1          1          1          1          1          1          1          1          1          1          1          1          1          1          1          1          1          1          1          1          1          1          1          1          1          1          1          1          1          1          1          1          1          1          1          1          1          1          1          1          1          1          1          1          1          1          1          1          1          1          1          1          1          1          1          1          1          1          1          1          1          1          1          1          1          1          1          1          1          1          1          1          1          1          1          1          1          1          1          1          1          1          1          1          1          1          1          1          1          1          1          1          1          1          1          1          1          1          1          1          1          1          1          1          1          1          1          1          1          1          1          1          1          1          1          1          1          1          1          1          1          1          1          1          1          1          1          1          1          1          1          1          1          1          1          1          1          1          1          1          1          1          1          1          1          1          1          1          1          1          1          1          1          1          1          1          1          1          1          1          1          1          1          1          1          1          1          1          1          1          1          1          1          1          1          1          1          1          1          1          1          1          1          1          1          1          1          1          1          1          1          1          1          1          1          1          1          1          1          1          1          1          1          1          1          1          1          1          1          1          1          1          1          1          1          1          1          1          1          1          1          1          1          1          1          1          1          1          1          1          1          1          1          1          1          1          1          1          1          1          1          1          1          1          1          1          1          1          1          1          1          1          1          1          1          1          1          1          1          1          1          1          1          1          1          1          1          1          1          1          1          1          1          1          1          1          1          1          1          1          1          1          1          1          1          1          1          1          1          1          1          1          1          1          1          1          1          1          1          1          1          1          1          1          1          1          1          1          1          1          1          1          1          1          1          1          1          1          1          1          1          1          1          1          1          1          1          1          1          1          1          1          1          1          1          1          1          1          1          1          1          1          1          1          1          1          1          1          1          1          1          1          1          1          1          1          1          1          1          1          1          1          1          1          1          1          1          1          1          1          1          1          1          1          1          1          1          1          1          1          1          1          1          1          1          1          1          1          1          1          1          1          1          1          1          1          1          1          1          1          1          1          1          1          1          1          1          1          1          1          1          1          1          1          1          1          1          1          1          1          1          1          1          1          1          1          1          1          1          1          1          1          1          1          1          1          1          1          1          1          1          1          1          1          1          1          1          1          1          1          1          1          1          1          1          1          1          1          1          1          1          1          1          1          1          1          1          1          1          1          1          1          1          1          1          1          1          1          1          1          1          1          1          1          1          1          1          1          1          1          1          1          1          1          1          1          1          1          1          1          1          1          1          1          1          1          1          1          1          1          1          1          1          1          1          1          1          1          1          1          1          1          1          1          1          1          1          1          1          1          1          1          1          1          1          1          1          1          1          1          1          1          1          1          1          1          1          1          1          1          1          1          1          1          1          1          1          1          1          1          1          1          1          1          1          1          1          1          1          1          1          1          1          1          1          1          1          1          1          1          1          1          1          1          1          1          1          1          1          1          1          1          1          1          1          1          1          1          1          1          1          1          1          1          1          1          1          1          1          1          1          1          1          1          1          1          1          1          1          1          1          1          1          1          1          1          1          1          1          1          1          1          1          1          1          1          1          1          1          1          1          1          1          1          1          1          1          1          1          1          1          1          1          1          1          1          1          1          1          1          1          1          1          1          1          1          1          1          1          1          1          1          1          1          1          1          1          1          1          1          1          1          1          1          1          1          1          1          1          1          1          1          1          1          1          1          1          1          1          1          1          1          1          1          1          1          1          1          1          1          1          1          1          1          1          1          1          1          1          1          1          1          1          1          1          1          1          1          1          1          1          1          1          1          1          1          1          1          1          1          1          1          1          1          1          1          1          1          1          1          1          1          1          1          1          1          1          1          1          1          1          1          1          1          1          1          1          1          1          1          1          1          1          1          1          1          1          1          1          1          1          1          1          1          1          1          1          1          1          1          1          1          1          1          1          1          1          1          1          1          1          1          1          1          1          1          1          1          1          1          1          1          1          1          1          1          1          1          1          1          1          1          1          1          1          1          1          1          1          1          1          1          1          1          1          1          1          1          1          1 </DataArray>
</CellData>
<PointData>
<DataArray type="Float64"                                    Name="u"                                                      NumberOfComponents=" 3" format="ascii">
             -0.000216197               0.000000000               0.999999989              -0.000248449               0.000000000               0.999999989              -0.000263422              -0.000000000               0.999999989              -0.000272068              -0.000000000               0.999999989              -0.000278691               0.000000000               0.999999989              -0.000285121               0.000000000               0.999999989              -0.000292088               0.000000000               0.999999989              -0.000299905               0.000000000               0.999999989              -0.000308910               0.000000000               0.999999989              -0.000319214               0.000000000               0.999999989              -0.000330808               0.000000000               0.999999989              -0.000343562               0.000000000               0.999999989              -0.000357332               0.000000000               0.999999989              -0.000371946               0.000000000               0.999999989              -0.000387147              -0.000000000               0.999999989              -0.000402663               0.000000000               0.999999989              -0.000418195               0.000000000               0.999999989              -0.000215039               0.000081360               0.999999989              -0.000245499               0.000069801               0.999999989              -0.000259416               0.000065728               0.999999989              -0.000267516               0.000065639               0.999999989              -0.000273790               0.000067803               0.999999989              -0.000279989               0.000071285               0.999999989              -0.000286924               0.000075593               0.999999989              -0.000294905               0.000080700               0.999999989              -0.000304103               0.000086362               0.999999989              -0.000314505               0.000092389               0.999999989              -0.000326106               0.000098506               0.999999989              -0.000338823               0.000104554               0.999999989              -0.000352504               0.000110355               0.999999989              -0.000366895               0.000115679               0.999999989              -0.000381725               0.000120253               0.999999989              -0.000396781               0.000123730               0.999999989              -0.000411806               0.000125921               0.999999989              -0.000211530               0.000161878               0.999999989              -0.000236826               0.000138880               0.999999989              -0.000247769               0.000131314               0.999999989              -0.000254286               0.000131605               0.999999989              -0.000259813               0.000136217               0.999999989              -0.000265763               0.000143376               0.999999989              -0.000272738               0.000152338               0.999999989              -0.000281012               0.000162546               0.999999989              -0.000290527               0.000173783               0.999999989              -0.000301129               0.000185652               0.999999989              -0.000312750               0.000197711               0.999999989              -0.000325187               0.000209604               0.999999989              -0.000338245               0.000221142               0.999999989              -0.000351706               0.000231737               0.999999989              -0.000365362               0.000240896               0.999999989              -0.000379087               0.000248344               0.999999989              -0.000392703               0.000253458               0.999999989              -0.000205744               0.000240698               0.999999989              -0.000222907               0.000206745               0.999999989              -0.000229596               0.000196533               0.999999989              -0.000234038               0.000197965               0.999999989              -0.000238755               0.000205534               0.999999989              -0.000244565               0.000216778               0.999999989              -0.000251797               0.000230520               0.999999989              -0.000260495               0.000246025               0.999999989              -0.000270454               0.000262718               0.999999989              -0.000281334               0.000280133               0.999999989              -0.000292906               0.000297739               0.999999989              -0.000304827               0.000315185               0.999999989              -0.000316950               0.000331971               0.999999989              -0.000329122               0.000347513               0.999999989              -0.000341172               0.000361411               0.999999989              -0.000353107               0.000373456               0.999999989              -0.000364946               0.000383155               0.999999989              -0.000197907               0.000316985               0.999999989              -0.000204546               0.000273008               0.999999989              -0.000206491               0.000261193               0.999999989              -0.000209051               0.000264522               0.999999989              -0.000213290               0.000275554               0.999999989              -0.000219371               0.000291104               0.999999989              -0.000227276               0.000309797               0.999999989              -0.000236648               0.000330617               0.999999989              -0.000247159               0.000352639               0.999999989              -0.000258351               0.000375281               0.999999989              -0.000269841               0.000397995               0.999999989              -0.000281402               0.000420231               0.999999989              -0.000292801               0.000441613               0.999999989              -0.000303945               0.000461677               0.999999989              -0.000314720               0.000480165               0.999999989              -0.000325167               0.000497003               0.999999989              -0.000335405               0.000512151               0.999999989              -0.000188027               0.000390059               0.999999989              -0.000182648               0.000337413               0.999999989              -0.000180204               0.000325116               0.999999989              -0.000181627               0.000330876               0.999999989              -0.000186182               0.000345648               0.999999989              -0.000193226               0.000365662               0.999999989              -0.000202196               0.000389215               0.999999989              -0.000212545               0.000415076               0.999999989              -0.000223728               0.000442069               0.999999989              -0.000235268               0.000469393               0.999999989              -0.000246791               0.000496680               0.999999989              -0.000257966               0.000523237               0.999999989              -0.000268584               0.000548788               0.999999989              -0.000278665               0.000573076               0.999999989              -0.000288208               0.000595880               0.999999989              -0.000297291               0.000617373               0.999999989              -0.000305915               0.000637720               0.999999989              -0.000176221               0.000459184               0.999999989              -0.000158343               0.000399830               0.999999989              -0.000152623               0.000388015               0.999999989              -0.000154103               0.000396471               0.999999989              -0.000159901               0.000414967               0.999999989              -0.000168400               0.000439221               0.999999989              -0.000178654               0.000467371               0.999999989              -0.000190061               0.000497969               0.999999989              -0.000201974               0.000529372               0.999999989              -0.000213839               0.000560955               0.999999989              -0.000225142               0.000592374               0.999999989              -0.000235605               0.000622975               0.999999989              -0.000245210               0.000652423               0.999999989              -0.000254047               0.000680697               0.999999989              -0.000262200               0.000707823               0.999999989              -0.000269737               0.000733960               0.999999989              -0.000276810               0.000759193               0.999999989              -0.000162781               0.000523527               0.999999989              -0.000133012               0.000460077               0.999999989              -0.000125646               0.000449354               0.999999989              -0.000128395               0.000460443               0.999999989              -0.000135929               0.000482440               0.999999989              -0.000146038               0.000510744               0.999999989              -0.000157765               0.000543210               0.999999989              -0.000170321               0.000577899               0.999999989              -0.000182813               0.000613337               0.999999989              -0.000194646               0.000648872               0.999999989              -0.000205356               0.000684141               0.999999989              -0.000214844               0.000718345               0.999999989              -0.000223201               0.000751509               0.999999989              -0.000230561               0.000783823               0.999999989              -0.000237188               0.000815279               0.999999989              -0.000243259               0.000846017               0.999999989              -0.000248950               0.000875975               0.999999989              -0.000148437               0.000581920               0.999999989              -0.000107752               0.000517990               0.999999989              -0.000100794               0.000508462               0.999999989              -0.000105464               0.000521907               0.999999989              -0.000114988               0.000547098               0.999999989              -0.000126920               0.000579205               0.999999989              -0.000140175               0.000615578               0.999999989              -0.000153678               0.000654101               0.999999989              -0.000166375               0.000693374               0.999999989              -0.000177720               0.000732654               0.999999989              -0.000187472               0.000771250               0.999999989              -0.000195548               0.000808959               0.999999989              -0.000202320               0.000845937               0.999999989              -0.000208177               0.000882203               0.999999989              -0.000213406               0.000917827               0.999999989              -0.000218295               0.000952661               0.999999989              -0.000223009               0.000986656               0.999999989              -0.000134230               0.000636429               0.999999989              -0.000087801               0.000579857               0.999999989              -0.000078071               0.000566081               0.999999989              -0.000081161               0.000574127               0.999999989              -0.000089302               0.000594040               0.999999989              -0.000099791               0.000621310               0.999999989              -0.000111755               0.000653297               0.999999989              -0.000124247               0.000688195               0.999999989              -0.000136262               0.000724630               0.999999989              -0.000147132               0.000761668               0.999999989              -0.000156423               0.000798724               0.999999989              -0.000164044               0.000835312               0.999999989              -0.000169926               0.000871423               0.999999989              -0.000174656               0.000907096               0.999999989              -0.000178690               0.000942419               0.999999989              -0.000182341               0.000977131               0.999999989              -0.000185896               0.001011196               0.999999989              -0.000118320               0.000685625               0.999999989              -0.000070111               0.000639012               0.999999989              -0.000057699               0.000624451               0.999999989              -0.000058642               0.000628643               0.999999989              -0.000065046               0.000644170               0.999999989              -0.000073824               0.000667069               0.999999989              -0.000084217               0.000695027               0.999999989              -0.000095462               0.000726312               0.999999989              -0.000106474               0.000759739               0.999999989              -0.000116591               0.000794396               0.999999989              -0.000125381               0.000829532               0.999999989              -0.000132468               0.000864656               0.999999989              -0.000137662               0.000899557               0.999999989              -0.000141212               0.000934108               0.999999989              -0.000143719               0.000968504               0.999999989              -0.000145578               0.001002730               0.999999989              -0.000147152               0.001036716               0.999999989              -0.000101014               0.000728587               0.999999989              -0.000054547               0.000693960               0.999999989              -0.000040406               0.000681139               0.999999989              -0.000039111               0.000683461               0.999999989              -0.000043454               0.000695924               0.999999989              -0.000050401               0.000715339               0.999999989              -0.000058994               0.000739800               0.999999989              -0.000068583               0.000767899               0.999999989              -0.000078249               0.000798534               0.999999989              -0.000087335               0.000830828               0.999999989              -0.000095349               0.000864122               0.999999989              -0.000101828               0.000897737               0.999999989              -0.000106373               0.000931409               0.999999989              -0.000108895               0.000964859               0.999999989              -0.000109670               0.000998196               0.999999989              -0.000109109               0.001031509               0.999999989              -0.000107618               0.001064894               0.999999989              -0.000082446               0.000764639               0.999999989              -0.000040983               0.000742694               0.999999989              -0.000026538               0.000733566               0.999999989              -0.000023548               0.000735768               0.999999989              -0.000025938               0.000746506               0.999999989              -0.000030959               0.000763592               0.999999989              -0.000037553               0.000785462               0.999999989              -0.000045179               0.000811040               0.999999989              -0.000053162               0.000839415               0.999999989              -0.000060769               0.000869754               0.999999989              -0.000067646               0.000901440               0.999999989              -0.000073266               0.000933926               0.999999989              -0.000077213               0.000966766               0.999999989              -0.000078786               0.000999676               0.999999989              -0.000078010               0.001032503               0.999999989              -0.000074947               0.001065222               0.999999989              -0.000069579               0.001098047               0.999999989              -0.000062811               0.000793256               0.999999989              -0.000029157               0.000783103               0.999999989              -0.000016179               0.000778725               0.999999989              -0.000012425               0.000782185               0.999999989              -0.000013243               0.000792489               0.999999989              -0.000016513               0.000808402               0.999999989              -0.000021072               0.000828719               0.999999989              -0.000026605               0.000852547               0.999999989              -0.000032542               0.000879295               0.999999989              -0.000038389               0.000908283               0.999999989              -0.000043669               0.000938954               0.999999989              -0.000047985               0.000970886               0.999999989              -0.000051030               0.001003537               0.999999989              -0.000052023               0.001036637               0.999999989              -0.000050418               0.001069836               0.999999989              -0.000045784               0.001102874               0.999999989              -0.000037545               0.001135812               0.999999989              -0.000042359               0.000813989               0.999999989              -0.000018700               0.000813347               0.999999989              -0.000008895               0.000813635               0.999999989              -0.000005567               0.000819021               0.999999989              -0.000005444               0.000829791               0.999999989              -0.000007169               0.000845452               0.999999989              -0.000010040               0.000865133               0.999999989              -0.000013429               0.000888130               0.999999989              -0.000017264               0.000913883               0.999999989              -0.000021091               0.000942039               0.999999989              -0.000024605               0.000972085               0.999999989              -0.000027508               0.001003645               0.999999989              -0.000029533               0.001036390               0.999999989              -0.000030117               0.001069929               0.999999989              -0.000028443               0.001103965               0.999999989              -0.000023906               0.001138136               0.999999989              -0.000015556               0.001172061               0.999999989              -0.000021343               0.000826474               0.999999989              -0.000009140               0.000832034               0.999999989              -0.000003858               0.000835702               0.999999989              -0.000001957               0.000842811               0.999999989              -0.000001568               0.000854386               0.999999989              -0.000002281               0.000870236               0.999999989              -0.000003614               0.000889807               0.999999989              -0.000005231               0.000912523               0.999999989              -0.000007021               0.000937933               0.999999989              -0.000008887               0.000965626               0.999999989              -0.000010624               0.000995289               0.999999989              -0.000012155               0.001026669               0.999999989              -0.000013145               0.001059454               0.999999989              -0.000013343               0.001093496               0.999999989              -0.000012283               0.001128386               0.999999989              -0.000009441               0.001163556               0.999999989              -0.000004208               0.001198522               0.999999989               0.000000000               0.000830637               0.999999989               0.000000000               0.000838338               0.999999989              -0.000000000               0.000843217               0.999999989               0.000000000               0.000851083               0.999999989              -0.000000000               0.000863071               0.999999989              -0.000000000               0.000879050               0.999999989              -0.000000000               0.000898625               0.999999989               0.000000000               0.000921267               0.999999989              -0.000000000               0.000946554               0.999999989               0.000000000               0.000974093               0.999999989               0.000000000               0.001003646               0.999999989               0.000000000               0.001034978               0.999999989              -0.000000000               0.001067940               0.999999989              -0.000000000               0.001102211               0.999999989               0.000000000               0.001137402               0.999999989              -0.000000000               0.001173040               0.999999989              -0.000000000               0.001208433               0.999999989              -0.000216197               0.000000000               0.999999989              -0.000248449               0.000000000               0.999999989              -0.000263422              -0.000000000               0.999999989              -0.000272068              -0.000000000               0.999999989              -0.000278691               0.000000000               0.999999989              -0.000285121               0.000000000               0.999999989              -0.000292088               0.000000000               0.999999989              -0.000299905               0.000000000               0.999999989              -0.000308910               0.000000000               0.999999989              -0.000319214               0.000000000               0.999999989              -0.000330808               0.000000000               0.999999989              -0.000343562               0.000000000               0.999999989              -0.000357332               0.000000000               0.999999989              -0.000371946               0.000000000               0.999999989              -0.000387147              -0.000000000               0.999999989              -0.000402663               0.000000000               0.999999989              -0.000418195               0.000000000               0.999999989              -0.000215039              -0.000081360               0.999999989              -0.000245499              -0.000069801               0.999999989              -0.000259416              -0.000065728               0.999999989              -0.000267516              -0.000065639               0.999999989              -0.000273790              -0.000067803               0.999999989              -0.000279989              -0.000071285               0.999999989              -0.000286924              -0.000075593               0.999999989              -0.000294905              -0.000080700               0.999999989              -0.000304103              -0.000086362               0.999999989              -0.000314505              -0.000092389               0.999999989              -0.000326106              -0.000098506               0.999999989              -0.000338823              -0.000104554               0.999999989              -0.000352504              -0.000110355               0.999999989              -0.000366895              -0.000115679               0.999999989              -0.000381725              -0.000120253               0.999999989              -0.000396781              -0.000123730               0.999999989              -0.000411806              -0.000125921               0.999999989              -0.000211530              -0.000161878               0.999999989              -0.000236826              -0.000138880               0.999999989              -0.000247769              -0.000131314               0.999999989              -0.000254286              -0.000131605               0.999999989              -0.000259813              -0.000136217               0.999999989              -0.000265763              -0.000143376               0.999999989              -0.000272738              -0.000152338               0.999999989              -0.000281012              -0.000162546               0.999999989              -0.000290527              -0.000173783               0.999999989              -0.000301129              -0.000185652               0.999999989              -0.000312750              -0.000197711               0.999999989              -0.000325187              -0.000209604               0.999999989              -0.000338245              -0.000221142               0.999999989              -0.000351706              -0.000231737               0.999999989              -0.000365362              -0.000240896               0.999999989              -0.000379087              -0.000248344               0.999999989              -0.000392703              -0.000253458               0.999999989              -0.000205744              -0.000240698               0.999999989              -0.000222907              -0.000206745               0.999999989              -0.000229596              -0.000196533               0.999999989              -0.000234038              -0.000197965               0.999999989              -0.000238755              -0.000205534               0.999999989              -0.000244565              -0.000216778               0.999999989              -0.000251797              -0.000230520               0.999999989              -0.000260495              -0.000246025               0.999999989              -0.000270454              -0.000262718               0.999999989              -0.000281334              -0.000280133               0.999999989              -0.000292906              -0.000297739               0.999999989              -0.000304827              -0.000315185               0.999999989              -0.000316950              -0.000331971               0.999999989              -0.000329122              -0.000347513               0.999999989              -0.000341172              -0.000361411               0.999999989              -0.000353107              -0.000373456               0.999999989              -0.000364946              -0.000383155               0.999999989              -0.000197907              -0.000316985               0.999999989              -0.000204546              -0.000273008               0.999999989              -0.000206491              -0.000261193               0.999999989              -0.000209051              -0.000264522               0.999999989              -0.000213290              -0.000275554               0.999999989              -0.000219371              -0.000291104               0.999999989              -0.000227276              -0.000309797               0.999999989              -0.000236648              -0.000330617               0.999999989              -0.000247159              -0.000352639               0.999999989              -0.000258351              -0.000375281               0.999999989              -0.000269841              -0.000397995               0.999999989              -0.000281402              -0.000420231               0.999999989              -0.000292801              -0.000441613               0.999999989              -0.000303945              -0.000461677               0.999999989              -0.000314720              -0.000480165               0.999999989              -0.000325167              -0.000497003               0.999999989              -0.000335405              -0.000512151               0.999999989              -0.000188027              -0.000390059               0.999999989              -0.000182648              -0.000337413               0.999999989              -0.000180204              -0.000325116               0.999999989              -0.000181627              -0.000330876               0.999999989              -0.000186182              -0.000345648               0.999999989              -0.000193226              -0.000365662               0.999999989              -0.000202196              -0.000389215               0.999999989              -0.000212545              -0.000415076               0.999999989              -0.000223728              -0.000442069               0.999999989              -0.000235268              -0.000469393               0.999999989              -0.000246791              -0.000496680               0.999999989              -0.000257966              -0.000523237               0.999999989              -0.000268584              -0.000548788               0.999999989              -0.000278665              -0.000573076               0.999999989              -0.000288208              -0.000595880               0.999999989              -0.000297291              -0.000617373               0.999999989              -0.000305915              -0.000637720               0.999999989              -0.000176221              -0.000459184               0.999999989              -0.000158343              -0.000399830               0.999999989              -0.000152623              -0.000388015               0.999999989              -0.000154103              -0.000396471               0.999999989              -0.000159901              -0.000414967               0.999999989              -0.000168400              -0.000439221               0.999999989              -0.000178654              -0.000467371               0.999999989              -0.000190061              -0.000497969               0.999999989              -0.000201974              -0.000529372               0.999999989              -0.000213839              -0.000560955               0.999999989              -0.000225142              -0.000592374               0.999999989              -0.000235605              -0.000622975               0.999999989              -0.000245210              -0.000652423               0.999999989              -0.000254047              -0.000680697               0.999999989              -0.000262200              -0.000707823               0.999999989              -0.000269737              -0.000733960               0.999999989              -0.000276810              -0.000759193               0.999999989              -0.000162781              -0.000523527               0.999999989              -0.000133012              -0.000460077               0.999999989              -0.000125646              -0.000449354               0.999999989              -0.000128395              -0.000460443               0.999999989              -0.000135929              -0.000482440               0.999999989              -0.000146038              -0.000510744               0.999999989              -0.000157765              -0.000543210               0.999999989              -0.000170321              -0.000577899               0.999999989              -0.000182813              -0.000613337               0.999999989              -0.000194646              -0.000648872               0.999999989              -0.000205356              -0.000684141               0.999999989              -0.000214844              -0.000718345               0.999999989              -0.000223201              -0.000751509               0.999999989              -0.000230561              -0.000783823               0.999999989              -0.000237188              -0.000815279               0.999999989              -0.000243259              -0.000846017               0.999999989              -0.000248950              -0.000875975               0.999999989              -0.000148437              -0.000581920               0.999999989              -0.000107752              -0.000517990               0.999999989              -0.000100794              -0.000508462               0.999999989              -0.000105464              -0.000521907               0.999999989              -0.000114988              -0.000547098               0.999999989              -0.000126920              -0.000579205               0.999999989              -0.000140175              -0.000615578               0.999999989              -0.000153678              -0.000654101               0.999999989              -0.000166375              -0.000693374               0.999999989              -0.000177720              -0.000732654               0.999999989              -0.000187472              -0.000771250               0.999999989              -0.000195548              -0.000808959               0.999999989              -0.000202320              -0.000845937               0.999999989              -0.000208177              -0.000882203               0.999999989              -0.000213406              -0.000917827               0.999999989              -0.000218295              -0.000952661               0.999999989              -0.000223009              -0.000986656               0.999999989              -0.000134230              -0.000636429               0.999999989              -0.000087801              -0.000579857               0.999999989              -0.000078071              -0.000566081               0.999999989              -0.000081161              -0.000574127               0.999999989              -0.000089302              -0.000594040               0.999999989              -0.000099791              -0.000621310               0.999999989              -0.000111755              -0.000653297               0.999999989              -0.000124247              -0.000688195               0.999999989              -0.000136262              -0.000724630               0.999999989              -0.000147132              -0.000761668               0.999999989              -0.000156423              -0.000798724               0.999999989              -0.000164044              -0.000835312               0.999999989              -0.000169926              -0.000871423               0.999999989              -0.000174656              -0.000907096               0.999999989              -0.000178690              -0.000942419               0.999999989              -0.000182341              -0.000977131               0.999999989              -0.000185896              -0.001011196               0.999999989              -0.000118320              -0.000685625               0.999999989              -0.000070111              -0.000639012               0.999999989              -0.000057699              -0.000624451               0.999999989              -0.000058642              -0.000628643               0.999999989              -0.000065046              -0.000644170               0.999999989              -0.000073824              -0.000667069               0.999999989              -0.000084217              -0.000695027               0.999999989              -0.000095462              -0.000726312               0.999999989              -0.000106474              -0.000759739               0.999999989              -0.000116591              -0.000794396               0.999999989              -0.000125381              -0.000829532               0.999999989              -0.000132468              -0.000864656               0.999999989              -0.000137662              -0.000899557               0.999999989              -0.000141212              -0.000934108               0.999999989              -0.000143719              -0.000968504               0.999999989              -0.000145578              -0.001002730               0.999999989              -0.000147152              -0.001036716               0.999999989              -0.000101014              -0.000728587               0.999999989              -0.000054547              -0.000693960               0.999999989              -0.000040406              -0.000681139               0.999999989              -0.000039111              -0.000683461               0.999999989              -0.000043454              -0.000695924               0.999999989              -0.000050401              -0.000715339               0.999999989              -0.000058994              -0.000739800               0.999999989              -0.000068583              -0.000767899               0.999999989              -0.000078249              -0.000798534               0.999999989              -0.000087335              -0.000830828               0.999999989              -0.000095349              -0.000864122               0.999999989              -0.000101828              -0.000897737               0.999999989              -0.000106373              -0.000931409               0.999999989              -0.000108895              -0.000964859               0.999999989              -0.000109670              -0.000998196               0.999999989              -0.000109109              -0.001031509               0.999999989              -0.000107618              -0.001064894               0.999999989              -0.000082446              -0.000764639               0.999999989              -0.000040983              -0.000742694               0.999999989              -0.000026538              -0.000733566               0.999999989              -0.000023548              -0.000735768               0.999999989              -0.000025938              -0.000746506               0.999999989              -0.000030959              -0.000763592               0.999999989              -0.000037553              -0.000785462               0.999999989              -0.000045179              -0.000811040               0.999999989              -0.000053162              -0.000839415               0.999999989              -0.000060769              -0.000869754               0.999999989              -0.000067646              -0.000901440               0.999999989              -0.000073266              -0.000933926               0.999999989              -0.000077213              -0.000966766               0.999999989              -0.000078786              -0.000999676               0.999999989              -0.000078010              -0.001032503               0.999999989              -0.000074947              -0.001065222               0.999999989              -0.000069579              -0.001098047               0.999999989              -0.000062811              -0.000793256               0.999999989              -0.000029157              -0.000783103               0.999999989              -0.000016179              -0.000778725               0.999999989              -0.000012425              -0.000782185               0.999999989              -0.000013243              -0.000792489               0.999999989              -0.000016513              -0.000808402               0.999999989              -0.000021072              -0.000828719               0.999999989              -0.000026605              -0.000852547               0.999999989              -0.000032542              -0.000879295               0.999999989              -0.000038389              -0.000908283               0.999999989              -0.000043669              -0.000938954               0.999999989              -0.000047985              -0.000970886               0.999999989              -0.000051030              -0.001003537               0.999999989              -0.000052023              -0.001036637               0.999999989              -0.000050418              -0.001069836               0.999999989              -0.000045784              -0.001102874               0.999999989              -0.000037545              -0.001135812               0.999999989              -0.000042359              -0.000813989               0.999999989              -0.000018700              -0.000813347               0.999999989              -0.000008895              -0.000813635               0.999999989              -0.000005567              -0.000819021               0.999999989              -0.000005444              -0.000829791               0.999999989              -0.000007169              -0.000845452               0.999999989              -0.000010040              -0.000865133               0.999999989              -0.000013429              -0.000888130               0.999999989              -0.000017264              -0.000913883               0.999999989              -0.000021091              -0.000942039               0.999999989              -0.000024605              -0.000972085               0.999999989              -0.000027508              -0.001003645               0.999999989              -0.000029533              -0.001036390               0.999999989              -0.000030117              -0.001069929               0.999999989              -0.000028443              -0.001103965               0.999999989              -0.000023906              -0.001138136               0.999999989              -0.000015556              -0.001172061               0.999999989              -0.000021343              -0.000826474               0.999999989              -0.000009140              -0.000832034               0.999999989              -0.000003858              -0.000835702               0.999999989              -0.000001957              -0.000842811               0.999999989              -0.000001568              -0.000854386               0.999999989              -0.000002281              -0.000870236               0.999999989              -0.000003614              -0.000889807               0.999999989              -0.000005231              -0.000912523               0.999999989              -0.000007021              -0.000937933               0.999999989              -0.000008887              -0.000965626               0.999999989              -0.000010624              -0.000995289               0.999999989              -0.000012155              -0.001026669               0.999999989              -0.000013145              -0.001059454               0.999999989              -0.000013343              -0.001093496               0.999999989              -0.000012283              -0.001128386               0.999999989              -0.000009441              -0.001163556               0.999999989              -0.000004208              -0.001198522               0.999999989              -0.000000000              -0.000830637               0.999999989              -0.000000000              -0.000838338               0.999999989              -0.000000000              -0.000843217               0.999999989               0.000000000              -0.000851083               0.999999989              -0.000000000              -0.000863071               0.999999989               0.000000000              -0.000879050               0.999999989               0.000000000              -0.000898625               0.999999989               0.000000000              -0.000921267               0.999999989               0.000000000              -0.000946554               0.999999989              -0.000000000              -0.000974093               0.999999989              -0.000000000              -0.001003646               0.999999989               0.000000000              -0.001034978               0.999999989              -0.000000000              -0.001067940               0.999999989               0.000000000              -0.001102211               0.999999989              -0.000000000              -0.001137402               0.999999989              -0.000000000              -0.001173040               0.999999989               0.000000000              -0.001208433               0.999999989               0.000216197              -0.000000000               0.999999989               0.000248449               0.000000000               0.999999989               0.000263422               0.000000000               0.999999989               0.000272068               0.000000000               0.999999989               0.000278691              -0.000000000               0.999999989               0.000285121               0.000000000               0.999999989               0.000292088               0.000000000               0.999999989               0.000299905               0.000000000               0.999999989               0.000308910               0.000000000               0.999999989               0.000319214              -0.000000000               0.999999989               0.000330808               0.000000000               0.999999989               0.000343562              -0.000000000               0.999999989               0.000357332               0.000000000               0.999999989               0.000371946              -0.000000000               0.999999989               0.000387147               0.000000000               0.999999989               0.000402663               0.000000000               0.999999989               0.000418195              -0.000000000               0.999999989               0.000215039              -0.000081360               0.999999989               0.000245499              -0.000069801               0.999999989               0.000259416              -0.000065728               0.999999989               0.000267516              -0.000065639               0.999999989               0.000273790              -0.000067803               0.999999989               0.000279989              -0.000071285               0.999999989               0.000286924              -0.000075593               0.999999989               0.000294905              -0.000080700               0.999999989               0.000304103              -0.000086362               0.999999989               0.000314505              -0.000092389               0.999999989               0.000326106              -0.000098506               0.999999989               0.000338823              -0.000104554               0.999999989               0.000352504              -0.000110355               0.999999989               0.000366895              -0.000115679               0.999999989               0.000381725              -0.000120253               0.999999989               0.000396781              -0.000123730               0.999999989               0.000411806              -0.000125921               0.999999989               0.000211530              -0.000161878               0.999999989               0.000236826              -0.000138880               0.999999989               0.000247769              -0.000131314               0.999999989               0.000254286              -0.000131605               0.999999989               0.000259813              -0.000136217               0.999999989               0.000265763              -0.000143376               0.999999989               0.000272738              -0.000152338               0.999999989               0.000281012              -0.000162546               0.999999989               0.000290527              -0.000173783               0.999999989               0.000301129              -0.000185652               0.999999989               0.000312750              -0.000197711               0.999999989               0.000325187              -0.000209604               0.999999989               0.000338245              -0.000221142               0.999999989               0.000351706              -0.000231737               0.999999989               0.000365362              -0.000240896               0.999999989               0.000379087              -0.000248344               0.999999989               0.000392703              -0.000253458               0.999999989               0.000205744              -0.000240698               0.999999989               0.000222907              -0.000206745               0.999999989               0.000229596              -0.000196533               0.999999989               0.000234038              -0.000197965               0.999999989               0.000238755              -0.000205534               0.999999989               0.000244565              -0.000216778               0.999999989               0.000251797              -0.000230520               0.999999989               0.000260495              -0.000246025               0.999999989               0.000270454              -0.000262718               0.999999989               0.000281334              -0.000280133               0.999999989               0.000292906              -0.000297739               0.999999989               0.000304827              -0.000315185               0.999999989               0.000316950              -0.000331971               0.999999989               0.000329122              -0.000347513               0.999999989               0.000341172              -0.000361411               0.999999989               0.000353107              -0.000373456               0.999999989               0.000364946              -0.000383155               0.999999989               0.000197907              -0.000316985               0.999999989               0.000204546              -0.000273008               0.999999989               0.000206491              -0.000261193               0.999999989               0.000209051              -0.000264522               0.999999989               0.000213290              -0.000275554               0.999999989               0.000219371              -0.000291104               0.999999989               0.000227276              -0.000309797               0.999999989               0.000236648              -0.000330617               0.999999989               0.000247159              -0.000352639               0.999999989               0.000258351              -0.000375281               0.999999989               0.000269841              -0.000397995               0.999999989               0.000281402              -0.000420231               0.999999989               0.000292801              -0.000441613               0.999999989               0.000303945              -0.000461677               0.999999989               0.000314720              -0.000480165               0.999999989               0.000325167              -0.000497003               0.999999989               0.000335405              -0.000512151               0.999999989               0.000188027              -0.000390059               0.999999989               0.000182648              -0.000337413               0.999999989               0.000180204              -0.000325116               0.999999989               0.000181627              -0.000330876               0.999999989               0.000186182              -0.000345648               0.999999989               0.000193226              -0.000365662               0.999999989               0.000202196              -0.000389215               0.999999989               0.000212545              -0.000415076               0.999999989               0.000223728              -0.000442069               0.999999989               0.000235268              -0.000469393               0.999999989               0.000246791              -0.000496680               0.999999989               0.000257966              -0.000523237               0.999999989               0.000268584              -0.000548788               0.999999989               0.000278665              -0.000573076               0.999999989               0.000288208              -0.000595880               0.999999989               0.000297291              -0.000617373               0.999999989               0.000305915              -0.000637720               0.999999989               0.000176221              -0.000459184               0.999999989               0.000158343              -0.000399830               0.999999989               0.000152623              -0.000388015               0.999999989               0.000154103              -0.000396471               0.999999989               0.000159901              -0.000414967               0.999999989               0.000168400              -0.000439221               0.999999989               0.000178654              -0.000467371               0.999999989               0.000190061              -0.000497969               0.999999989               0.000201974              -0.000529372               0.999999989               0.000213839              -0.000560955               0.999999989               0.000225142              -0.000592374               0.999999989               0.000235605              -0.000622975               0.999999989               0.000245210              -0.000652423               0.999999989               0.000254047              -0.000680697               0.999999989               0.000262200              -0.000707823               0.999999989               0.000269737              -0.000733960               0.999999989               0.000276810              -0.000759193               0.999999989               0.000162781              -0.000523527               0.999999989               0.000133012              -0.000460077               0.999999989               0.000125646              -0.000449354               0.999999989               0.000128395              -0.000460443               0.999999989               0.000135929              -0.000482440               0.999999989               0.000146038              -0.000510744               0.999999989               0.000157765              -0.000543210               0.999999989               0.000170321              -0.000577899               0.999999989               0.000182813              -0.000613337               0.999999989               0.000194646              -0.000648872               0.999999989               0.000205356              -0.000684141               0.999999989               0.000214844              -0.000718345               0.999999989               0.000223201              -0.000751509               0.999999989               0.000230561              -0.000783823               0.999999989               0.000237188              -0.000815279               0.999999989               0.000243259              -0.000846017               0.999999989               0.000248950              -0.000875975               0.999999989               0.000148437              -0.000581920               0.999999989               0.000107752              -0.000517990               0.999999989               0.000100794              -0.000508462               0.999999989               0.000105464              -0.000521907               0.999999989               0.000114988              -0.000547098               0.999999989               0.000126920              -0.000579205               0.999999989               0.000140175              -0.000615578               0.999999989               0.000153678              -0.000654101               0.999999989               0.000166375              -0.000693374               0.999999989               0.000177720              -0.000732654               0.999999989               0.000187472              -0.000771250               0.999999989               0.000195548              -0.000808959               0.999999989               0.000202320              -0.000845937               0.999999989               0.000208177              -0.000882203               0.999999989               0.000213406              -0.000917827               0.999999989               0.000218295              -0.000952661               0.999999989               0.000223009              -0.000986656               0.999999989               0.000134230              -0.000636429               0.999999989               0.000087801              -0.000579857               0.999999989               0.000078071              -0.000566081               0.999999989               0.000081161              -0.000574127               0.999999989               0.000089302              -0.000594040               0.999999989               0.000099791              -0.000621310               0.999999989               0.000111755              -0.000653297               0.999999989               0.000124247              -0.000688195               0.999999989               0.000136262              -0.000724630               0.999999989               0.000147132              -0.000761668               0.999999989               0.000156423              -0.000798724               0.999999989               0.000164044              -0.000835312               0.999999989               0.000169926              -0.000871423               0.999999989               0.000174656              -0.000907096               0.999999989               0.000178690              -0.000942419               0.999999989               0.000182341              -0.000977131               0.999999989               0.000185896              -0.001011196               0.999999989               0.000118320              -0.000685625               0.999999989               0.000070111              -0.000639012               0.999999989               0.000057699              -0.000624451               0.999999989               0.000058642              -0.000628643               0.999999989               0.000065046              -0.000644170               0.999999989               0.000073824              -0.000667069               0.999999989               0.000084217              -0.000695027               0.999999989               0.000095462              -0.000726312               0.999999989               0.000106474              -0.000759739               0.999999989               0.000116591              -0.000794396               0.999999989               0.000125381              -0.000829532               0.999999989               0.000132468              -0.000864656               0.999999989               0.000137662              -0.000899557               0.999999989               0.000141212              -0.000934108               0.999999989               0.000143719              -0.000968504               0.999999989               0.000145578              -0.001002730               0.999999989               0.000147152              -0.001036716               0.999999989               0.000101014              -0.000728587               0.999999989               0.000054547              -0.000693960               0.999999989               0.000040406              -0.000681139               0.999999989               0.000039111              -0.000683461               0.999999989               0.000043454              -0.000695924               0.999999989               0.000050401              -0.000715339               0.999999989               0.000058994              -0.000739800               0.999999989               0.000068583              -0.000767899               0.999999989               0.000078249              -0.000798534               0.999999989               0.000087335              -0.000830828               0.999999989               0.000095349              -0.000864122               0.999999989               0.000101828              -0.000897737               0.999999989               0.000106373              -0.000931409               0.999999989               0.000108895              -0.000964859               0.999999989               0.000109670              -0.000998196               0.999999989               0.000109109              -0.001031509               0.999999989               0.000107618              -0.001064894               0.999999989               0.000082446              -0.000764639               0.999999989               0.000040983              -0.000742694               0.999999989               0.000026538              -0.000733566               0.999999989               0.000023548              -0.000735768               0.999999989               0.000025938              -0.000746506               0.999999989               0.000030959              -0.000763592               0.999999989               0.000037553              -0.000785462               0.999999989               0.000045179              -0.000811040               0.999999989               0.000053162              -0.000839415               0.999999989               0.000060769              -0.000869754               0.999999989               0.000067646              -0.000901440               0.999999989               0.000073266              -0.000933926               0.999999989               0.000077213              -0.000966766               0.999999989               0.000078786              -0.000999676               0.999999989               0.000078010              -0.001032503               0.999999989               0.000074947              -0.001065222               0.999999989               0.000069579              -0.001098047               0.999999989               0.000062811              -0.000793256               0.999999989               0.000029157              -0.000783103               0.999999989               0.000016179              -0.000778725               0.999999989               0.000012425              -0.000782185               0.999999989               0.000013243              -0.000792489               0.999999989               0.000016513              -0.000808402               0.999999989               0.000021072              -0.000828719               0.999999989               0.000026605              -0.000852547               0.999999989               0.000032542              -0.000879295               0.999999989               0.000038389              -0.000908283               0.999999989               0.000043669              -0.000938954               0.999999989               0.000047985              -0.000970886               0.999999989               0.000051030              -0.001003537               0.999999989               0.000052023              -0.001036637               0.999999989               0.000050418              -0.001069836               0.999999989               0.000045784              -0.001102874               0.999999989               0.000037545              -0.001135812               0.999999989               0.000042359              -0.000813989               0.999999989               0.000018700              -0.000813347               0.999999989               0.000008895              -0.000813635               0.999999989               0.000005567              -0.000819021               0.999999989               0.000005444              -0.000829791               0.999999989               0.000007169              -0.000845452               0.999999989               0.000010040              -0.000865133               0.999999989               0.000013429              -0.000888130               0.999999989               0.000017264              -0.000913883               0.999999989               0.000021091              -0.000942039               0.999999989               0.000024605              -0.000972085               0.999999989               0.000027508              -0.001003645               0.999999989               0.000029533              -0.001036390               0.999999989               0.000030117              -0.001069929               0.999999989               0.000028443              -0.001103965               0.999999989               0.000023906              -0.001138136               0.999999989               0.000015556              -0.001172061               0.999999989               0.000021343              -0.000826474               0.999999989               0.000009140              -0.000832034               0.999999989               0.000003858              -0.000835702               0.999999989               0.000001957              -0.000842811               0.999999989               0.000001568              -0.000854386               0.999999989               0.000002281              -0.000870236               0.999999989               0.000003614              -0.000889807               0.999999989               0.000005231              -0.000912523               0.999999989               0.000007021              -0.000937933               0.999999989               0.000008887              -0.000965626               0.999999989               0.000010624              -0.000995289               0.999999989               0.000012155              -0.001026669               0.999999989               0.000013145              -0.001059454               0.999999989               0.000013343              -0.001093496               0.999999989               0.000012283              -0.001128386               0.999999989               0.000009441              -0.001163556               0.999999989               0.000004208              -0.001198522               0.999999989              -0.000000000              -0.000830637               0.999999989              -0.000000000              -0.000838338               0.999999989              -0.000000000              -0.000843217               0.999999989               0.000000000              -0.000851083               0.999999989              -0.000000000              -0.000863071               0.999999989               0.000000000              -0.000879050               0.999999989               0.000000000              -0.000898625               0.999999989               0.000000000              -0.000921267               0.999999989               0.000000000              -0.000946554               0.999999989              -0.000000000              -0.000974093               0.999999989              -0.000000000              -0.001003646               0.999999989               0.000000000              -0.001034978               0.999999989              -0.000000000              -0.001067940               0.999999989               0.000000000              -0.001102211               0.999999989              -0.000000000              -0.001137402               0.999999989              -0.000000000              -0.001173040               0.999999989               0.000000000              -0.001208433               0.999999989               0.000216197              -0.000000000               0.999999989               0.000248449               0.000000000               0.999999989               0.000263422               0.000000000               0.999999989               0.000272068               0.000000000               0.999999989               0.000278691              -0.000000000               0.999999989               0.000285121               0.000000000               0.999999989               0.000292088               0.000000000               0.999999989               0.000299905               0.000000000               0.999999989               0.000308910               0.000000000               0.999999989               0.000319214              -0.000000000               0.999999989               0.000330808               0.000000000               0.999999989               0.000343562              -0.000000000               0.999999989               0.000357332               0.000000000               0.999999989               0.000371946              -0.000000000               0.999999989               0.000387147               0.000000000               0.999999989               0.000402663               0.000000000               0.999999989               0.000418195              -0.000000000               0.999999989               0.000215039               0.000081360               0.999999989               0.000245499               0.000069801               0.999999989               0.000259416               0.000065728               0.999999989               0.000267516               0.000065639               0.999999989               0.000273790               0.000067803               0.999999989               0.000279989               0.000071285               0.999999989               0.000286924               0.000075593               0.999999989               0.000294905               0.000080700               0.999999989               0.000304103               0.000086362               0.999999989               0.000314505               0.000092389               0.999999989               0.000326106               0.000098506               0.999999989               0.000338823               0.000104554               0.999999989               0.000352504               0.000110355               0.999999989               0.000366895               0.000115679               0.999999989               0.000381725               0.000120253               0.999999989               0.000396781               0.000123730               0.999999989               0.000411806               0.000125921               0.999999989               0.000211530               0.000161878               0.999999989               0.000236826               0.000138880               0.999999989               0.000247769               0.000131314               0.999999989               0.000254286               0.000131605               0.999999989               0.000259813               0.000136217               0.999999989               0.000265763               0.000143376               0.999999989               0.000272738               0.000152338               0.999999989               0.000281012               0.000162546               0.999999989               0.000290527               0.000173783               0.999999989               0.000301129               0.000185652               0.999999989               0.000312750               0.000197711               0.999999989               0.000325187               0.000209604               0.999999989               0.000338245               0.000221142               0.999999989               0.000351706               0.000231737               0.999999989               0.000365362               0.000240896               0.999999989               0.000379087               0.000248344               0.999999989               0.000392703               0.000253458               0.999999989               0.000205744               0.000240698               0.999999989               0.000222907               0.000206745               0.999999989               0.000229596               0.000196533               0.999999989               0.000234038               0.000197965               0.999999989               0.000238755               0.000205534               0.999999989               0.000244565               0.000216778               0.999999989               0.000251797               0.000230520               0.999999989               0.000260495               0.000246025               0.999999989               0.000270454               0.000262718               0.999999989               0.000281334               0.000280133               0.999999989               0.000292906               0.000297739               0.999999989               0.000304827               0.000315185               0.999999989               0.000316950               0.000331971               0.999999989               0.000329122               0.000347513               0.999999989               0.000341172               0.000361411               0.999999989               0.000353107               0.000373456               0.999999989               0.000364946               0.000383155               0.999999989               0.000197907               0.000316985               0.999999989               0.000204546               0.000273008               0.999999989               0.000206491               0.000261193               0.999999989               0.000209051               0.000264522               0.999999989               0.000213290               0.000275554               0.999999989               0.000219371               0.000291104               0.999999989               0.000227276               0.000309797               0.999999989               0.000236648               0.000330617               0.999999989               0.000247159               0.000352639               0.999999989               0.000258351               0.000375281               0.999999989               0.000269841               0.000397995               0.999999989               0.000281402               0.000420231               0.999999989               0.000292801               0.000441613               0.999999989               0.000303945               0.000461677               0.999999989               0.000314720               0.000480165               0.999999989               0.000325167               0.000497003               0.999999989               0.000335405               0.000512151               0.999999989               0.000188027               0.000390059               0.999999989               0.000182648               0.000337413               0.999999989               0.000180204               0.000325116               0.999999989               0.000181627               0.000330876               0.999999989               0.000186182               0.000345648               0.999999989               0.000193226               0.000365662               0.999999989               0.000202196               0.000389215               0.999999989               0.000212545               0.000415076               0.999999989               0.000223728               0.000442069               0.999999989               0.000235268               0.000469393               0.999999989               0.000246791               0.000496680               0.999999989               0.000257966               0.000523237               0.999999989               0.000268584               0.000548788               0.999999989               0.000278665               0.000573076               0.999999989               0.000288208               0.000595880               0.999999989               0.000297291               0.000617373               0.999999989               0.000305915               0.000637720               0.999999989               0.000176221               0.000459184               0.999999989               0.000158343               0.000399830               0.999999989               0.000152623               0.000388015               0.999999989               0.000154103               0.000396471               0.999999989               0.000159901               0.000414967               0.999999989               0.000168400               0.000439221               0.999999989               0.000178654               0.000467371               0.999999989               0.000190061               0.000497969               0.999999989               0.000201974               0.000529372               0.999999989               0.000213839               0.000560955               0.999999989               0.000225142               0.000592374               0.999999989               0.000235605               0.000622975               0.999999989               0.000245210               0.000652423               0.999999989               0.000254047               0.000680697               0.999999989               0.000262200               0.000707823               0.999999989               0.000269737               0.000733960               0.999999989               0.000276810               0.000759193               0.999999989               0.000162781               0.000523527               0.999999989               0.000133012               0.000460077               0.999999989               0.000125646               0.000449354               0.999999989               0.000128395               0.000460443               0.999999989               0.000135929               0.000482440               0.999999989               0.000146038               0.000510744               0.999999989               0.000157765               0.000543210               0.999999989               0.000170321               0.000577899               0.999999989               0.000182813               0.000613337               0.999999989               0.000194646               0.000648872               0.999999989               0.000205356               0.000684141               0.999999989               0.000214844               0.000718345               0.999999989               0.000223201               0.000751509               0.999999989               0.000230561               0.000783823               0.999999989               0.000237188               0.000815279               0.999999989               0.000243259               0.000846017               0.999999989               0.000248950               0.000875975               0.999999989               0.000148437               0.000581920               0.999999989               0.000107752               0.000517990               0.999999989               0.000100794               0.000508462               0.999999989               0.000105464               0.000521907               0.999999989               0.000114988               0.000547098               0.999999989               0.000126920               0.000579205               0.999999989               0.000140175               0.000615578               0.999999989               0.000153678               0.000654101               0.999999989               0.000166375               0.000693374               0.999999989               0.000177720               0.000732654               0.999999989               0.000187472               0.000771250               0.999999989               0.000195548               0.000808959               0.999999989               0.000202320               0.000845937               0.999999989               0.000208177               0.000882203               0.999999989               0.000213406               0.000917827               0.999999989               0.000218295               0.000952661               0.999999989               0.000223009               0.000986656               0.999999989               0.000134230               0.000636429               0.999999989               0.000087801               0.000579857               0.999999989               0.000078071               0.000566081               0.999999989               0.000081161               0.000574127               0.999999989               0.000089302               0.000594040               0.999999989               0.000099791               0.000621310               0.999999989               0.000111755               0.000653297               0.999999989               0.000124247               0.000688195               0.999999989               0.000136262               0.000724630               0.999999989               0.000147132               0.000761668               0.999999989               0.000156423               0.000798724               0.999999989               0.000164044               0.000835312               0.999999989               0.000169926               0.000871423               0.999999989               0.000174656               0.000907096               0.999999989               0.000178690               0.000942419               0.999999989               0.000182341               0.000977131               0.999999989               0.000185896               0.001011196               0.999999989               0.000118320               0.000685625               0.999999989               0.000070111               0.000639012               0.999999989               0.000057699               0.000624451               0.999999989               0.000058642               0.000628643               0.999999989               0.000065046               0.000644170               0.999999989               0.000073824               0.000667069               0.999999989               0.000084217               0.000695027               0.999999989               0.000095462               0.000726312               0.999999989               0.000106474               0.000759739               0.999999989               0.000116591               0.000794396               0.999999989               0.000125381               0.000829532               0.999999989               0.000132468               0.000864656               0.999999989               0.000137662               0.000899557               0.999999989               0.000141212               0.000934108               0.999999989               0.000143719               0.000968504               0.999999989               0.000145578               0.001002730               0.999999989               0.000147152               0.001036716               0.999999989               0.000101014               0.000728587               0.999999989               0.000054547               0.000693960               0.999999989               0.000040406               0.000681139               0.999999989               0.000039111               0.000683461               0.999999989               0.000043454               0.000695924               0.999999989               0.000050401               0.000715339               0.999999989               0.000058994               0.000739800               0.999999989               0.000068583               0.000767899               0.999999989               0.000078249               0.000798534               0.999999989               0.000087335               0.000830828               0.999999989               0.000095349               0.000864122               0.999999989               0.000101828               0.000897737               0.999999989               0.000106373               0.000931409               0.999999989               0.000108895               0.000964859               0.999999989               0.000109670               0.000998196               0.999999989               0.000109109               0.001031509               0.999999989               0.000107618               0.001064894               0.999999989               0.000082446               0.000764639               0.999999989               0.000040983               0.000742694               0.999999989               0.000026538               0.000733566               0.999999989               0.000023548               0.000735768               0.999999989               0.000025938               0.000746506               0.999999989               0.000030959               0.000763592               0.999999989               0.000037553               0.000785462               0.999999989               0.000045179               0.000811040               0.999999989               0.000053162               0.000839415               0.999999989               0.000060769               0.000869754               0.999999989               0.000067646               0.000901440               0.999999989               0.000073266               0.000933926               0.999999989               0.000077213               0.000966766               0.999999989               0.000078786               0.000999676               0.999999989               0.000078010               0.001032503               0.999999989               0.000074947               0.001065222               0.999999989               0.000069579               0.001098047               0.999999989               0.000062811               0.000793256               0.999999989               0.000029157               0.000783103               0.999999989               0.000016179               0.000778725               0.999999989               0.000012425               0.000782185               0.999999989               0.000013243               0.000792489               0.999999989               0.000016513               0.000808402               0.999999989               0.000021072               0.000828719               0.999999989               0.000026605               0.000852547               0.999999989               0.000032542               0.000879295               0.999999989               0.000038389               0.000908283               0.999999989               0.000043669               0.000938954               0.999999989               0.000047985               0.000970886               0.999999989               0.000051030               0.001003537               0.999999989               0.000052023               0.001036637               0.999999989               0.000050418               0.001069836               0.999999989               0.000045784               0.001102874               0.999999989               0.000037545               0.001135812               0.999999989               0.000042359               0.000813989               0.999999989               0.000018700               0.000813347               0.999999989               0.000008895               0.000813635               0.999999989               0.000005567               0.000819021               0.999999989               0.000005444               0.000829791               0.999999989               0.000007169               0.000845452               0.999999989               0.000010040               0.000865133               0.999999989               0.000013429               0.000888130               0.999999989               0.000017264               0.000913883               0.999999989               0.000021091               0.000942039               0.999999989               0.000024605               0.000972085               0.999999989               0.000027508               0.001003645               0.999999989               0.000029533               0.001036390               0.999999989               0.000030117               0.001069929               0.999999989               0.000028443               0.001103965               0.999999989               0.000023906               0.001138136               0.999999989               0.000015556               0.001172061               0.999999989               0.000021343               0.000826474               0.999999989               0.000009140               0.000832034               0.999999989               0.000003858               0.000835702               0.999999989               0.000001957               0.000842811               0.999999989               0.000001568               0.000854386               0.999999989               0.000002281               0.000870236               0.999999989               0.000003614               0.000889807               0.999999989               0.000005231               0.000912523               0.999999989               0.000007021               0.000937933               0.999999989               0.000008887               0.000965626               0.999999989               0.000010624               0.000995289               0.999999989               0.000012155               0.001026669               0.999999989               0.000013145               0.001059454               0.999999989               0.000013343               0.001093496               0.999999989               0.000012283               0.001128386               0.999999989               0.000009441               0.001163556               0.999999989               0.000004208               0.001198522               0.999999989               0.000000000               0.000830637               0.999999989               0.000000000               0.000838338               0.999999989              -0.000000000               0.000843217               0.999999989               0.000000000               0.000851083               0.999999989              -0.000000000               0.000863071               0.999999989              -0.000000000               0.000879050               0.999999989              -0.000000000               0.000898625               0.999999989               0.000000000               0.000921267               0.999999989              -0.000000000               0.000946554               0.999999989               0.000000000               0.000974093               0.999999989               0.000000000               0.001003646               0.999999989               0.000000000               0.001034978               0.999999989              -0.000000000               0.001067940               0.999999989              -0.000000000               0.001102211               0.999999989               0.000000000               0.001137402               0.999999989              -0.000000000               0.001173040               0.999999989              -0.000000000               0.001208433               0.999999989 </DataArray>
<DataArray type="Float64"                                    Name="defo"                                                      NumberOfComponents=" 3" format="ascii">
             -0.000216197               0.000000000               0.999999989              -0.000248449               0.000000000               0.999999989              -0.000263422              -0.000000000               0.999999989              -0.000272068              -0.000000000               0.999999989              -0.000278691               0.000000000               0.999999989              -0.000285121               0.000000000               0.999999989              -0.000292088               0.000000000               0.999999989              -0.000299905               0.000000000               0.999999989              -0.000308910               0.000000000               0.999999989              -0.000319214               0.000000000               0.999999989              -0.000330808               0.000000000               0.999999989              -0.000343562               0.000000000               0.999999989              -0.000357332               0.000000000               0.999999989              -0.000371946               0.000000000               0.999999989              -0.000387147              -0.000000000               0.999999989              -0.000402663               0.000000000               0.999999989              -0.000418195               0.000000000               0.999999989              -0.000215039               0.000081360               0.999999989              -0.000245499               0.000069801               0.999999989              -0.000259416               0.000065728               0.999999989              -0.000267516               0.000065639               0.999999989              -0.000273790               0.000067803               0.999999989              -0.000279989               0.000071285               0.999999989              -0.000286924               0.000075593               0.999999989              -0.000294905               0.000080700               0.999999989              -0.000304103               0.000086362               0.999999989              -0.000314505               0.000092389               0.999999989              -0.000326106               0.000098506               0.999999989              -0.000338823               0.000104554               0.999999989              -0.000352504               0.000110355               0.999999989              -0.000366895               0.000115679               0.999999989              -0.000381725               0.000120253               0.999999989              -0.000396781               0.000123730               0.999999989              -0.000411806               0.000125921               0.999999989              -0.000211530               0.000161878               0.999999989              -0.000236826               0.000138880               0.999999989              -0.000247769               0.000131314               0.999999989              -0.000254286               0.000131605               0.999999989              -0.000259813               0.000136217               0.999999989              -0.000265763               0.000143376               0.999999989              -0.000272738               0.000152338               0.999999989              -0.000281012               0.000162546               0.999999989              -0.000290527               0.000173783               0.999999989              -0.000301129               0.000185652               0.999999989              -0.000312750               0.000197711               0.999999989              -0.000325187               0.000209604               0.999999989              -0.000338245               0.000221142               0.999999989              -0.000351706               0.000231737               0.999999989              -0.000365362               0.000240896               0.999999989              -0.000379087               0.000248344               0.999999989              -0.000392703               0.000253458               0.999999989              -0.000205744               0.000240698               0.999999989              -0.000222907               0.000206745               0.999999989              -0.000229596               0.000196533               0.999999989              -0.000234038               0.000197965               0.999999989              -0.000238755               0.000205534               0.999999989              -0.000244565               0.000216778               0.999999989              -0.000251797               0.000230520               0.999999989              -0.000260495               0.000246025               0.999999989              -0.000270454               0.000262718               0.999999989              -0.000281334               0.000280133               0.999999989              -0.000292906               0.000297739               0.999999989              -0.000304827               0.000315185               0.999999989              -0.000316950               0.000331971               0.999999989              -0.000329122               0.000347513               0.999999989              -0.000341172               0.000361411               0.999999989              -0.000353107               0.000373456               0.999999989              -0.000364946               0.000383155               0.999999989              -0.000197907               0.000316985               0.999999989              -0.000204546               0.000273008               0.999999989              -0.000206491               0.000261193               0.999999989              -0.000209051               0.000264522               0.999999989              -0.000213290               0.000275554               0.999999989              -0.000219371               0.000291104               0.999999989              -0.000227276               0.000309797               0.999999989              -0.000236648               0.000330617               0.999999989              -0.000247159               0.000352639               0.999999989              -0.000258351               0.000375281               0.999999989              -0.000269841               0.000397995               0.999999989              -0.000281402               0.000420231               0.999999989              -0.000292801               0.000441613               0.999999989              -0.000303945               0.000461677               0.999999989              -0.000314720               0.000480165               0.999999989              -0.000325167               0.000497003               0.999999989              -0.000335405               0.000512151               0.999999989              -0.000188027               0.000390059               0.999999989              -0.000182648               0.000337413               0.999999989              -0.000180204               0.000325116               0.999999989              -0.000181627               0.000330876               0.999999989              -0.000186182               0.000345648               0.999999989              -0.000193226               0.000365662               0.999999989              -0.000202196               0.000389215               0.999999989              -0.000212545               0.000415076               0.999999989              -0.000223728               0.000442069               0.999999989              -0.000235268               0.000469393               0.999999989              -0.000246791               0.000496680               0.999999989              -0.000257966               0.000523237               0.999999989              -0.000268584               0.000548788               0.999999989              -0.000278665               0.000573076               0.999999989              -0.000288208               0.000595880               0.999999989              -0.000297291               0.000617373               0.999999989              -0.000305915               0.000637720               0.999999989              -0.000176221               0.000459184               0.999999989              -0.000158343               0.000399830               0.999999989              -0.000152623               0.000388015               0.999999989              -0.000154103               0.000396471               0.999999989              -0.000159901               0.000414967               0.999999989              -0.000168400               0.000439221               0.999999989              -0.000178654               0.000467371               0.999999989              -0.000190061               0.000497969               0.999999989              -0.000201974               0.000529372               0.999999989              -0.000213839               0.000560955               0.999999989              -0.000225142               0.000592374               0.999999989              -0.000235605               0.000622975               0.999999989              -0.000245210               0.000652423               0.999999989              -0.000254047               0.000680697               0.999999989              -0.000262200               0.000707823               0.999999989              -0.000269737               0.000733960               0.999999989              -0.000276810               0.000759193               0.999999989              -0.000162781               0.000523527               0.999999989              -0.000133012               0.000460077               0.999999989              -0.000125646               0.000449354               0.999999989              -0.000128395               0.000460443               0.999999989              -0.000135929               0.000482440               0.999999989              -0.000146038               0.000510744               0.999999989              -0.000157765               0.000543210               0.999999989              -0.000170321               0.000577899               0.999999989              -0.000182813               0.000613337               0.999999989              -0.000194646               0.000648872               0.999999989              -0.000205356               0.000684141               0.999999989              -0.000214844               0.000718345               0.999999989              -0.000223201               0.000751509               0.999999989              -0.000230561               0.000783823               0.999999989              -0.000237188               0.000815279               0.999999989              -0.000243259               0.000846017               0.999999989              -0.000248950               0.000875975               0.999999989              -0.000148437               0.000581920               0.999999989              -0.000107752               0.000517990               0.999999989              -0.000100794               0.000508462               0.999999989              -0.000105464               0.000521907               0.999999989              -0.000114988               0.000547098               0.999999989              -0.000126920               0.000579205               0.999999989              -0.000140175               0.000615578               0.999999989              -0.000153678               0.000654101               0.999999989              -0.000166375               0.000693374               0.999999989              -0.000177720               0.000732654               0.999999989              -0.000187472               0.000771250               0.999999989              -0.000195548               0.000808959               0.999999989              -0.000202320               0.000845937               0.999999989              -0.000208177               0.000882203               0.999999989              -0.000213406               0.000917827               0.999999989              -0.000218295               0.000952661               0.999999989              -0.000223009               0.000986656               0.999999989              -0.000134230               0.000636429               0.999999989              -0.000087801               0.000579857               0.999999989              -0.000078071               0.000566081               0.999999989              -0.000081161               0.000574127               0.999999989              -0.000089302               0.000594040               0.999999989              -0.000099791               0.000621310               0.999999989              -0.000111755               0.000653297               0.999999989              -0.000124247               0.000688195               0.999999989              -0.000136262               0.000724630               0.999999989              -0.000147132               0.000761668               0.999999989              -0.000156423               0.000798724               0.999999989              -0.000164044               0.000835312               0.999999989              -0.000169926               0.000871423               0.999999989              -0.000174656               0.000907096               0.999999989              -0.000178690               0.000942419               0.999999989              -0.000182341               0.000977131               0.999999989              -0.000185896               0.001011196               0.999999989              -0.000118320               0.000685625               0.999999989              -0.000070111               0.000639012               0.999999989              -0.000057699               0.000624451               0.999999989              -0.000058642               0.000628643               0.999999989              -0.000065046               0.000644170               0.999999989              -0.000073824               0.000667069               0.999999989              -0.000084217               0.000695027               0.999999989              -0.000095462               0.000726312               0.999999989              -0.000106474               0.000759739               0.999999989              -0.000116591               0.000794396               0.999999989              -0.000125381               0.000829532               0.999999989              -0.000132468               0.000864656               0.999999989              -0.000137662               0.000899557               0.999999989              -0.000141212               0.000934108               0.999999989              -0.000143719               0.000968504               0.999999989              -0.000145578               0.001002730               0.999999989              -0.000147152               0.001036716               0.999999989              -0.000101014               0.000728587               0.999999989              -0.000054547               0.000693960               0.999999989              -0.000040406               0.000681139               0.999999989              -0.000039111               0.000683461               0.999999989              -0.000043454               0.000695924               0.999999989              -0.000050401               0.000715339               0.999999989              -0.000058994               0.000739800               0.999999989              -0.000068583               0.000767899               0.999999989              -0.000078249               0.000798534               0.999999989              -0.000087335               0.000830828               0.999999989              -0.000095349               0.000864122               0.999999989              -0.000101828               0.000897737               0.999999989              -0.000106373               0.000931409               0.999999989              -0.000108895               0.000964859               0.999999989              -0.000109670               0.000998196               0.999999989              -0.000109109               0.001031509               0.999999989              -0.000107618               0.001064894               0.999999989              -0.000082446               0.000764639               0.999999989              -0.000040983               0.000742694               0.999999989              -0.000026538               0.000733566               0.999999989              -0.000023548               0.000735768               0.999999989              -0.000025938               0.000746506               0.999999989              -0.000030959               0.000763592               0.999999989              -0.000037553               0.000785462               0.999999989              -0.000045179               0.000811040               0.999999989              -0.000053162               0.000839415               0.999999989              -0.000060769               0.000869754               0.999999989              -0.000067646               0.000901440               0.999999989              -0.000073266               0.000933926               0.999999989              -0.000077213               0.000966766               0.999999989              -0.000078786               0.000999676               0.999999989              -0.000078010               0.001032503               0.999999989              -0.000074947               0.001065222               0.999999989              -0.000069579               0.001098047               0.999999989              -0.000062811               0.000793256               0.999999989              -0.000029157               0.000783103               0.999999989              -0.000016179               0.000778725               0.999999989              -0.000012425               0.000782185               0.999999989              -0.000013243               0.000792489               0.999999989              -0.000016513               0.000808402               0.999999989              -0.000021072               0.000828719               0.999999989              -0.000026605               0.000852547               0.999999989              -0.000032542               0.000879295               0.999999989              -0.000038389               0.000908283               0.999999989              -0.000043669               0.000938954               0.999999989              -0.000047985               0.000970886               0.999999989              -0.000051030               0.001003537               0.999999989              -0.000052023               0.001036637               0.999999989              -0.000050418               0.001069836               0.999999989              -0.000045784               0.001102874               0.999999989              -0.000037545               0.001135812               0.999999989              -0.000042359               0.000813989               0.999999989              -0.000018700               0.000813347               0.999999989              -0.000008895               0.000813635               0.999999989              -0.000005567               0.000819021               0.999999989              -0.000005444               0.000829791               0.999999989              -0.000007169               0.000845452               0.999999989              -0.000010040               0.000865133               0.999999989              -0.000013429               0.000888130               0.999999989              -0.000017264               0.000913883               0.999999989              -0.000021091               0.000942039               0.999999989              -0.000024605               0.000972085               0.999999989              -0.000027508               0.001003645               0.999999989              -0.000029533               0.001036390               0.999999989              -0.000030117               0.001069929               0.999999989              -0.000028443               0.001103965               0.999999989              -0.000023906               0.001138136               0.999999989              -0.000015556               0.001172061               0.999999989              -0.000021343               0.000826474               0.999999989              -0.000009140               0.000832034               0.999999989              -0.000003858               0.000835702               0.999999989              -0.000001957               0.000842811               0.999999989              -0.000001568               0.000854386               0.999999989              -0.000002281               0.000870236               0.999999989              -0.000003614               0.000889807               0.999999989              -0.000005231               0.000912523               0.999999989              -0.000007021               0.000937933               0.999999989              -0.000008887               0.000965626               0.999999989              -0.000010624               0.000995289               0.999999989              -0.000012155               0.001026669               0.999999989              -0.000013145               0.001059454               0.999999989              -0.000013343               0.001093496               0.999999989              -0.000012283               0.001128386               0.999999989              -0.000009441               0.001163556               0.999999989              -0.000004208               0.001198522               0.999999989               0.000000000               0.000830637               0.999999989               0.000000000               0.000838338               0.999999989              -0.000000000               0.000843217               0.999999989               0.000000000               0.000851083               0.999999989              -0.000000000               0.000863071               0.999999989              -0.000000000               0.000879050               0.999999989              -0.000000000               0.000898625               0.999999989               0.000000000               0.000921267               0.999999989              -0.000000000               0.000946554               0.999999989               0.000000000               0.000974093               0.999999989               0.000000000               0.001003646               0.999999989               0.000000000               0.001034978               0.999999989              -0.000000000               0.001067940               0.999999989              -0.000000000               0.001102211               0.999999989               0.000000000               0.001137402               0.999999989              -0.000000000               0.001173040               0.999999989              -0.000000000               0.001208433               0.999999989              -0.000216197               0.000000000               0.999999989              -0.000248449               0.000000000               0.999999989              -0.000263422              -0.000000000               0.999999989              -0.000272068              -0.000000000               0.999999989              -0.000278691               0.000000000               0.999999989              -0.000285121               0.000000000               0.999999989              -0.000292088               0.000000000               0.999999989              -0.000299905               0.000000000               0.999999989              -0.000308910               0.000000000               0.999999989              -0.000319214               0.000000000               0.999999989              -0.000330808               0.000000000               0.999999989              -0.000343562               0.000000000               0.999999989              -0.000357332               0.000000000               0.999999989              -0.000371946               0.000000000               0.999999989              -0.000387147              -0.000000000               0.999999989              -0.000402663               0.000000000               0.999999989              -0.000418195               0.000000000               0.999999989              -0.000215039              -0.000081360               0.999999989              -0.000245499              -0.000069801               0.999999989              -0.000259416              -0.000065728               0.999999989              -0.000267516              -0.000065639               0.999999989              -0.000273790              -0.000067803               0.999999989              -0.000279989              -0.000071285               0.999999989              -0.000286924              -0.000075593               0.999999989              -0.000294905              -0.000080700               0.999999989              -0.000304103              -0.000086362               0.999999989              -0.000314505              -0.000092389               0.999999989              -0.000326106              -0.000098506               0.999999989              -0.000338823              -0.000104554               0.999999989              -0.000352504              -0.000110355               0.999999989              -0.000366895              -0.000115679               0.999999989              -0.000381725              -0.000120253               0.999999989              -0.000396781              -0.000123730               0.999999989              -0.000411806              -0.000125921               0.999999989              -0.000211530              -0.000161878               0.999999989              -0.000236826              -0.000138880               0.999999989              -0.000247769              -0.000131314               0.999999989              -0.000254286              -0.000131605               0.999999989              -0.000259813              -0.000136217               0.999999989              -0.000265763              -0.000143376               0.999999989              -0.000272738              -0.000152338               0.999999989              -0.000281012              -0.000162546               0.999999989              -0.000290527              -0.000173783               0.999999989              -0.000301129              -0.000185652               0.999999989              -0.000312750              -0.000197711               0.999999989              -0.000325187              -0.000209604               0.999999989              -0.000338245              -0.000221142               0.999999989              -0.000351706              -0.000231737               0.999999989              -0.000365362              -0.000240896               0.999999989              -0.000379087              -0.000248344               0.999999989              -0.000392703              -0.000253458               0.999999989              -0.000205744              -0.000240698               0.999999989              -0.000222907              -0.000206745               0.999999989              -0.000229596              -0.000196533               0.999999989              -0.000234038              -0.000197965               0.999999989              -0.000238755              -0.000205534               0.999999989              -0.000244565              -0.000216778               0.999999989              -0.000251797              -0.000230520               0.999999989              -0.000260495              -0.000246025               0.999999989              -0.000270454              -0.000262718               0.999999989              -0.000281334              -0.000280133               0.999999989              -0.000292906              -0.000297739               0.999999989              -0.000304827              -0.000315185               0.999999989              -0.000316950              -0.000331971               0.999999989              -0.000329122              -0.000347513               0.999999989              -0.000341172              -0.000361411               0.999999989              -0.000353107              -0.000373456               0.999999989              -0.000364946              -0.000383155               0.999999989              -0.000197907              -0.000316985               0.999999989              -0.000204546              -0.000273008               0.999999989              -0.000206491              -0.000261193               0.999999989              -0.000209051              -0.000264522               0.999999989              -0.000213290              -0.000275554               0.999999989              -0.000219371              -0.000291104               0.999999989              -0.000227276              -0.000309797               0.999999989              -0.000236648              -0.000330617               0.999999989              -0.000247159              -0.000352639               0.999999989              -0.000258351              -0.000375281               0.999999989              -0.000269841              -0.000397995               0.999999989              -0.000281402              -0.000420231               0.999999989              -0.000292801              -0.000441613               0.999999989              -0.000303945              -0.000461677               0.999999989              -0.000314720              -0.000480165               0.999999989              -0.000325167              -0.000497003               0.999999989              -0.000335405              -0.000512151               0.999999989              -0.000188027              -0.000390059               0.999999989              -0.000182648              -0.000337413               0.999999989              -0.000180204              -0.000325116               0.999999989              -0.000181627              -0.000330876               0.999999989              -0.000186182              -0.000345648               0.999999989              -0.000193226              -0.000365662               0.999999989              -0.000202196              -0.000389215               0.999999989              -0.000212545              -0.000415076               0.999999989              -0.000223728              -0.000442069               0.999999989              -0.000235268              -0.000469393               0.999999989              -0.000246791              -0.000496680               0.999999989              -0.000257966              -0.000523237               0.999999989              -0.000268584              -0.000548788               0.999999989              -0.000278665              -0.000573076               0.999999989              -0.000288208              -0.000595880               0.999999989              -0.000297291              -0.000617373               0.999999989              -0.000305915              -0.000637720               0.999999989              -0.000176221              -0.000459184               0.999999989              -0.000158343              -0.000399830               0.999999989              -0.000152623              -0.000388015               0.999999989              -0.000154103              -0.000396471               0.999999989              -0.000159901              -0.000414967               0.999999989              -0.000168400              -0.000439221               0.999999989              -0.000178654              -0.000467371               0.999999989              -0.000190061              -0.000497969               0.999999989              -0.000201974              -0.000529372               0.999999989              -0.000213839              -0.000560955               0.999999989              -0.000225142              -0.000592374               0.999999989              -0.000235605              -0.000622975               0.999999989              -0.000245210              -0.000652423               0.999999989              -0.000254047              -0.000680697               0.999999989              -0.000262200              -0.000707823               0.999999989              -0.000269737              -0.000733960               0.999999989              -0.000276810              -0.000759193               0.999999989              -0.000162781              -0.000523527               0.999999989              -0.000133012              -0.000460077               0.999999989              -0.000125646              -0.000449354               0.999999989              -0.000128395              -0.000460443               0.999999989              -0.000135929              -0.000482440               0.999999989              -0.000146038              -0.000510744               0.999999989              -0.000157765              -0.000543210               0.999999989              -0.000170321              -0.000577899               0.999999989              -0.000182813              -0.000613337               0.999999989              -0.000194646              -0.000648872               0.999999989              -0.000205356              -0.000684141               0.999999989              -0.000214844              -0.000718345               0.999999989              -0.000223201              -0.000751509               0.999999989              -0.000230561              -0.000783823               0.999999989              -0.000237188              -0.000815279               0.999999989              -0.000243259              -0.000846017               0.999999989              -0.000248950              -0.000875975               0.999999989              -0.000148437              -0.000581920               0.999999989              -0.000107752              -0.000517990               0.999999989              -0.000100794              -0.000508462               0.999999989              -0.000105464              -0.000521907               0.999999989              -0.000114988              -0.000547098               0.999999989              -0.000126920              -0.000579205               0.999999989              -0.000140175              -0.000615578               0.999999989              -0.000153678              -0.000654101               0.999999989              -0.000166375              -0.000693374               0.999999989              -0.000177720              -0.000732654               0.999999989              -0.000187472              -0.000771250               0.999999989              -0.000195548              -0.000808959               0.999999989              -0.000202320              -0.000845937               0.999999989              -0.000208177              -0.000882203               0.999999989              -0.000213406              -0.000917827               0.999999989              -0.000218295              -0.000952661               0.999999989              -0.000223009              -0.000986656               0.999999989              -0.000134230              -0.000636429               0.999999989              -0.000087801              -0.000579857               0.999999989              -0.000078071              -0.000566081               0.999999989              -0.000081161              -0.000574127               0.999999989              -0.000089302              -0.000594040               0.999999989              -0.000099791              -0.000621310               0.999999989              -0.000111755              -0.000653297               0.999999989              -0.000124247              -0.000688195               0.999999989              -0.000136262              -0.000724630               0.999999989              -0.000147132              -0.000761668               0.999999989              -0.000156423              -0.000798724               0.999999989              -0.000164044              -0.000835312               0.999999989              -0.000169926              -0.000871423               0.999999989              -0.000174656              -0.000907096               0.999999989              -0.000178690              -0.000942419               0.999999989              -0.000182341              -0.000977131               0.999999989              -0.000185896              -0.001011196               0.999999989              -0.000118320              -0.000685625               0.999999989              -0.000070111              -0.000639012               0.999999989              -0.000057699              -0.000624451               0.999999989              -0.000058642              -0.000628643               0.999999989              -0.000065046              -0.000644170               0.999999989              -0.000073824              -0.000667069               0.999999989              -0.000084217              -0.000695027               0.999999989              -0.000095462              -0.000726312               0.999999989              -0.000106474              -0.000759739               0.999999989              -0.000116591              -0.000794396               0.999999989              -0.000125381              -0.000829532               0.999999989              -0.000132468              -0.000864656               0.999999989              -0.000137662              -0.000899557               0.999999989              -0.000141212              -0.000934108               0.999999989              -0.000143719              -0.000968504               0.999999989              -0.000145578              -0.001002730               0.999999989              -0.000147152              -0.001036716               0.999999989              -0.000101014              -0.000728587               0.999999989              -0.000054547              -0.000693960               0.999999989              -0.000040406              -0.000681139               0.999999989              -0.000039111              -0.000683461               0.999999989              -0.000043454              -0.000695924               0.999999989              -0.000050401              -0.000715339               0.999999989              -0.000058994              -0.000739800               0.999999989              -0.000068583              -0.000767899               0.999999989              -0.000078249              -0.000798534               0.999999989              -0.000087335              -0.000830828               0.999999989              -0.000095349              -0.000864122               0.999999989              -0.000101828              -0.000897737               0.999999989              -0.000106373              -0.000931409               0.999999989              -0.000108895              -0.000964859               0.999999989              -0.000109670              -0.000998196               0.999999989              -0.000109109              -0.001031509               0.999999989              -0.000107618              -0.001064894               0.999999989              -0.000082446              -0.000764639               0.999999989              -0.000040983              -0.000742694               0.999999989              -0.000026538              -0.000733566               0.999999989              -0.000023548              -0.000735768               0.999999989              -0.000025938              -0.000746506               0.999999989              -0.000030959              -0.000763592               0.999999989              -0.000037553              -0.000785462               0.999999989              -0.000045179              -0.000811040               0.999999989              -0.000053162              -0.000839415               0.999999989              -0.000060769              -0.000869754               0.999999989              -0.000067646              -0.000901440               0.999999989              -0.000073266              -0.000933926               0.999999989              -0.000077213              -0.000966766               0.999999989              -0.000078786              -0.000999676               0.999999989              -0.000078010              -0.001032503               0.999999989              -0.000074947              -0.001065222               0.999999989              -0.000069579              -0.001098047               0.999999989              -0.000062811              -0.000793256               0.999999989              -0.000029157              -0.000783103               0.999999989              -0.000016179              -0.000778725               0.999999989              -0.000012425              -0.000782185               0.999999989              -0.000013243              -0.000792489               0.999999989              -0.000016513              -0.000808402               0.999999989              -0.000021072              -0.000828719               0.999999989              -0.000026605              -0.000852547               0.999999989              -0.000032542              -0.000879295               0.999999989              -0.000038389              -0.000908283               0.999999989              -0.000043669              -0.000938954               0.999999989              -0.000047985              -0.000970886               0.999999989              -0.000051030              -0.001003537               0.999999989              -0.000052023              -0.001036637               0.999999989              -0.000050418              -0.001069836               0.999999989              -0.000045784              -0.001102874               0.999999989              -0.000037545              -0.001135812               0.999999989              -0.000042359              -0.000813989               0.999999989              -0.000018700              -0.000813347               0.999999989              -0.000008895              -0.000813635               0.999999989              -0.000005567              -0.000819021               0.999999989              -0.000005444              -0.000829791               0.999999989              -0.000007169              -0.000845452               0.999999989              -0.000010040              -0.000865133               0.999999989              -0.000013429              -0.000888130               0.999999989              -0.000017264              -0.000913883               0.999999989              -0.000021091              -0.000942039               0.999999989              -0.000024605              -0.000972085               0.999999989              -0.000027508              -0.001003645               0.999999989              -0.000029533              -0.001036390               0.999999989              -0.000030117              -0.001069929               0.999999989              -0.000028443              -0.001103965               0.999999989              -0.000023906              -0.001138136               0.999999989              -0.000015556              -0.001172061               0.999999989              -0.000021343              -0.000826474               0.999999989              -0.000009140              -0.000832034               0.999999989              -0.000003858              -0.000835702               0.999999989              -0.000001957              -0.000842811               0.999999989              -0.000001568              -0.000854386               0.999999989              -0.000002281              -0.000870236               0.999999989              -0.000003614              -0.000889807               0.999999989              -0.000005231              -0.000912523               0.999999989              -0.000007021              -0.000937933               0.999999989              -0.000008887              -0.000965626               0.999999989              -0.000010624              -0.000995289               0.999999989              -0.000012155              -0.001026669               0.999999989              -0.000013145              -0.001059454               0.999999989              -0.000013343              -0.001093496               0.999999989              -0.000012283              -0.001128386               0.999999989              -0.000009441              -0.001163556               0.999999989              -0.000004208              -0.001198522               0.999999989              -0.000000000              -0.000830637               0.999999989              -0.000000000              -0.000838338               0.999999989              -0.000000000              -0.000843217               0.999999989               0.000000000              -0.000851083               0.999999989              -0.000000000              -0.000863071               0.999999989               0.000000000              -0.000879050               0.999999989               0.000000000              -0.000898625               0.999999989               0.000000000              -0.000921267               0.999999989               0.000000000              -0.000946554               0.999999989              -0.000000000              -0.000974093               0.999999989              -0.000000000              -0.001003646               0.999999989               0.000000000              -0.001034978               0.999999989              -0.000000000              -0.001067940               0.999999989               0.000000000              -0.001102211               0.999999989              -0.000000000              -0.001137402               0.999999989              -0.000000000              -0.001173040               0.999999989               0.000000000              -0.001208433               0.999999989               0.000216197              -0.000000000               0.999999989               0.000248449               0.000000000               0.999999989               0.000263422               0.000000000               0.999999989               0.000272068               0.000000000               0.999999989               0.000278691              -0.000000000               0.999999989               0.000285121               0.000000000               0.999999989               0.000292088               0.000000000               0.999999989               0.000299905               0.000000000               0.999999989               0.000308910               0.000000000               0.999999989               0.000319214              -0.000000000               0.999999989               0.000330808               0.000000000               0.999999989               0.000343562              -0.000000000               0.999999989               0.000357332               0.000000000               0.999999989               0.000371946              -0.000000000               0.999999989               0.000387147               0.000000000               0.999999989               0.000402663               0.000000000               0.999999989               0.000418195              -0.000000000               0.999999989               0.000215039              -0.000081360               0.999999989               0.000245499              -0.000069801               0.999999989               0.000259416              -0.000065728               0.999999989               0.000267516              -0.000065639               0.999999989               0.000273790              -0.000067803               0.999999989               0.000279989              -0.000071285               0.999999989               0.000286924              -0.000075593               0.999999989               0.000294905              -0.000080700               0.999999989               0.000304103              -0.000086362               0.999999989               0.000314505              -0.000092389               0.999999989               0.000326106              -0.000098506               0.999999989               0.000338823              -0.000104554               0.999999989               0.000352504              -0.000110355               0.999999989               0.000366895              -0.000115679               0.999999989               0.000381725              -0.000120253               0.999999989               0.000396781              -0.000123730               0.999999989               0.000411806              -0.000125921               0.999999989               0.000211530              -0.000161878               0.999999989               0.000236826              -0.000138880               0.999999989               0.000247769              -0.000131314               0.999999989               0.000254286              -0.000131605               0.999999989               0.000259813              -0.000136217               0.999999989               0.000265763              -0.000143376               0.999999989               0.000272738              -0.000152338               0.999999989               0.000281012              -0.000162546               0.999999989               0.000290527              -0.000173783               0.999999989               0.000301129              -0.000185652               0.999999989               0.000312750              -0.000197711               0.999999989               0.000325187              -0.000209604               0.999999989               0.000338245              -0.000221142               0.999999989               0.000351706              -0.000231737               0.999999989               0.000365362              -0.000240896               0.999999989               0.000379087              -0.000248344               0.999999989               0.000392703              -0.000253458               0.999999989               0.000205744              -0.000240698               0.999999989               0.000222907              -0.000206745               0.999999989               0.000229596              -0.000196533               0.999999989               0.000234038              -0.000197965               0.999999989               0.000238755              -0.000205534               0.999999989               0.000244565              -0.000216778               0.999999989               0.000251797              -0.000230520               0.999999989               0.000260495              -0.000246025               0.999999989               0.000270454              -0.000262718               0.999999989               0.000281334              -0.000280133               0.999999989               0.000292906              -0.000297739               0.999999989               0.000304827              -0.000315185               0.999999989               0.000316950              -0.000331971               0.999999989               0.000329122              -0.000347513               0.999999989               0.000341172              -0.000361411               0.999999989               0.000353107              -0.000373456               0.999999989               0.000364946              -0.000383155               0.999999989               0.000197907              -0.000316985               0.999999989               0.000204546              -0.000273008               0.999999989               0.000206491              -0.000261193               0.999999989               0.000209051              -0.000264522               0.999999989               0.000213290              -0.000275554               0.999999989               0.000219371              -0.000291104               0.999999989               0.000227276              -0.000309797               0.999999989               0.000236648              -0.000330617               0.999999989               0.000247159              -0.000352639               0.999999989               0.000258351              -0.000375281               0.999999989               0.000269841              -0.000397995               0.999999989               0.000281402              -0.000420231               0.999999989               0.000292801              -0.000441613               0.999999989               0.000303945              -0.000461677               0.999999989               0.000314720              -0.000480165               0.999999989               0.000325167              -0.000497003               0.999999989               0.000335405              -0.000512151               0.999999989               0.000188027              -0.000390059               0.999999989               0.000182648              -0.000337413               0.999999989               0.000180204              -0.000325116               0.999999989               0.000181627              -0.000330876               0.999999989               0.000186182              -0.000345648               0.999999989               0.000193226              -0.000365662               0.999999989               0.000202196              -0.000389215               0.999999989               0.000212545              -0.000415076               0.999999989               0.000223728              -0.000442069               0.999999989               0.000235268              -0.000469393               0.999999989               0.000246791              -0.000496680               0.999999989               0.000257966              -0.000523237               0.999999989               0.000268584              -0.000548788               0.999999989               0.000278665              -0.000573076               0.999999989               0.000288208              -0.000595880               0.999999989               0.000297291              -0.000617373               0.999999989               0.000305915              -0.000637720               0.999999989               0.000176221              -0.000459184               0.999999989               0.000158343              -0.000399830               0.999999989               0.000152623              -0.000388015               0.999999989               0.000154103              -0.000396471               0.999999989               0.000159901              -0.000414967               0.999999989               0.000168400              -0.000439221               0.999999989               0.000178654              -0.000467371               0.999999989               0.000190061              -0.000497969               0.999999989               0.000201974              -0.000529372               0.999999989               0.000213839              -0.000560955               0.999999989               0.000225142              -0.000592374               0.999999989               0.000235605              -0.000622975               0.999999989               0.000245210              -0.000652423               0.999999989               0.000254047              -0.000680697               0.999999989               0.000262200              -0.000707823               0.999999989               0.000269737              -0.000733960               0.999999989               0.000276810              -0.000759193               0.999999989               0.000162781              -0.000523527               0.999999989               0.000133012              -0.000460077               0.999999989               0.000125646              -0.000449354               0.999999989               0.000128395              -0.000460443               0.999999989               0.000135929              -0.000482440               0.999999989               0.000146038              -0.000510744               0.999999989               0.000157765              -0.000543210               0.999999989               0.000170321              -0.000577899               0.999999989               0.000182813              -0.000613337               0.999999989               0.000194646              -0.000648872               0.999999989               0.000205356              -0.000684141               0.999999989               0.000214844              -0.000718345               0.999999989               0.000223201              -0.000751509               0.999999989               0.000230561              -0.000783823               0.999999989               0.000237188              -0.000815279               0.999999989               0.000243259              -0.000846017               0.999999989               0.000248950              -0.000875975               0.999999989               0.000148437              -0.000581920               0.999999989               0.000107752              -0.000517990               0.999999989               0.000100794              -0.000508462               0.999999989               0.000105464              -0.000521907               0.999999989               0.000114988              -0.000547098               0.999999989               0.000126920              -0.000579205               0.999999989               0.000140175              -0.000615578               0.999999989               0.000153678              -0.000654101               0.999999989               0.000166375              -0.000693374               0.999999989               0.000177720              -0.000732654               0.999999989               0.000187472              -0.000771250               0.999999989               0.000195548              -0.000808959               0.999999989               0.000202320              -0.000845937               0.999999989               0.000208177              -0.000882203               0.999999989               0.000213406              -0.000917827               0.999999989               0.000218295              -0.000952661               0.999999989               0.000223009              -0.000986656               0.999999989               0.000134230              -0.000636429               0.999999989               0.000087801              -0.000579857               0.999999989               0.000078071              -0.000566081               0.999999989               0.000081161              -0.000574127               0.999999989               0.000089302              -0.000594040               0.999999989               0.000099791              -0.000621310               0.999999989               0.000111755              -0.000653297               0.999999989               0.000124247              -0.000688195               0.999999989               0.000136262              -0.000724630               0.999999989               0.000147132              -0.000761668               0.999999989               0.000156423              -0.000798724               0.999999989               0.000164044              -0.000835312               0.999999989               0.000169926              -0.000871423               0.999999989               0.000174656              -0.000907096               0.999999989               0.000178690              -0.000942419               0.999999989               0.000182341              -0.000977131               0.999999989               0.000185896              -0.001011196               0.999999989               0.000118320              -0.000685625               0.999999989               0.000070111              -0.000639012               0.999999989               0.000057699              -0.000624451               0.999999989               0.000058642              -0.000628643               0.999999989               0.000065046              -0.000644170               0.999999989               0.000073824              -0.000667069               0.999999989               0.000084217              -0.000695027               0.999999989               0.000095462              -0.000726312               0.999999989               0.000106474              -0.000759739               0.999999989               0.000116591              -0.000794396               0.999999989               0.000125381              -0.000829532               0.999999989               0.000132468              -0.000864656               0.999999989               0.000137662              -0.000899557               0.999999989               0.000141212              -0.000934108               0.999999989               0.000143719              -0.000968504               0.999999989               0.000145578              -0.001002730               0.999999989               0.000147152              -0.001036716               0.999999989               0.000101014              -0.000728587               0.999999989               0.000054547              -0.000693960               0.999999989               0.000040406              -0.000681139               0.999999989               0.000039111              -0.000683461               0.999999989               0.000043454              -0.000695924               0.999999989               0.000050401              -0.000715339               0.999999989               0.000058994              -0.000739800               0.999999989               0.000068583              -0.000767899               0.999999989               0.000078249              -0.000798534               0.999999989               0.000087335              -0.000830828               0.999999989               0.000095349              -0.000864122               0.999999989               0.000101828              -0.000897737               0.999999989               0.000106373              -0.000931409               0.999999989               0.000108895              -0.000964859               0.999999989               0.000109670              -0.000998196               0.999999989               0.000109109              -0.001031509               0.999999989               0.000107618              -0.001064894               0.999999989               0.000082446              -0.000764639               0.999999989               0.000040983              -0.000742694               0.999999989               0.000026538              -0.000733566               0.999999989               0.000023548              -0.000735768               0.999999989               0.000025938              -0.000746506               0.999999989               0.000030959              -0.000763592               0.999999989               0.000037553              -0.000785462               0.999999989               0.000045179              -0.000811040               0.999999989               0.000053162              -0.000839415               0.999999989               0.000060769              -0.000869754               0.999999989               0.000067646              -0.000901440               0.999999989               0.000073266              -0.000933926               0.999999989               0.000077213              -0.000966766               0.999999989               0.000078786              -0.000999676               0.999999989               0.000078010              -0.001032503               0.999999989               0.000074947              -0.001065222               0.999999989               0.000069579              -0.001098047               0.999999989               0.000062811              -0.000793256               0.999999989               0.000029157              -0.000783103               0.999999989               0.000016179              -0.000778725               0.999999989               0.000012425              -0.000782185               0.999999989               0.000013243              -0.000792489               0.999999989               0.000016513              -0.000808402               0.999999989               0.000021072              -0.000828719               0.999999989               0.000026605              -0.000852547               0.999999989               0.000032542              -0.000879295               0.999999989               0.000038389              -0.000908283               0.999999989               0.000043669              -0.000938954               0.999999989               0.000047985              -0.000970886               0.999999989               0.000051030              -0.001003537               0.999999989               0.000052023              -0.001036637               0.999999989               0.000050418              -0.001069836               0.999999989               0.000045784              -0.001102874               0.999999989               0.000037545              -0.001135812               0.999999989               0.000042359              -0.000813989               0.999999989               0.000018700              -0.000813347               0.999999989               0.000008895              -0.000813635               0.999999989               0.000005567              -0.000819021               0.999999989               0.000005444              -0.000829791               0.999999989               0.000007169              -0.000845452               0.999999989               0.000010040              -0.000865133               0.999999989               0.000013429              -0.000888130               0.999999989               0.000017264              -0.000913883               0.999999989               0.000021091              -0.000942039               0.999999989               0.000024605              -0.000972085               0.999999989               0.000027508              -0.001003645               0.999999989               0.000029533              -0.001036390               0.999999989               0.000030117              -0.001069929               0.999999989               0.000028443              -0.001103965               0.999999989               0.000023906              -0.001138136               0.999999989               0.000015556              -0.001172061               0.999999989               0.000021343              -0.000826474               0.999999989               0.000009140              -0.000832034               0.999999989               0.000003858              -0.000835702               0.999999989               0.000001957              -0.000842811               0.999999989               0.000001568              -0.000854386               0.999999989               0.000002281              -0.000870236               0.999999989               0.000003614              -0.000889807               0.999999989               0.000005231              -0.000912523               0.999999989               0.000007021              -0.000937933               0.999999989               0.000008887              -0.000965626               0.999999989               0.000010624              -0.000995289               0.999999989               0.000012155              -0.001026669               0.999999989               0.000013145              -0.001059454               0.999999989               0.000013343              -0.001093496               0.999999989               0.000012283              -0.001128386               0.999999989               0.000009441              -0.001163556               0.999999989               0.000004208              -0.001198522               0.999999989              -0.000000000              -0.000830637               0.999999989              -0.000000000              -0.000838338               0.999999989              -0.000000000              -0.000843217               0.999999989               0.000000000              -0.000851083               0.999999989              -0.000000000              -0.000863071               0.999999989               0.000000000              -0.000879050               0.999999989               0.000000000              -0.000898625               0.999999989               0.000000000              -0.000921267               0.999999989               0.000000000              -0.000946554               0.999999989              -0.000000000              -0.000974093               0.999999989              -0.000000000              -0.001003646               0.999999989               0.000000000              -0.001034978               0.999999989              -0.000000000              -0.001067940               0.999999989               0.000000000              -0.001102211               0.999999989              -0.000000000              -0.001137402               0.999999989              -0.000000000              -0.001173040               0.999999989               0.000000000              -0.001208433               0.999999989               0.000216197              -0.000000000               0.999999989               0.000248449               0.000000000               0.999999989               0.000263422               0.000000000               0.999999989               0.000272068               0.000000000               0.999999989               0.000278691              -0.000000000               0.999999989               0.000285121               0.000000000               0.999999989               0.000292088               0.000000000               0.999999989               0.000299905               0.000000000               0.999999989               0.000308910               0.000000000               0.999999989               0.000319214              -0.000000000               0.999999989               0.000330808               0.000000000               0.999999989               0.000343562              -0.000000000               0.999999989               0.000357332               0.000000000               0.999999989               0.000371946              -0.000000000               0.999999989               0.000387147               0.000000000               0.999999989               0.000402663               0.000000000               0.999999989               0.000418195              -0.000000000               0.999999989               0.000215039               0.000081360               0.999999989               0.000245499               0.000069801               0.999999989               0.000259416               0.000065728               0.999999989               0.000267516               0.000065639               0.999999989               0.000273790               0.000067803               0.999999989               0.000279989               0.000071285               0.999999989               0.000286924               0.000075593               0.999999989               0.000294905               0.000080700               0.999999989               0.000304103               0.000086362               0.999999989               0.000314505               0.000092389               0.999999989               0.000326106               0.000098506               0.999999989               0.000338823               0.000104554               0.999999989               0.000352504               0.000110355               0.999999989               0.000366895               0.000115679               0.999999989               0.000381725               0.000120253               0.999999989               0.000396781               0.000123730               0.999999989               0.000411806               0.000125921               0.999999989               0.000211530               0.000161878               0.999999989               0.000236826               0.000138880               0.999999989               0.000247769               0.000131314               0.999999989               0.000254286               0.000131605               0.999999989               0.000259813               0.000136217               0.999999989               0.000265763               0.000143376               0.999999989               0.000272738               0.000152338               0.999999989               0.000281012               0.000162546               0.999999989               0.000290527               0.000173783               0.999999989               0.000301129               0.000185652               0.999999989               0.000312750               0.000197711               0.999999989               0.000325187               0.000209604               0.999999989               0.000338245               0.000221142               0.999999989               0.000351706               0.000231737               0.999999989               0.000365362               0.000240896               0.999999989               0.000379087               0.000248344               0.999999989               0.000392703               0.000253458               0.999999989               0.000205744               0.000240698               0.999999989               0.000222907               0.000206745               0.999999989               0.000229596               0.000196533               0.999999989               0.000234038               0.000197965               0.999999989               0.000238755               0.000205534               0.999999989               0.000244565               0.000216778               0.999999989               0.000251797               0.000230520               0.999999989               0.000260495               0.000246025               0.999999989               0.000270454               0.000262718               0.999999989               0.000281334               0.000280133               0.999999989               0.000292906               0.000297739               0.999999989               0.000304827               0.000315185               0.999999989               0.000316950               0.000331971               0.999999989               0.000329122               0.000347513               0.999999989               0.000341172               0.000361411               0.999999989               0.000353107               0.000373456               0.999999989               0.000364946               0.000383155               0.999999989               0.000197907               0.000316985               0.999999989               0.000204546               0.000273008               0.999999989               0.000206491               0.000261193               0.999999989               0.000209051               0.000264522               0.999999989               0.000213290               0.000275554               0.999999989               0.000219371               0.000291104               0.999999989               0.000227276               0.000309797               0.999999989               0.000236648               0.000330617               0.999999989               0.000247159               0.000352639               0.999999989               0.000258351               0.000375281               0.999999989               0.000269841               0.000397995               0.999999989               0.000281402               0.000420231               0.999999989               0.000292801               0.000441613               0.999999989               0.000303945               0.000461677               0.999999989               0.000314720               0.000480165               0.999999989               0.000325167               0.000497003               0.999999989               0.000335405               0.000512151               0.999999989               0.000188027               0.000390059               0.999999989               0.000182648               0.000337413               0.999999989               0.000180204               0.000325116               0.999999989               0.000181627               0.000330876               0.999999989               0.000186182               0.000345648               0.999999989               0.000193226               0.000365662               0.999999989               0.000202196               0.000389215               0.999999989               0.000212545               0.000415076               0.999999989               0.000223728               0.000442069               0.999999989               0.000235268               0.000469393               0.999999989               0.000246791               0.000496680               0.999999989               0.000257966               0.000523237               0.999999989               0.000268584               0.000548788               0.999999989               0.000278665               0.000573076               0.999999989               0.000288208               0.000595880               0.999999989               0.000297291               0.000617373               0.999999989               0.000305915               0.000637720               0.999999989               0.000176221               0.000459184               0.999999989               0.000158343               0.000399830               0.999999989               0.000152623               0.000388015               0.999999989               0.000154103               0.000396471               0.999999989               0.000159901               0.000414967               0.999999989               0.000168400               0.000439221               0.999999989               0.000178654               0.000467371               0.999999989               0.000190061               0.000497969               0.999999989               0.000201974               0.000529372               0.999999989               0.000213839               0.000560955               0.999999989               0.000225142               0.000592374               0.999999989               0.000235605               0.000622975               0.999999989               0.000245210               0.000652423               0.999999989               0.000254047               0.000680697               0.999999989               0.000262200               0.000707823               0.999999989               0.000269737               0.000733960               0.999999989               0.000276810               0.000759193               0.999999989               0.000162781               0.000523527               0.999999989               0.000133012               0.000460077               0.999999989               0.000125646               0.000449354               0.999999989               0.000128395               0.000460443               0.999999989               0.000135929               0.000482440               0.999999989               0.000146038               0.000510744               0.999999989               0.000157765               0.000543210               0.999999989               0.000170321               0.000577899               0.999999989               0.000182813               0.000613337               0.999999989               0.000194646               0.000648872               0.999999989               0.000205356               0.000684141               0.999999989               0.000214844               0.000718345               0.999999989               0.000223201               0.000751509               0.999999989               0.000230561               0.000783823               0.999999989               0.000237188               0.000815279               0.999999989               0.000243259               0.000846017               0.999999989               0.000248950               0.000875975               0.999999989               0.000148437               0.000581920               0.999999989               0.000107752               0.000517990               0.999999989               0.000100794               0.000508462               0.999999989               0.000105464               0.000521907               0.999999989               0.000114988               0.000547098               0.999999989               0.000126920               0.000579205               0.999999989               0.000140175               0.000615578               0.999999989               0.000153678               0.000654101               0.999999989               0.000166375               0.000693374               0.999999989               0.000177720               0.000732654               0.999999989               0.000187472               0.000771250               0.999999989               0.000195548               0.000808959               0.999999989               0.000202320               0.000845937               0.999999989               0.000208177               0.000882203               0.999999989               0.000213406               0.000917827               0.999999989               0.000218295               0.000952661               0.999999989               0.000223009               0.000986656               0.999999989               0.000134230               0.000636429               0.999999989               0.000087801               0.000579857               0.999999989               0.000078071               0.000566081               0.999999989               0.000081161               0.000574127               0.999999989               0.000089302               0.000594040               0.999999989               0.000099791               0.000621310               0.999999989               0.000111755               0.000653297               0.999999989               0.000124247               0.000688195               0.999999989               0.000136262               0.000724630               0.999999989               0.000147132               0.000761668               0.999999989               0.000156423               0.000798724               0.999999989               0.000164044               0.000835312               0.999999989               0.000169926               0.000871423               0.999999989               0.000174656               0.000907096               0.999999989               0.000178690               0.000942419               0.999999989               0.000182341               0.000977131               0.999999989               0.000185896               0.001011196               0.999999989               0.000118320               0.000685625               0.999999989               0.000070111               0.000639012               0.999999989               0.000057699               0.000624451               0.999999989               0.000058642               0.000628643               0.999999989               0.000065046               0.000644170               0.999999989               0.000073824               0.000667069               0.999999989               0.000084217               0.000695027               0.999999989               0.000095462               0.000726312               0.999999989               0.000106474               0.000759739               0.999999989               0.000116591               0.000794396               0.999999989               0.000125381               0.000829532               0.999999989               0.000132468               0.000864656               0.999999989               0.000137662               0.000899557               0.999999989               0.000141212               0.000934108               0.999999989               0.000143719               0.000968504               0.999999989               0.000145578               0.001002730               0.999999989               0.000147152               0.001036716               0.999999989               0.000101014               0.000728587               0.999999989               0.000054547               0.000693960               0.999999989               0.000040406               0.000681139               0.999999989               0.000039111               0.000683461               0.999999989               0.000043454               0.000695924               0.999999989               0.000050401               0.000715339               0.999999989               0.000058994               0.000739800               0.999999989               0.000068583               0.000767899               0.999999989               0.000078249               0.000798534               0.999999989               0.000087335               0.000830828               0.999999989               0.000095349               0.000864122               0.999999989               0.000101828               0.000897737               0.999999989               0.000106373               0.000931409               0.999999989               0.000108895               0.000964859               0.999999989               0.000109670               0.000998196               0.999999989               0.000109109               0.001031509               0.999999989               0.000107618               0.001064894               0.999999989               0.000082446               0.000764639               0.999999989               0.000040983               0.000742694               0.999999989               0.000026538               0.000733566               0.999999989               0.000023548               0.000735768               0.999999989               0.000025938               0.000746506               0.999999989               0.000030959               0.000763592               0.999999989               0.000037553               0.000785462               0.999999989               0.000045179               0.000811040               0.999999989               0.000053162               0.000839415               0.999999989               0.000060769               0.000869754               0.999999989               0.000067646               0.000901440               0.999999989               0.000073266               0.000933926               0.999999989               0.000077213               0.000966766               0.999999989               0.000078786               0.000999676               0.999999989               0.000078010               0.001032503               0.999999989               0.000074947               0.001065222               0.999999989               0.000069579               0.001098047               0.999999989               0.000062811               0.000793256               0.999999989               0.000029157               0.000783103               0.999999989               0.000016179               0.000778725               0.999999989               0.000012425               0.000782185               0.999999989               0.000013243               0.000792489               0.999999989               0.000016513               0.000808402               0.999999989               0.000021072               0.000828719               0.999999989               0.000026605               0.000852547               0.999999989               0.000032542               0.000879295               0.999999989               0.000038389               0.000908283               0.999999989               0.000043669               0.000938954               0.999999989               0.000047985               0.000970886               0.999999989               0.000051030               0.001003537               0.999999989               0.000052023               0.001036637               0.999999989               0.000050418               0.001069836               0.999999989               0.000045784               0.001102874               0.999999989               0.000037545               0.001135812               0.999999989               0.000042359               0.000813989               0.999999989               0.000018700               0.000813347               0.999999989               0.000008895               0.000813635               0.999999989               0.000005567               0.000819021               0.999999989               0.000005444               0.000829791               0.999999989               0.000007169               0.000845452               0.999999989               0.000010040               0.000865133               0.999999989               0.000013429               0.000888130               0.999999989               0.000017264               0.000913883               0.999999989               0.000021091               0.000942039               0.999999989               0.000024605               0.000972085               0.999999989               0.000027508               0.001003645               0.999999989               0.000029533               0.001036390               0.999999989               0.000030117               0.001069929               0.999999989               0.000028443               0.001103965               0.999999989               0.000023906               0.001138136               0.999999989               0.000015556               0.001172061               0.999999989               0.000021343               0.000826474               0.999999989               0.000009140               0.000832034               0.999999989               0.000003858               0.000835702               0.999999989               0.000001957               0.000842811               0.999999989               0.000001568               0.000854386               0.999999989               0.000002281               0.000870236               0.999999989               0.000003614               0.000889807               0.999999989               0.000005231               0.000912523               0.999999989               0.000007021               0.000937933               0.999999989               0.000008887               0.000965626               0.999999989               0.000010624               0.000995289               0.999999989               0.000012155               0.001026669               0.999999989               0.000013145               0.001059454               0.999999989               0.000013343               0.001093496               0.999999989               0.000012283               0.001128386               0.999999989               0.000009441               0.001163556               0.999999989               0.000004208               0.001198522               0.999999989               0.000000000               0.000830637               0.999999989               0.000000000               0.000838338               0.999999989              -0.000000000               0.000843217               0.999999989               0.000000000               0.000851083               0.999999989              -0.000000000               0.000863071               0.999999989              -0.000000000               0.000879050               0.999999989              -0.000000000               0.000898625               0.999999989               0.000000000               0.000921267               0.999999989              -0.000000000               0.000946554               0.999999989               0.000000000               0.000974093               0.999999989               0.000000000               0.001003646               0.999999989               0.000000000               0.001034978               0.999999989              -0.000000000               0.001067940               0.999999989              -0.000000000               0.001102211               0.999999989               0.000000000               0.001137402               0.999999989              -0.000000000               0.001173040               0.999999989              -0.000000000               0.001208433               0.999999989 </DataArray>
<DataArray type="Float64"                                    Name="stress"                                                      NumberOfComponents="10" format="ascii">
              0.001345291               0.015092427              -0.000000000              -0.001382066               0.005491447               0.004109381               0.000000000               0.000000000               0.000000000               0.000000000               0.001421827               0.012190703              -0.000000000              -0.000990650               0.004393744               0.003403093               0.000000000               0.000000000               0.000000000               0.000000000               0.001936372               0.009842999              -0.000000000              -0.000504234               0.003449045               0.002944811               0.000000000               0.000000000               0.000000000               0.000000000               0.001957376               0.008535518               0.000000000              -0.000332923               0.002956119               0.002623196               0.000000000               0.000000000               0.000000000               0.000000000               0.001811153               0.007740642               0.000000000              -0.000288397               0.002676321               0.002387923               0.000000000               0.000000000               0.000000000               0.000000000               0.001610993               0.007219077               0.000000000              -0.000298261               0.002505756               0.002207494               0.000000000               0.000000000               0.000000000               0.000000000               0.001404668               0.006860371               0.000000000              -0.000330795               0.002397032               0.002066237               0.000000000               0.000000000               0.000000000               0.000000000               0.001201257               0.006612782               0.000000000              -0.000376126               0.002329614               0.001953488               0.000000000               0.000000000               0.000000000               0.000000000               0.001000784               0.006435232              -0.000000000              -0.000429109               0.002288092               0.001858983               0.000000000               0.000000000               0.000000000               0.000000000               0.000810713               0.006300714               0.000000000              -0.000483571               0.002261407               0.001777837               0.000000000               0.000000000               0.000000000               0.000000000               0.000634512               0.006187376              -0.000000000              -0.000535479               0.002240931               0.001705452               0.000000000               0.000000000               0.000000000               0.000000000               0.000476140               0.006083038              -0.000000000              -0.000581826               0.002221601               0.001639775               0.000000000               0.000000000               0.000000000               0.000000000               0.000337442               0.005978003              -0.000000000              -0.000620708               0.002199550               0.001578842               0.000000000               0.000000000               0.000000000               0.000000000               0.000221969               0.005863284              -0.000000000              -0.000649671               0.002170965               0.001521295               0.000000000               0.000000000               0.000000000               0.000000000               0.000129294               0.005728452               0.000000000              -0.000667570               0.002131988               0.001464418               0.000000000               0.000000000               0.000000000               0.000000000               0.000057680               0.005563439               0.000000000              -0.000673798               0.002079060               0.001405262               0.000000000               0.000000000               0.000000000               0.000000000               0.000014940               0.005436015              -0.000000000              -0.000673898               0.002036619               0.001362722               0.000000000               0.000000000               0.000000000               0.000000000               0.001414157               0.014812374              -0.001089628              -0.001321235               0.005377820               0.004056585               0.000000000               0.000000000               0.000000000               0.000000000               0.001422484               0.011997636              -0.000633169              -0.000966271               0.004321262               0.003354992               0.000000000               0.000000000               0.000000000               0.000000000               0.001864754               0.009749318              -0.000172172              -0.000519381               0.003422867               0.002903486               0.000000000               0.000000000               0.000000000               0.000000000               0.001858664               0.008495023               0.000031362              -0.000364878               0.002953272               0.002588394               0.000000000               0.000000000               0.000000000               0.000000000               0.001707301               0.007726828               0.000122241              -0.000325615               0.002684122               0.002358507               0.000000000               0.000000000               0.000000000               0.000000000               0.001506439               0.007219562               0.000161032              -0.000337530               0.002519007               0.002181477               0.000000000               0.000000000               0.000000000               0.000000000               0.001298674               0.006871209               0.000177141              -0.000371897               0.002414346               0.002042449               0.000000000               0.000000000               0.000000000               0.000000000               0.001097532               0.006623582               0.000181790              -0.000416372               0.002346629               0.001930257               0.000000000               0.000000000               0.000000000               0.000000000               0.000909060               0.006444028               0.000179256              -0.000464605               0.002302856               0.001838251               0.000000000               0.000000000               0.000000000               0.000000000               0.000733723               0.006306135               0.000171659              -0.000513119               0.002273064               0.001759944               0.000000000               0.000000000               0.000000000               0.000000000               0.000570239               0.006189097               0.000160357              -0.000559796               0.002249610               0.001689814               0.000000000               0.000000000               0.000000000               0.000000000               0.000423017               0.006081585               0.000147773              -0.000601565               0.002227696               0.001626131               0.000000000               0.000000000               0.000000000               0.000000000               0.000297382               0.005977135               0.000131813              -0.000635622               0.002204232               0.001568610               0.000000000               0.000000000               0.000000000               0.000000000               0.000195728               0.005864684               0.000110020              -0.000659686               0.002174771               0.001515085               0.000000000               0.000000000               0.000000000               0.000000000               0.000113815               0.005734432               0.000080996              -0.000674122               0.002136165               0.001462044               0.000000000               0.000000000               0.000000000               0.000000000               0.000050442               0.005581634               0.000043997              -0.000678787               0.002086788               0.001408002               0.000000000               0.000000000               0.000000000               0.000000000               0.000011862               0.005464698               0.000026614              -0.000678637               0.002047760               0.001369123               0.000000000               0.000000000               0.000000000               0.000000000               0.001591062               0.014008098              -0.002049365              -0.001154362               0.005054106               0.003899744               0.000000000               0.000000000               0.000000000               0.000000000               0.001415673               0.011452509              -0.001194012              -0.000900684               0.004117693               0.003217009               0.000000000               0.000000000               0.000000000               0.000000000               0.001662279               0.009481343              -0.000335492              -0.000561812               0.003347687               0.002785875               0.000000000               0.000000000               0.000000000               0.000000000               0.001580313               0.008370770               0.000033495              -0.000453728               0.002941471               0.002487744               0.000000000               0.000000000               0.000000000               0.000000000               0.001408611               0.007675729               0.000193707              -0.000431236               0.002702296               0.002271060               0.000000000               0.000000000               0.000000000               0.000000000               0.001212615               0.007209959               0.000263088              -0.000446513               0.002552133               0.002105620               0.000000000               0.000000000               0.000000000               0.000000000               0.001015815               0.006884270               0.000291500              -0.000479602               0.002454601               0.001974999               0.000000000               0.000000000               0.000000000               0.000000000               0.000832350               0.006644208               0.000300665              -0.000518393               0.002387512               0.001869118               0.000000000               0.000000000               0.000000000               0.000000000               0.000673201               0.006461208               0.000299992              -0.000555199               0.002338781               0.001783581               0.000000000               0.000000000               0.000000000               0.000000000               0.000531607               0.006313107               0.000290020              -0.000589784               0.002300943               0.001711158               0.000000000               0.000000000               0.000000000               0.000000000               0.000405546               0.006186270               0.000273677              -0.000621203               0.002269137               0.001647934               0.000000000               0.000000000               0.000000000               0.000000000               0.000297788               0.006072769               0.000255855              -0.000647424               0.002240044               0.001592620               0.000000000               0.000000000               0.000000000               0.000000000               0.000207003               0.005962921               0.000230970              -0.000667737               0.002210200               0.001542462               0.000000000               0.000000000               0.000000000               0.000000000               0.000134677               0.005850098               0.000192975              -0.000680757               0.002176932               0.001496175               0.000000000               0.000000000               0.000000000               0.000000000               0.000076169               0.005731962               0.000145044              -0.000687930               0.002139945               0.001452015               0.000000000               0.000000000               0.000000000               0.000000000               0.000031104               0.005610713               0.000082252              -0.000689673               0.002100110               0.001410437               0.000000000               0.000000000               0.000000000               0.000000000               0.000004052               0.005526554               0.000049542              -0.000689298               0.002071932               0.001382634               0.000000000               0.000000000               0.000000000               0.000000000               0.001815351               0.012780142              -0.002779869              -0.000916761               0.004565591               0.003648830               0.000000000               0.000000000               0.000000000               0.000000000               0.001381085               0.010634634              -0.001632787              -0.000811421               0.003815316               0.003003895               0.000000000               0.000000000               0.000000000               0.000000000               0.001351769               0.009074909              -0.000490794              -0.000627449               0.003234089               0.002606640               0.000000000               0.000000000               0.000000000               0.000000000               0.001176027               0.008166009              -0.000017646              -0.000579740               0.002915222               0.002335483               0.000000000               0.000000000               0.000000000               0.000000000               0.000986469               0.007573874               0.000184411              -0.000576807               0.002716868               0.002140061               0.000000000               0.000000000               0.000000000               0.000000000               0.000805097               0.007162312               0.000273839              -0.000593376               0.002585205               0.001991829               0.000000000               0.000000000               0.000000000               0.000000000               0.000637201               0.006864672               0.000312409              -0.000619132               0.002494578               0.001875446               0.000000000               0.000000000               0.000000000               0.000000000               0.000490055               0.006639319               0.000326006              -0.000646143               0.002428465               0.001782322               0.000000000               0.000000000               0.000000000               0.000000000               0.000371244               0.006455264               0.000327105              -0.000667690               0.002374296               0.001706606               0.000000000               0.000000000               0.000000000               0.000000000               0.000276610               0.006296970               0.000319135              -0.000683391               0.002326766               0.001643375               0.000000000               0.000000000               0.000000000               0.000000000               0.000202696               0.006156712               0.000304791              -0.000693576               0.002283409               0.001589833               0.000000000               0.000000000               0.000000000               0.000000000               0.000146041               0.006027086               0.000284666              -0.000698619               0.002241882               0.001543263               0.000000000               0.000000000               0.000000000               0.000000000               0.000098487               0.005901415               0.000252991              -0.000700743               0.002200700               0.001499957               0.000000000               0.000000000               0.000000000               0.000000000               0.000064281               0.005783985               0.000207513              -0.000698891               0.002160940               0.001462048               0.000000000               0.000000000               0.000000000               0.000000000               0.000038644               0.005678432               0.000153045              -0.000695311               0.002124562               0.001429251               0.000000000               0.000000000               0.000000000               0.000000000               0.000015389               0.005587787               0.000085284              -0.000692701               0.002093477               0.001400777               0.000000000               0.000000000               0.000000000               0.000000000               0.000000839               0.005538656               0.000049263              -0.000692015               0.002076872               0.001384857               0.000000000               0.000000000               0.000000000               0.000000000               0.002007312               0.011272294              -0.003222632              -0.000656296               0.003976158               0.003319862               0.000000000               0.000000000               0.000000000               0.000000000               0.001293808               0.009643334              -0.001924774              -0.000720238               0.003454491               0.002734253               0.000000000               0.000000000               0.000000000               0.000000000               0.000966160               0.008580399              -0.000642241              -0.000710238               0.003096850               0.002386612               0.000000000               0.000000000               0.000000000               0.000000000               0.000713590               0.007894122              -0.000129072              -0.000719167               0.002871070               0.002151903               0.000000000               0.000000000               0.000000000               0.000000000               0.000527854               0.007411688               0.000086666              -0.000728514               0.002713376               0.001984862               0.000000000               0.000000000               0.000000000               0.000000000               0.000378340               0.007057476               0.000185823              -0.000740305               0.002599237               0.001858932               0.000000000               0.000000000               0.000000000               0.000000000               0.000255922               0.006789321               0.000235441              -0.000752692               0.002513982               0.001761290               0.000000000               0.000000000               0.000000000               0.000000000               0.000159207               0.006573773               0.000256643              -0.000762017               0.002445241               0.001683224               0.000000000               0.000000000               0.000000000               0.000000000               0.000087456               0.006385840               0.000262466              -0.000765432               0.002383736               0.001618304               0.000000000               0.000000000               0.000000000               0.000000000               0.000041686               0.006215429               0.000260523              -0.000761295               0.002325554               0.001564259               0.000000000               0.000000000               0.000000000               0.000000000               0.000014900               0.006059784               0.000249305              -0.000751884               0.002270536               0.001518652               0.000000000               0.000000000               0.000000000               0.000000000               0.000000848               0.005912066               0.000229776              -0.000738688               0.002216898               0.001478210               0.000000000               0.000000000               0.000000000               0.000000000              -0.000006731               0.005774522               0.000200617              -0.000724338               0.002166267               0.001441930               0.000000000               0.000000000               0.000000000               0.000000000              -0.000007148               0.005654055               0.000159814              -0.000709436               0.002121145               0.001411709               0.000000000               0.000000000               0.000000000               0.000000000              -0.000003017               0.005553960               0.000112413              -0.000695374               0.002083093               0.001387718               0.000000000               0.000000000               0.000000000               0.000000000              -0.000001835               0.005478109               0.000059905              -0.000685450               0.002054502               0.001369051               0.000000000               0.000000000               0.000000000               0.000000000              -0.000005428               0.005442548               0.000034413              -0.000682352               0.002041615               0.001359263               0.000000000               0.000000000               0.000000000               0.000000000               0.002082783               0.009628519              -0.003372812              -0.000422524               0.003350315               0.002927791               0.000000000               0.000000000               0.000000000               0.000000000               0.001135002               0.008579250              -0.002076350              -0.000646780               0.003075314               0.002428534               0.000000000               0.000000000               0.000000000               0.000000000               0.000549810               0.008043459              -0.000800171              -0.000799252               0.002947543               0.002148292               0.000000000               0.000000000               0.000000000               0.000000000               0.000261862               0.007571909              -0.000301035              -0.000848288               0.002806707               0.001958419               0.000000000               0.000000000               0.000000000               0.000000000               0.000108003               0.007189611              -0.000086451              -0.000858198               0.002682579               0.001824381               0.000000000               0.000000000               0.000000000               0.000000000               0.000009536               0.006886161               0.000023166              -0.000857192               0.002581095               0.001723903               0.000000000               0.000000000               0.000000000               0.000000000              -0.000061104               0.006640292               0.000089300              -0.000852948               0.002497725               0.001644776               0.000000000               0.000000000               0.000000000               0.000000000              -0.000107269               0.006428733               0.000124052              -0.000843816               0.002424161               0.001580346               0.000000000               0.000000000               0.000000000               0.000000000              -0.000132167               0.006231615               0.000139544              -0.000828512               0.002353355               0.001524843               0.000000000               0.000000000               0.000000000               0.000000000              -0.000135854               0.006049812               0.000148520              -0.000807170               0.002285640               0.001478471               0.000000000               0.000000000               0.000000000               0.000000000              -0.000122228               0.005885610               0.000148142              -0.000781535               0.002222362               0.001440827               0.000000000               0.000000000               0.000000000               0.000000000              -0.000099032               0.005734961               0.000137698              -0.000754005               0.002162970               0.001408964               0.000000000               0.000000000               0.000000000               0.000000000              -0.000076894               0.005596714               0.000120846              -0.000728423               0.002108360               0.001379938               0.000000000               0.000000000               0.000000000               0.000000000              -0.000057264               0.005477773               0.000094910              -0.000706194               0.002061304               0.001355110               0.000000000               0.000000000               0.000000000               0.000000000              -0.000037658               0.005383696               0.000064478              -0.000687082               0.002023575               0.001336493               0.000000000               0.000000000               0.000000000               0.000000000              -0.000019083               0.005315647               0.000034621              -0.000671610               0.001995735               0.001324124               0.000000000               0.000000000               0.000000000               0.000000000              -0.000014157               0.005280819               0.000022608              -0.000665410               0.001982059               0.001316649               0.000000000               0.000000000               0.000000000               0.000000000               0.002000148               0.007972355              -0.003270391              -0.000246492               0.002739588               0.002493096               0.000000000               0.000000000               0.000000000               0.000000000               0.000914927               0.007523342              -0.002119539              -0.000597320               0.002706862               0.002109541               0.000000000               0.000000000               0.000000000               0.000000000               0.000155134               0.007488060              -0.000975996              -0.000877830               0.002788605               0.001910775               0.000000000               0.000000000               0.000000000               0.000000000              -0.000117897               0.007205812              -0.000520506              -0.000944936               0.002716892               0.001771956               0.000000000               0.000000000               0.000000000               0.000000000              -0.000218518               0.006910156              -0.000302932              -0.000945711               0.002618599               0.001672888               0.000000000               0.000000000               0.000000000               0.000000000              -0.000260854               0.006651241              -0.000172838              -0.000929223               0.002526799               0.001597576               0.000000000               0.000000000               0.000000000               0.000000000              -0.000281202               0.006425034              -0.000084561              -0.000908578               0.002444516               0.001535938               0.000000000               0.000000000               0.000000000               0.000000000              -0.000285496               0.006211015              -0.000031846              -0.000883436               0.002364796               0.001481360               0.000000000               0.000000000               0.000000000               0.000000000              -0.000270987               0.006008581              -0.000000416              -0.000852691               0.002287071               0.001434380               0.000000000               0.000000000               0.000000000               0.000000000              -0.000235373               0.005827845               0.000026668              -0.000816743               0.002214843               0.001398100               0.000000000               0.000000000               0.000000000               0.000000000              -0.000186523               0.005665334               0.000044325              -0.000778111               0.002147796               0.001369685               0.000000000               0.000000000               0.000000000               0.000000000              -0.000139227               0.005514796               0.000049381              -0.000741558               0.002085433               0.001343875               0.000000000               0.000000000               0.000000000               0.000000000              -0.000100901               0.005381164               0.000048358              -0.000710482               0.002030530               0.001320049               0.000000000               0.000000000               0.000000000               0.000000000              -0.000070973               0.005271653               0.000041607              -0.000685570               0.001985723               0.001300154               0.000000000               0.000000000               0.000000000               0.000000000              -0.000043823               0.005189164               0.000030476              -0.000665078               0.001951397               0.001286319               0.000000000               0.000000000               0.000000000               0.000000000              -0.000020517               0.005128651               0.000016980              -0.000648774               0.001925791               0.001277017               0.000000000               0.000000000               0.000000000               0.000000000              -0.000015075               0.005093783               0.000012404              -0.000642375               0.001912036               0.001269661               0.000000000               0.000000000               0.000000000               0.000000000               0.001773948               0.006404349              -0.002969814              -0.000135317               0.002179866               0.002044549               0.000000000               0.000000000               0.000000000               0.000000000               0.000655396               0.006531867              -0.002085539              -0.000570710               0.002367503               0.001796793               0.000000000               0.000000000               0.000000000               0.000000000              -0.000175186               0.006923159              -0.001166837              -0.000931088               0.002618059               0.001686971               0.000000000               0.000000000               0.000000000               0.000000000              -0.000390241               0.006799562              -0.000753826              -0.000996283               0.002598592               0.001602309               0.000000000               0.000000000               0.000000000               0.000000000              -0.000428447               0.006583355              -0.000520444              -0.000983585               0.002522291               0.001538707               0.000000000               0.000000000               0.000000000               0.000000000              -0.000421666               0.006369027              -0.000365917              -0.000954251               0.002441071               0.001486821               0.000000000               0.000000000               0.000000000               0.000000000              -0.000403375               0.006159213              -0.000257187              -0.000921165               0.002360105               0.001438940               0.000000000               0.000000000               0.000000000               0.000000000              -0.000369345               0.005949766              -0.000183113              -0.000882223               0.002277310               0.001395087               0.000000000               0.000000000               0.000000000               0.000000000              -0.000316781               0.005757469              -0.000128200              -0.000838474               0.002198628               0.001360154               0.000000000               0.000000000               0.000000000               0.000000000              -0.000251611               0.005584341              -0.000079505              -0.000792395               0.002125560               0.001333165               0.000000000               0.000000000               0.000000000               0.000000000              -0.000183715               0.005421167              -0.000042979              -0.000746537               0.002055883               0.001309346               0.000000000               0.000000000               0.000000000               0.000000000              -0.000127445               0.005273522              -0.000019426              -0.000706980               0.001993483               0.001286503               0.000000000               0.000000000               0.000000000               0.000000000              -0.000083693               0.005151429              -0.000001132              -0.000675312               0.001942230               0.001266918               0.000000000               0.000000000               0.000000000               0.000000000              -0.000052106               0.005053090               0.000009973              -0.000651174               0.001901405               0.001250230               0.000000000               0.000000000               0.000000000               0.000000000              -0.000030479               0.004974468               0.000013317              -0.000633237               0.001869218               0.001235982               0.000000000               0.000000000               0.000000000               0.000000000              -0.000015466               0.004908354               0.000009728              -0.000619342               0.001842549               0.001223207               0.000000000               0.000000000               0.000000000               0.000000000              -0.000013613               0.004866880               0.000009249              -0.000613463               0.001826765               0.001213302               0.000000000               0.000000000               0.000000000               0.000000000               0.001465903               0.005047311              -0.002545356              -0.000081203               0.001709487               0.001628283               0.000000000               0.000000000               0.000000000               0.000000000               0.000418076               0.005639815              -0.002013668              -0.000548199               0.002062652               0.001514453               0.000000000               0.000000000               0.000000000               0.000000000              -0.000399606               0.006385190              -0.001382049              -0.000947999               0.002444375               0.001496376               0.000000000               0.000000000               0.000000000               0.000000000              -0.000547810               0.006423312              -0.001000012              -0.001008340               0.002477196               0.001468855               0.000000000               0.000000000               0.000000000               0.000000000              -0.000539396               0.006294778              -0.000745598              -0.000989118               0.002427944               0.001438826               0.000000000               0.000000000               0.000000000               0.000000000              -0.000499514               0.006131023              -0.000566623              -0.000953693               0.002361552               0.001407858               0.000000000               0.000000000               0.000000000               0.000000000              -0.000449922               0.005948887              -0.000436733              -0.000912329               0.002287052               0.001374723               0.000000000               0.000000000               0.000000000               0.000000000              -0.000382363               0.005761804              -0.000338313              -0.000863609               0.002208452               0.001344842               0.000000000               0.000000000               0.000000000               0.000000000              -0.000299678               0.005586513              -0.000258062              -0.000810691               0.002132383               0.001321691               0.000000000               0.000000000               0.000000000               0.000000000              -0.000217847               0.005418357              -0.000189367              -0.000758985               0.002059096               0.001300111               0.000000000               0.000000000               0.000000000               0.000000000              -0.000145378               0.005255167              -0.000131189              -0.000711411               0.001988842               0.001277431               0.000000000               0.000000000               0.000000000               0.000000000              -0.000089253               0.005113671              -0.000082497              -0.000672677               0.001928766               0.001256089               0.000000000               0.000000000               0.000000000               0.000000000              -0.000057565               0.004994794              -0.000042943              -0.000645934               0.001880226               0.001234292               0.000000000               0.000000000               0.000000000               0.000000000              -0.000041860               0.004894276              -0.000015624              -0.000627480               0.001840569               0.001213089               0.000000000               0.000000000               0.000000000               0.000000000              -0.000036863               0.004804388              -0.000001250              -0.000614370               0.001806237               0.001191866               0.000000000               0.000000000               0.000000000               0.000000000              -0.000039691               0.004715179               0.000002353              -0.000604280               0.001773137               0.001168857               0.000000000               0.000000000               0.000000000               0.000000000              -0.000041041               0.004666031               0.000003083              -0.000598643               0.001754876               0.001156233               0.000000000               0.000000000               0.000000000               0.000000000               0.001051019               0.003767299              -0.002067620              -0.000076783               0.001281347               0.001204564               0.000000000               0.000000000               0.000000000               0.000000000               0.000239472               0.004621985              -0.001919397              -0.000487947               0.001703294               0.001215348               0.000000000               0.000000000               0.000000000               0.000000000              -0.000483135               0.005622230              -0.001618267              -0.000883953               0.002168709               0.001284755               0.000000000               0.000000000               0.000000000               0.000000000              -0.000602330               0.005872155              -0.001283607              -0.000959891               0.002277329               0.001317438               0.000000000               0.000000000               0.000000000               0.000000000              -0.000574407               0.005881370              -0.001013637              -0.000950572               0.002277294               0.001326722               0.000000000               0.000000000               0.000000000               0.000000000              -0.000523536               0.005810864              -0.000809327              -0.000922682               0.002244496               0.001321814               0.000000000               0.000000000               0.000000000               0.000000000              -0.000464992               0.005703241              -0.000657585              -0.000887275               0.002196820               0.001309544               0.000000000               0.000000000               0.000000000               0.000000000              -0.000391080               0.005577164              -0.000535153              -0.000843799               0.002140302               0.001296504               0.000000000               0.000000000               0.000000000               0.000000000              -0.000307575               0.005444708              -0.000429577              -0.000795927               0.002080194               0.001284266               0.000000000               0.000000000               0.000000000               0.000000000              -0.000225402               0.005309185              -0.000336184              -0.000748172               0.002019101               0.001270929               0.000000000               0.000000000               0.000000000               0.000000000              -0.000154065               0.005170362              -0.000252949              -0.000704068               0.001958126               0.001254058               0.000000000               0.000000000               0.000000000               0.000000000              -0.000098855               0.005039901              -0.000176253              -0.000667056               0.001902302               0.001235246               0.000000000               0.000000000               0.000000000               0.000000000              -0.000067931               0.004923546              -0.000109266              -0.000640916               0.001854804               0.001213888               0.000000000               0.000000000               0.000000000               0.000000000              -0.000059985               0.004821528              -0.000058885              -0.000625184               0.001815555               0.001190371               0.000000000               0.000000000               0.000000000               0.000000000              -0.000067794               0.004724145              -0.000024884              -0.000615939               0.001780012               0.001164073               0.000000000               0.000000000               0.000000000               0.000000000              -0.000086259               0.004625398              -0.000006119              -0.000610520               0.001745290               0.001134770               0.000000000               0.000000000               0.000000000               0.000000000              -0.000095359               0.004577284              -0.000000298              -0.000607918               0.001728385               0.001120467               0.000000000               0.000000000               0.000000000               0.000000000               0.000445141               0.002595599              -0.001559430              -0.000157523               0.000917698               0.000760174               0.000000000               0.000000000               0.000000000               0.000000000               0.000025650               0.003612475              -0.001767695              -0.000441941               0.001351459               0.000909518               0.000000000               0.000000000               0.000000000               0.000000000              -0.000492171               0.004767241              -0.001796783              -0.000780468               0.001849220               0.001068752               0.000000000               0.000000000               0.000000000               0.000000000              -0.000583750               0.005218009              -0.001553602              -0.000871156               0.002029704               0.001158548               0.000000000               0.000000000               0.000000000               0.000000000              -0.000550526               0.005384142              -0.001295171              -0.000879464               0.002087850               0.001208387               0.000000000               0.000000000               0.000000000               0.000000000              -0.000493191               0.005430891              -0.001079081              -0.000863806               0.002098214               0.001234408               0.000000000               0.000000000               0.000000000               0.000000000              -0.000436688               0.005415977              -0.000911158              -0.000840754               0.002085559               0.001244805               0.000000000               0.000000000               0.000000000               0.000000000              -0.000371487               0.005365779              -0.000769316              -0.000810028               0.002058585               0.001248556               0.000000000               0.000000000               0.000000000               0.000000000              -0.000297082               0.005296051              -0.000641867              -0.000773411               0.002023136               0.001249726               0.000000000               0.000000000               0.000000000               0.000000000              -0.000220860               0.005209523              -0.000528206              -0.000734011               0.001981161               0.001247149               0.000000000               0.000000000               0.000000000               0.000000000              -0.000149913               0.005106656              -0.000423902              -0.000694548               0.001933717               0.001239170               0.000000000               0.000000000               0.000000000               0.000000000              -0.000091255               0.004998037              -0.000323069              -0.000658974               0.001885653               0.001226680               0.000000000               0.000000000               0.000000000               0.000000000              -0.000053457               0.004889248              -0.000228770              -0.000631201               0.001840133               0.001208932               0.000000000               0.000000000               0.000000000               0.000000000              -0.000044990               0.004787517              -0.000148244              -0.000615309               0.001800926               0.001185617               0.000000000               0.000000000               0.000000000               0.000000000              -0.000064203               0.004695835              -0.000083458              -0.000611054               0.001768947               0.001157893               0.000000000               0.000000000               0.000000000               0.000000000              -0.000106187               0.004608097              -0.000034518              -0.000615831               0.001741294               0.001125463               0.000000000               0.000000000               0.000000000               0.000000000              -0.000140048               0.004559398              -0.000010656              -0.000622441               0.001727265               0.001104824               0.000000000               0.000000000               0.000000000               0.000000000              -0.000312631               0.001600717              -0.001050986              -0.000317326               0.000639342               0.000322015               0.000000000               0.000000000               0.000000000               0.000000000              -0.000270340               0.002656307              -0.001536115              -0.000433416               0.001029898               0.000596482               0.000000000               0.000000000               0.000000000               0.000000000              -0.000473325               0.003822964              -0.001840787              -0.000655367               0.001492764               0.000837396               0.000000000               0.000000000               0.000000000               0.000000000              -0.000487276               0.004419127              -0.001714135              -0.000735119               0.001718067               0.000982948               0.000000000               0.000000000               0.000000000               0.000000000              -0.000441174               0.004729316              -0.001500092              -0.000756604               0.001828624               0.001072020               0.000000000               0.000000000               0.000000000               0.000000000              -0.000381441               0.004898812              -0.001296464              -0.000755391               0.001884717               0.001129327               0.000000000               0.000000000               0.000000000               0.000000000              -0.000331080               0.004989219              -0.001125312              -0.000747806               0.001912325               0.001164519               0.000000000               0.000000000               0.000000000               0.000000000              -0.000281074               0.005030772              -0.000976243              -0.000734248               0.001921657               0.001187409               0.000000000               0.000000000               0.000000000               0.000000000              -0.000222392               0.005037995              -0.000840135              -0.000713145               0.001917030               0.001203885               0.000000000               0.000000000               0.000000000               0.000000000              -0.000160236               0.005016780              -0.000715721              -0.000687185               0.001901305               0.001214120               0.000000000               0.000000000               0.000000000               0.000000000              -0.000098578               0.004968363              -0.000599784              -0.000658011               0.001875441               0.001217430               0.000000000               0.000000000               0.000000000               0.000000000              -0.000040868               0.004902010              -0.000486416              -0.000628075               0.001843345               0.001215270               0.000000000               0.000000000               0.000000000               0.000000000               0.000004568               0.004824853              -0.000373874              -0.000601392               0.001808732               0.001207340               0.000000000               0.000000000               0.000000000               0.000000000               0.000021195               0.004744220              -0.000266853              -0.000585078               0.001776417               0.001191339               0.000000000               0.000000000               0.000000000               0.000000000               0.000001611               0.004667754              -0.000169067              -0.000582864               0.001750190               0.001167327               0.000000000               0.000000000               0.000000000               0.000000000              -0.000056987               0.004593799              -0.000080010              -0.000595593               0.001729782               0.001134189               0.000000000               0.000000000               0.000000000               0.000000000              -0.000115731               0.004545573              -0.000030745              -0.000611594               0.001719040               0.001107446               0.000000000               0.000000000               0.000000000               0.000000000              -0.001152791               0.000833336              -0.000599494              -0.000536463               0.000456596              -0.000079867               0.000000000               0.000000000               0.000000000               0.000000000              -0.000623145               0.001799965              -0.001244640              -0.000458675               0.000752873               0.000294198               0.000000000               0.000000000               0.000000000               0.000000000              -0.000443153               0.002859917              -0.001734273              -0.000523672               0.001127853               0.000604181               0.000000000               0.000000000               0.000000000               0.000000000              -0.000333183               0.003532780              -0.001720688              -0.000566541               0.001366428               0.000799887               0.000000000               0.000000000               0.000000000               0.000000000              -0.000253612               0.003960596              -0.001569685              -0.000590179               0.001516911               0.000926733               0.000000000               0.000000000               0.000000000               0.000000000              -0.000189426               0.004246544              -0.001398383              -0.000601852               0.001616117               0.001014265               0.000000000               0.000000000               0.000000000               0.000000000              -0.000147592               0.004441593              -0.001241630              -0.000610545               0.001684031               0.001073486               0.000000000               0.000000000               0.000000000               0.000000000              -0.000114034               0.004578363              -0.001100554              -0.000615057               0.001731124               0.001116067               0.000000000               0.000000000               0.000000000               0.000000000              -0.000077237               0.004669569              -0.000968714              -0.000612659               0.001760727               0.001148068               0.000000000               0.000000000               0.000000000               0.000000000              -0.000035866               0.004722914              -0.000846467              -0.000603813               0.001775560               0.001171747               0.000000000               0.000000000               0.000000000               0.000000000               0.000008679               0.004745549              -0.000731749              -0.000589938               0.001778480               0.001188542               0.000000000               0.000000000               0.000000000               0.000000000               0.000056346               0.004742608              -0.000620711              -0.000571695               0.001771419               0.001199724               0.000000000               0.000000000               0.000000000               0.000000000               0.000105278               0.004720702              -0.000504305              -0.000550607               0.001757087               0.001206480               0.000000000               0.000000000               0.000000000               0.000000000               0.000140302               0.004685596              -0.000383228              -0.000533085               0.001739545               0.001206460               0.000000000               0.000000000               0.000000000               0.000000000               0.000142861               0.004637056              -0.000262360              -0.000526058               0.001721023               0.001194965               0.000000000               0.000000000               0.000000000               0.000000000               0.000100831               0.004583857              -0.000134876              -0.000535169               0.001706327               0.001171158               0.000000000               0.000000000               0.000000000               0.000000000               0.000045198               0.004545335              -0.000061759              -0.000551216               0.001698835               0.001147619               0.000000000               0.000000000               0.000000000               0.000000000              -0.001979368               0.000296246              -0.000259937              -0.000779293               0.000358511              -0.000420782               0.000000000               0.000000000               0.000000000               0.000000000              -0.000990673               0.001092781              -0.000922950              -0.000508099               0.000533622               0.000025523               0.000000000               0.000000000               0.000000000               0.000000000              -0.000414693               0.001969354              -0.001472127              -0.000401679               0.000790337               0.000388658               0.000000000               0.000000000               0.000000000               0.000000000              -0.000153299               0.002657282              -0.001539998              -0.000389648               0.001015634               0.000625986               0.000000000               0.000000000               0.000000000               0.000000000              -0.000024294               0.003166727              -0.001454682              -0.000404951               0.001190548               0.000785597               0.000000000               0.000000000               0.000000000               0.000000000               0.000049843               0.003548038              -0.001329155              -0.000424814               0.001324272               0.000899458               0.000000000               0.000000000               0.000000000               0.000000000               0.000090528               0.003832871              -0.001203216              -0.000445161               0.001425997               0.000980837               0.000000000               0.000000000               0.000000000               0.000000000               0.000108795               0.004053032              -0.001084919              -0.000465831               0.001506274               0.001040443               0.000000000               0.000000000               0.000000000               0.000000000               0.000125236               0.004226041              -0.000971371              -0.000481291               0.001569096               0.001087805               0.000000000               0.000000000               0.000000000               0.000000000               0.000146922               0.004357461              -0.000863824              -0.000489586               0.001615667               0.001126082               0.000000000               0.000000000               0.000000000               0.000000000               0.000175374               0.004456374              -0.000761204              -0.000491280               0.001649203               0.001157923               0.000000000               0.000000000               0.000000000               0.000000000               0.000211916               0.004523915              -0.000663393              -0.000486020               0.001669963               0.001183943               0.000000000               0.000000000               0.000000000               0.000000000               0.000259321               0.004566495              -0.000560593              -0.000473565               0.001680005               0.001206439               0.000000000               0.000000000               0.000000000               0.000000000               0.000314902               0.004589574              -0.000445006              -0.000455608               0.001681712               0.001226104               0.000000000               0.000000000               0.000000000               0.000000000               0.000357255               0.004585307              -0.000317723              -0.000439192               0.001674818               0.001235626               0.000000000               0.000000000               0.000000000               0.000000000               0.000372973               0.004563190              -0.000170721              -0.000430533               0.001664559               0.001234026               0.000000000               0.000000000               0.000000000               0.000000000               0.000365460               0.004544592              -0.000087965              -0.000431026               0.001658524               0.001227498               0.000000000               0.000000000               0.000000000               0.000000000              -0.002683791              -0.000038067              -0.000058887              -0.001001662               0.000321196              -0.000680466               0.000000000               0.000000000               0.000000000               0.000000000              -0.001318752               0.000573475              -0.000598948              -0.000566216               0.000379894              -0.000186322               0.000000000               0.000000000               0.000000000               0.000000000              -0.000400380               0.001249283              -0.001069505              -0.000306303               0.000518524               0.000212221               0.000000000               0.000000000               0.000000000               0.000000000               0.000008168               0.001909967              -0.001165298              -0.000235683               0.000715210               0.000479526               0.000000000               0.000000000               0.000000000               0.000000000               0.000196098               0.002462963              -0.001130457              -0.000234334               0.000899091               0.000664756               0.000000000               0.000000000               0.000000000               0.000000000               0.000288148               0.002909017              -0.001056008              -0.000255572               0.001054853               0.000799281               0.000000000               0.000000000               0.000000000               0.000000000               0.000332499               0.003261468              -0.000970185              -0.000282996               0.001181477               0.000898481               0.000000000               0.000000000               0.000000000               0.000000000               0.000345727               0.003544064              -0.000885800              -0.000313360               0.001285796               0.000972436               0.000000000               0.000000000               0.000000000               0.000000000               0.000349313               0.003779193              -0.000804569              -0.000341406               0.001373521               0.001032114               0.000000000               0.000000000               0.000000000               0.000000000               0.000356759               0.003974284              -0.000723749              -0.000363000               0.001445748               0.001082748               0.000000000               0.000000000               0.000000000               0.000000000               0.000374622               0.004134272              -0.000645899              -0.000376300               0.001503510               0.001127210               0.000000000               0.000000000               0.000000000               0.000000000               0.000407968               0.004267056              -0.000571070              -0.000380393               0.001549135               0.001168742               0.000000000               0.000000000               0.000000000               0.000000000               0.000455921               0.004373985              -0.000492734              -0.000375777               0.001583239               0.001207462               0.000000000               0.000000000               0.000000000               0.000000000               0.000524245               0.004457922              -0.000400845              -0.000360648               0.001606175               0.001245527               0.000000000               0.000000000               0.000000000               0.000000000               0.000608685               0.004512803              -0.000292304              -0.000335843               0.001616200               0.001280357               0.000000000               0.000000000               0.000000000               0.000000000               0.000701696               0.004533358              -0.000159671              -0.000303533               0.001612282               0.001308749               0.000000000               0.000000000               0.000000000               0.000000000               0.000769330               0.004541236              -0.000087167              -0.000279155               0.001606782               0.001327627               0.000000000               0.000000000               0.000000000               0.000000000              -0.003162595              -0.000208815               0.000012132              -0.001159870               0.000317016              -0.000842854               0.000000000               0.000000000               0.000000000               0.000000000              -0.001549906               0.000260744              -0.000290417              -0.000613807               0.000291515              -0.000322292               0.000000000               0.000000000               0.000000000               0.000000000              -0.000399333               0.000783196              -0.000561730              -0.000247649               0.000343612               0.000095963               0.000000000               0.000000000               0.000000000               0.000000000               0.000113164               0.001408569              -0.000628707              -0.000133635               0.000514063               0.000380428               0.000000000               0.000000000               0.000000000               0.000000000               0.000356561               0.001975982              -0.000621898              -0.000113288               0.000696416               0.000583129               0.000000000               0.000000000               0.000000000               0.000000000               0.000469834               0.002453035              -0.000590316              -0.000130442               0.000861151               0.000730709               0.000000000               0.000000000               0.000000000               0.000000000               0.000516140               0.002843212              -0.000547080              -0.000161849               0.001001678               0.000839828               0.000000000               0.000000000               0.000000000               0.000000000               0.000532299               0.003166060              -0.000502444              -0.000196145               0.001120725               0.000924579               0.000000000               0.000000000               0.000000000               0.000000000               0.000532986               0.003437040              -0.000460083              -0.000229760               0.001222255               0.000992495               0.000000000               0.000000000               0.000000000               0.000000000               0.000533773               0.003668346              -0.000417258              -0.000258378               0.001308896               0.001050518               0.000000000               0.000000000               0.000000000               0.000000000               0.000545402               0.003871198              -0.000376093              -0.000279374               0.001383511               0.001104137               0.000000000               0.000000000               0.000000000               0.000000000               0.000573706               0.004050220              -0.000335335              -0.000291137               0.001447105               0.001155968               0.000000000               0.000000000               0.000000000               0.000000000               0.000624326               0.004210541              -0.000291823              -0.000292195               0.001500898               0.001208703               0.000000000               0.000000000               0.000000000               0.000000000               0.000704912               0.004348474              -0.000241246              -0.000279217               0.001542549               0.001263332               0.000000000               0.000000000               0.000000000               0.000000000               0.000821245               0.004447864              -0.000178405              -0.000248015               0.001565278               0.001317263               0.000000000               0.000000000               0.000000000               0.000000000               0.000979358               0.004503258              -0.000098958              -0.000195648               0.001566287               0.001370639               0.000000000               0.000000000               0.000000000               0.000000000               0.001114168               0.004535510              -0.000056710              -0.000149125               0.001561530               0.001412405               0.000000000               0.000000000               0.000000000               0.000000000              -0.003333935              -0.000259664               0.000000000              -0.001217767               0.000319365              -0.000898401               0.000000000               0.000000000               0.000000000               0.000000000              -0.001634331               0.000156293               0.000000000              -0.000632410               0.000262899              -0.000369511               0.000000000               0.000000000               0.000000000               0.000000000              -0.000400620               0.000623924               0.000000000              -0.000228223               0.000284047               0.000055824               0.000000000               0.000000000               0.000000000               0.000000000               0.000148861               0.001234603               0.000000000              -0.000098502               0.000444364               0.000345862               0.000000000               0.000000000               0.000000000               0.000000000               0.000416901               0.001802138              -0.000000000              -0.000068930               0.000623683               0.000554754               0.000000000               0.000000000               0.000000000               0.000000000               0.000538251               0.002285498               0.000000000              -0.000083843               0.000789773               0.000705930               0.000000000               0.000000000               0.000000000               0.000000000               0.000586066               0.002687162               0.000000000              -0.000116121               0.000934419               0.000818298               0.000000000               0.000000000               0.000000000               0.000000000               0.000602519               0.003022568              -0.000000000              -0.000151876               0.001058138               0.000906262               0.000000000               0.000000000               0.000000000               0.000000000               0.000604834               0.003305658              -0.000000000              -0.000186394               0.001164006               0.000977612               0.000000000               0.000000000               0.000000000               0.000000000               0.000604484               0.003550153               0.000000000              -0.000217087               0.001255735               0.001038648               0.000000000               0.000000000               0.000000000               0.000000000               0.000613656               0.003769111               0.000000000              -0.000241017               0.001336697               0.001095680               0.000000000               0.000000000               0.000000000               0.000000000               0.000638720               0.003968117              -0.000000000              -0.000256494               0.001408190               0.001151696               0.000000000               0.000000000               0.000000000               0.000000000               0.000691075               0.004149711              -0.000000000              -0.000259560               0.001469743               0.001210183               0.000000000               0.000000000               0.000000000               0.000000000               0.000776878               0.004304373               0.000000000              -0.000246717               0.001517016               0.001270299               0.000000000               0.000000000               0.000000000               0.000000000               0.000906418               0.004421491               0.000000000              -0.000212779               0.001544742               0.001331963               0.000000000               0.000000000               0.000000000               0.000000000               0.001091505               0.004491847              -0.000000000              -0.000152166               0.001547989               0.001395823               0.000000000               0.000000000               0.000000000               0.000000000               0.001252593               0.004532330               0.000000000              -0.000096819               0.001543035               0.001446216               0.000000000               0.000000000               0.000000000               0.000000000               0.000000000               0.000000000               0.000000000               0.000000000               0.000000000               0.000000000               0.000000000               0.000000000               0.000000000               0.000000000               0.000000000               0.000000000               0.000000000               0.000000000               0.000000000               0.000000000               0.000000000               0.000000000               0.000000000               0.000000000               0.000000000               0.000000000               0.000000000               0.000000000               0.000000000               0.000000000               0.000000000               0.000000000               0.000000000               0.000000000               0.000000000               0.000000000               0.000000000               0.000000000               0.000000000               0.000000000               0.000000000               0.000000000               0.000000000               0.000000000               0.000000000               0.000000000               0.000000000               0.000000000               0.000000000               0.000000000               0.000000000               0.000000000               0.000000000               0.000000000               0.000000000               0.000000000               0.000000000               0.000000000               0.000000000               0.000000000               0.000000000               0.000000000               0.000000000               0.000000000               0.000000000               0.000000000               0.000000000               0.000000000               0.000000000               0.000000000               0.000000000               0.000000000               0.000000000               0.000000000               0.000000000               0.000000000               0.000000000               0.000000000               0.000000000               0.000000000               0.000000000               0.000000000               0.000000000               0.000000000               0.000000000               0.000000000               0.000000000               0.000000000               0.000000000               0.000000000               0.000000000               0.000000000               0.000000000               0.000000000               0.000000000               0.000000000               0.000000000               0.000000000               0.000000000               0.000000000               0.000000000               0.000000000               0.000000000               0.000000000               0.000000000               0.000000000               0.000000000               0.000000000               0.000000000               0.000000000               0.000000000               0.000000000               0.000000000               0.000000000               0.000000000               0.000000000               0.000000000               0.000000000               0.000000000               0.000000000               0.000000000               0.000000000               0.000000000               0.000000000               0.000000000               0.000000000               0.000000000               0.000000000               0.000000000               0.000000000               0.000000000               0.000000000               0.000000000               0.000000000               0.000000000               0.000000000               0.000000000               0.000000000               0.000000000               0.000000000               0.000000000               0.000000000               0.000000000               0.000000000               0.000000000               0.000000000               0.000000000               0.000000000               0.000000000               0.000000000               0.000000000               0.000000000               0.000000000               0.000000000               0.000000000               0.000000000               0.000000000               0.000000000               0.000000000               0.000000000               0.000000000               0.000000000               0.000000000               0.000000000               0.000000000               0.000000000               0.000000000               0.000000000               0.000000000               0.000000000               0.000000000               0.000000000               0.000000000               0.000000000               0.001414157               0.014812374               0.001089628              -0.001321235               0.005377820               0.004056585               0.000000000               0.000000000               0.000000000               0.000000000               0.001422484               0.011997636               0.000633169              -0.000966271               0.004321262               0.003354992               0.000000000               0.000000000               0.000000000               0.000000000               0.001864754               0.009749318               0.000172172              -0.000519381               0.003422867               0.002903486               0.000000000               0.000000000               0.000000000               0.000000000               0.001858664               0.008495023              -0.000031362              -0.000364878               0.002953272               0.002588394               0.000000000               0.000000000               0.000000000               0.000000000               0.001707301               0.007726828              -0.000122241              -0.000325615               0.002684122               0.002358507               0.000000000               0.000000000               0.000000000               0.000000000               0.001506439               0.007219562              -0.000161032              -0.000337530               0.002519007               0.002181477               0.000000000               0.000000000               0.000000000               0.000000000               0.001298674               0.006871209              -0.000177141              -0.000371897               0.002414346               0.002042449               0.000000000               0.000000000               0.000000000               0.000000000               0.001097532               0.006623582              -0.000181790              -0.000416372               0.002346629               0.001930257               0.000000000               0.000000000               0.000000000               0.000000000               0.000909060               0.006444028              -0.000179256              -0.000464605               0.002302856               0.001838251               0.000000000               0.000000000               0.000000000               0.000000000               0.000733723               0.006306135              -0.000171659              -0.000513119               0.002273064               0.001759944               0.000000000               0.000000000               0.000000000               0.000000000               0.000570239               0.006189097              -0.000160357              -0.000559796               0.002249610               0.001689814               0.000000000               0.000000000               0.000000000               0.000000000               0.000423017               0.006081585              -0.000147773              -0.000601565               0.002227696               0.001626131               0.000000000               0.000000000               0.000000000               0.000000000               0.000297382               0.005977135              -0.000131813              -0.000635622               0.002204232               0.001568610               0.000000000               0.000000000               0.000000000               0.000000000               0.000195728               0.005864684              -0.000110020              -0.000659686               0.002174771               0.001515085               0.000000000               0.000000000               0.000000000               0.000000000               0.000113815               0.005734432              -0.000080996              -0.000674122               0.002136165               0.001462044               0.000000000               0.000000000               0.000000000               0.000000000               0.000050442               0.005581634              -0.000043997              -0.000678787               0.002086788               0.001408002               0.000000000               0.000000000               0.000000000               0.000000000               0.000011862               0.005464698              -0.000026614              -0.000678637               0.002047760               0.001369123               0.000000000               0.000000000               0.000000000               0.000000000               0.001591062               0.014008098               0.002049365              -0.001154362               0.005054106               0.003899744               0.000000000               0.000000000               0.000000000               0.000000000               0.001415673               0.011452509               0.001194012              -0.000900684               0.004117693               0.003217009               0.000000000               0.000000000               0.000000000               0.000000000               0.001662279               0.009481343               0.000335492              -0.000561812               0.003347687               0.002785875               0.000000000               0.000000000               0.000000000               0.000000000               0.001580313               0.008370770              -0.000033495              -0.000453728               0.002941471               0.002487744               0.000000000               0.000000000               0.000000000               0.000000000               0.001408611               0.007675729              -0.000193707              -0.000431236               0.002702296               0.002271060               0.000000000               0.000000000               0.000000000               0.000000000               0.001212615               0.007209959              -0.000263088              -0.000446513               0.002552133               0.002105620               0.000000000               0.000000000               0.000000000               0.000000000               0.001015815               0.006884270              -0.000291500              -0.000479602               0.002454601               0.001974999               0.000000000               0.000000000               0.000000000               0.000000000               0.000832350               0.006644208              -0.000300665              -0.000518393               0.002387512               0.001869118               0.000000000               0.000000000               0.000000000               0.000000000               0.000673201               0.006461208              -0.000299992              -0.000555199               0.002338781               0.001783581               0.000000000               0.000000000               0.000000000               0.000000000               0.000531607               0.006313107              -0.000290020              -0.000589784               0.002300943               0.001711158               0.000000000               0.000000000               0.000000000               0.000000000               0.000405546               0.006186270              -0.000273677              -0.000621203               0.002269137               0.001647934               0.000000000               0.000000000               0.000000000               0.000000000               0.000297788               0.006072769              -0.000255855              -0.000647424               0.002240044               0.001592620               0.000000000               0.000000000               0.000000000               0.000000000               0.000207003               0.005962921              -0.000230970              -0.000667737               0.002210200               0.001542462               0.000000000               0.000000000               0.000000000               0.000000000               0.000134677               0.005850098              -0.000192975              -0.000680757               0.002176932               0.001496175               0.000000000               0.000000000               0.000000000               0.000000000               0.000076169               0.005731962              -0.000145044              -0.000687930               0.002139945               0.001452015               0.000000000               0.000000000               0.000000000               0.000000000               0.000031104               0.005610713              -0.000082252              -0.000689673               0.002100110               0.001410437               0.000000000               0.000000000               0.000000000               0.000000000               0.000004052               0.005526554              -0.000049542              -0.000689298               0.002071932               0.001382634               0.000000000               0.000000000               0.000000000               0.000000000               0.001815351               0.012780142               0.002779869              -0.000916761               0.004565591               0.003648830               0.000000000               0.000000000               0.000000000               0.000000000               0.001381085               0.010634634               0.001632787              -0.000811421               0.003815316               0.003003895               0.000000000               0.000000000               0.000000000               0.000000000               0.001351769               0.009074909               0.000490794              -0.000627449               0.003234089               0.002606640               0.000000000               0.000000000               0.000000000               0.000000000               0.001176027               0.008166009               0.000017646              -0.000579740               0.002915222               0.002335483               0.000000000               0.000000000               0.000000000               0.000000000               0.000986469               0.007573874              -0.000184411              -0.000576807               0.002716868               0.002140061               0.000000000               0.000000000               0.000000000               0.000000000               0.000805097               0.007162312              -0.000273839              -0.000593376               0.002585205               0.001991829               0.000000000               0.000000000               0.000000000               0.000000000               0.000637201               0.006864672              -0.000312409              -0.000619132               0.002494578               0.001875446               0.000000000               0.000000000               0.000000000               0.000000000               0.000490055               0.006639319              -0.000326006              -0.000646143               0.002428465               0.001782322               0.000000000               0.000000000               0.000000000               0.000000000               0.000371244               0.006455264              -0.000327105              -0.000667690               0.002374296               0.001706606               0.000000000               0.000000000               0.000000000               0.000000000               0.000276610               0.006296970              -0.000319135              -0.000683391               0.002326766               0.001643375               0.000000000               0.000000000               0.000000000               0.000000000               0.000202696               0.006156712              -0.000304791              -0.000693576               0.002283409               0.001589833               0.000000000               0.000000000               0.000000000               0.000000000               0.000146041               0.006027086              -0.000284666              -0.000698619               0.002241882               0.001543263               0.000000000               0.000000000               0.000000000               0.000000000               0.000098487               0.005901415              -0.000252991              -0.000700743               0.002200700               0.001499957               0.000000000               0.000000000               0.000000000               0.000000000               0.000064281               0.005783985              -0.000207513              -0.000698891               0.002160940               0.001462048               0.000000000               0.000000000               0.000000000               0.000000000               0.000038644               0.005678432              -0.000153045              -0.000695311               0.002124562               0.001429251               0.000000000               0.000000000               0.000000000               0.000000000               0.000015389               0.005587787              -0.000085284              -0.000692701               0.002093477               0.001400777               0.000000000               0.000000000               0.000000000               0.000000000               0.000000839               0.005538656              -0.000049263              -0.000692015               0.002076872               0.001384857               0.000000000               0.000000000               0.000000000               0.000000000               0.002007312               0.011272294               0.003222632              -0.000656296               0.003976158               0.003319862               0.000000000               0.000000000               0.000000000               0.000000000               0.001293808               0.009643334               0.001924774              -0.000720238               0.003454491               0.002734253               0.000000000               0.000000000               0.000000000               0.000000000               0.000966160               0.008580399               0.000642241              -0.000710238               0.003096850               0.002386612               0.000000000               0.000000000               0.000000000               0.000000000               0.000713590               0.007894122               0.000129072              -0.000719167               0.002871070               0.002151903               0.000000000               0.000000000               0.000000000               0.000000000               0.000527854               0.007411688              -0.000086666              -0.000728514               0.002713376               0.001984862               0.000000000               0.000000000               0.000000000               0.000000000               0.000378340               0.007057476              -0.000185823              -0.000740305               0.002599237               0.001858932               0.000000000               0.000000000               0.000000000               0.000000000               0.000255922               0.006789321              -0.000235441              -0.000752692               0.002513982               0.001761290               0.000000000               0.000000000               0.000000000               0.000000000               0.000159207               0.006573773              -0.000256643              -0.000762017               0.002445241               0.001683224               0.000000000               0.000000000               0.000000000               0.000000000               0.000087456               0.006385840              -0.000262466              -0.000765432               0.002383736               0.001618304               0.000000000               0.000000000               0.000000000               0.000000000               0.000041686               0.006215429              -0.000260523              -0.000761295               0.002325554               0.001564259               0.000000000               0.000000000               0.000000000               0.000000000               0.000014900               0.006059784              -0.000249305              -0.000751884               0.002270536               0.001518652               0.000000000               0.000000000               0.000000000               0.000000000               0.000000848               0.005912066              -0.000229776              -0.000738688               0.002216898               0.001478210               0.000000000               0.000000000               0.000000000               0.000000000              -0.000006731               0.005774522              -0.000200617              -0.000724338               0.002166267               0.001441930               0.000000000               0.000000000               0.000000000               0.000000000              -0.000007148               0.005654055              -0.000159814              -0.000709436               0.002121145               0.001411709               0.000000000               0.000000000               0.000000000               0.000000000              -0.000003017               0.005553960              -0.000112413              -0.000695374               0.002083093               0.001387718               0.000000000               0.000000000               0.000000000               0.000000000              -0.000001835               0.005478109              -0.000059905              -0.000685450               0.002054502               0.001369051               0.000000000               0.000000000               0.000000000               0.000000000              -0.000005428               0.005442548              -0.000034413              -0.000682352               0.002041615               0.001359263               0.000000000               0.000000000               0.000000000               0.000000000               0.002082783               0.009628519               0.003372812              -0.000422524               0.003350315               0.002927791               0.000000000               0.000000000               0.000000000               0.000000000               0.001135002               0.008579250               0.002076350              -0.000646780               0.003075314               0.002428534               0.000000000               0.000000000               0.000000000               0.000000000               0.000549810               0.008043459               0.000800171              -0.000799252               0.002947543               0.002148292               0.000000000               0.000000000               0.000000000               0.000000000               0.000261862               0.007571909               0.000301035              -0.000848288               0.002806707               0.001958419               0.000000000               0.000000000               0.000000000               0.000000000               0.000108003               0.007189611               0.000086451              -0.000858198               0.002682579               0.001824381               0.000000000               0.000000000               0.000000000               0.000000000               0.000009536               0.006886161              -0.000023166              -0.000857192               0.002581095               0.001723903               0.000000000               0.000000000               0.000000000               0.000000000              -0.000061104               0.006640292              -0.000089300              -0.000852948               0.002497725               0.001644776               0.000000000               0.000000000               0.000000000               0.000000000              -0.000107269               0.006428733              -0.000124052              -0.000843816               0.002424161               0.001580346               0.000000000               0.000000000               0.000000000               0.000000000              -0.000132167               0.006231615              -0.000139544              -0.000828512               0.002353355               0.001524843               0.000000000               0.000000000               0.000000000               0.000000000              -0.000135854               0.006049812              -0.000148520              -0.000807170               0.002285640               0.001478471               0.000000000               0.000000000               0.000000000               0.000000000              -0.000122228               0.005885610              -0.000148142              -0.000781535               0.002222362               0.001440827               0.000000000               0.000000000               0.000000000               0.000000000              -0.000099032               0.005734961              -0.000137698              -0.000754005               0.002162970               0.001408964               0.000000000               0.000000000               0.000000000               0.000000000              -0.000076894               0.005596714              -0.000120846              -0.000728423               0.002108360               0.001379938               0.000000000               0.000000000               0.000000000               0.000000000              -0.000057264               0.005477773              -0.000094910              -0.000706194               0.002061304               0.001355110               0.000000000               0.000000000               0.000000000               0.000000000              -0.000037658               0.005383696              -0.000064478              -0.000687082               0.002023575               0.001336493               0.000000000               0.000000000               0.000000000               0.000000000              -0.000019083               0.005315647              -0.000034621              -0.000671610               0.001995735               0.001324124               0.000000000               0.000000000               0.000000000               0.000000000              -0.000014157               0.005280819              -0.000022608              -0.000665410               0.001982059               0.001316649               0.000000000               0.000000000               0.000000000               0.000000000               0.002000148               0.007972355               0.003270391              -0.000246492               0.002739588               0.002493096               0.000000000               0.000000000               0.000000000               0.000000000               0.000914927               0.007523342               0.002119539              -0.000597320               0.002706862               0.002109541               0.000000000               0.000000000               0.000000000               0.000000000               0.000155134               0.007488060               0.000975996              -0.000877830               0.002788605               0.001910775               0.000000000               0.000000000               0.000000000               0.000000000              -0.000117897               0.007205812               0.000520506              -0.000944936               0.002716892               0.001771956               0.000000000               0.000000000               0.000000000               0.000000000              -0.000218518               0.006910156               0.000302932              -0.000945711               0.002618599               0.001672888               0.000000000               0.000000000               0.000000000               0.000000000              -0.000260854               0.006651241               0.000172838              -0.000929223               0.002526799               0.001597576               0.000000000               0.000000000               0.000000000               0.000000000              -0.000281202               0.006425034               0.000084561              -0.000908578               0.002444516               0.001535938               0.000000000               0.000000000               0.000000000               0.000000000              -0.000285496               0.006211015               0.000031846              -0.000883436               0.002364796               0.001481360               0.000000000               0.000000000               0.000000000               0.000000000              -0.000270987               0.006008581               0.000000416              -0.000852691               0.002287071               0.001434380               0.000000000               0.000000000               0.000000000               0.000000000              -0.000235373               0.005827845              -0.000026668              -0.000816743               0.002214843               0.001398100               0.000000000               0.000000000               0.000000000               0.000000000              -0.000186523               0.005665334              -0.000044325              -0.000778111               0.002147796               0.001369685               0.000000000               0.000000000               0.000000000               0.000000000              -0.000139227               0.005514796              -0.000049381              -0.000741558               0.002085433               0.001343875               0.000000000               0.000000000               0.000000000               0.000000000              -0.000100901               0.005381164              -0.000048358              -0.000710482               0.002030530               0.001320049               0.000000000               0.000000000               0.000000000               0.000000000              -0.000070973               0.005271653              -0.000041607              -0.000685570               0.001985723               0.001300154               0.000000000               0.000000000               0.000000000               0.000000000              -0.000043823               0.005189164              -0.000030476              -0.000665078               0.001951397               0.001286319               0.000000000               0.000000000               0.000000000               0.000000000              -0.000020517               0.005128651              -0.000016980              -0.000648774               0.001925791               0.001277017               0.000000000               0.000000000               0.000000000               0.000000000              -0.000015075               0.005093783              -0.000012404              -0.000642375               0.001912036               0.001269661               0.000000000               0.000000000               0.000000000               0.000000000               0.001773948               0.006404349               0.002969814              -0.000135317               0.002179866               0.002044549               0.000000000               0.000000000               0.000000000               0.000000000               0.000655396               0.006531867               0.002085539              -0.000570710               0.002367503               0.001796793               0.000000000               0.000000000               0.000000000               0.000000000              -0.000175186               0.006923159               0.001166837              -0.000931088               0.002618059               0.001686971               0.000000000               0.000000000               0.000000000               0.000000000              -0.000390241               0.006799562               0.000753826              -0.000996283               0.002598592               0.001602309               0.000000000               0.000000000               0.000000000               0.000000000              -0.000428447               0.006583355               0.000520444              -0.000983585               0.002522291               0.001538707               0.000000000               0.000000000               0.000000000               0.000000000              -0.000421666               0.006369027               0.000365917              -0.000954251               0.002441071               0.001486821               0.000000000               0.000000000               0.000000000               0.000000000              -0.000403375               0.006159213               0.000257187              -0.000921165               0.002360105               0.001438940               0.000000000               0.000000000               0.000000000               0.000000000              -0.000369345               0.005949766               0.000183113              -0.000882223               0.002277310               0.001395087               0.000000000               0.000000000               0.000000000               0.000000000              -0.000316781               0.005757469               0.000128200              -0.000838474               0.002198628               0.001360154               0.000000000               0.000000000               0.000000000               0.000000000              -0.000251611               0.005584341               0.000079505              -0.000792395               0.002125560               0.001333165               0.000000000               0.000000000               0.000000000               0.000000000              -0.000183715               0.005421167               0.000042979              -0.000746537               0.002055883               0.001309346               0.000000000               0.000000000               0.000000000               0.000000000              -0.000127445               0.005273522               0.000019426              -0.000706980               0.001993483               0.001286503               0.000000000               0.000000000               0.000000000               0.000000000              -0.000083693               0.005151429               0.000001132              -0.000675312               0.001942230               0.001266918               0.000000000               0.000000000               0.000000000               0.000000000              -0.000052106               0.005053090              -0.000009973              -0.000651174               0.001901405               0.001250230               0.000000000               0.000000000               0.000000000               0.000000000              -0.000030479               0.004974468              -0.000013317              -0.000633237               0.001869218               0.001235982               0.000000000               0.000000000               0.000000000               0.000000000              -0.000015466               0.004908354              -0.000009728              -0.000619342               0.001842549               0.001223207               0.000000000               0.000000000               0.000000000               0.000000000              -0.000013613               0.004866880              -0.000009249              -0.000613463               0.001826765               0.001213302               0.000000000               0.000000000               0.000000000               0.000000000               0.001465903               0.005047311               0.002545356              -0.000081203               0.001709487               0.001628283               0.000000000               0.000000000               0.000000000               0.000000000               0.000418076               0.005639815               0.002013668              -0.000548199               0.002062652               0.001514453               0.000000000               0.000000000               0.000000000               0.000000000              -0.000399606               0.006385190               0.001382049              -0.000947999               0.002444375               0.001496376               0.000000000               0.000000000               0.000000000               0.000000000              -0.000547810               0.006423312               0.001000012              -0.001008340               0.002477196               0.001468855               0.000000000               0.000000000               0.000000000               0.000000000              -0.000539396               0.006294778               0.000745598              -0.000989118               0.002427944               0.001438826               0.000000000               0.000000000               0.000000000               0.000000000              -0.000499514               0.006131023               0.000566623              -0.000953693               0.002361552               0.001407858               0.000000000               0.000000000               0.000000000               0.000000000              -0.000449922               0.005948887               0.000436733              -0.000912329               0.002287052               0.001374723               0.000000000               0.000000000               0.000000000               0.000000000              -0.000382363               0.005761804               0.000338313              -0.000863609               0.002208452               0.001344842               0.000000000               0.000000000               0.000000000               0.000000000              -0.000299678               0.005586513               0.000258062              -0.000810691               0.002132383               0.001321691               0.000000000               0.000000000               0.000000000               0.000000000              -0.000217847               0.005418357               0.000189367              -0.000758985               0.002059096               0.001300111               0.000000000               0.000000000               0.000000000               0.000000000              -0.000145378               0.005255167               0.000131189              -0.000711411               0.001988842               0.001277431               0.000000000               0.000000000               0.000000000               0.000000000              -0.000089253               0.005113671               0.000082497              -0.000672677               0.001928766               0.001256089               0.000000000               0.000000000               0.000000000               0.000000000              -0.000057565               0.004994794               0.000042943              -0.000645934               0.001880226               0.001234292               0.000000000               0.000000000               0.000000000               0.000000000              -0.000041860               0.004894276               0.000015624              -0.000627480               0.001840569               0.001213089               0.000000000               0.000000000               0.000000000               0.000000000              -0.000036863               0.004804388               0.000001250              -0.000614370               0.001806237               0.001191866               0.000000000               0.000000000               0.000000000               0.000000000              -0.000039691               0.004715179              -0.000002353              -0.000604280               0.001773137               0.001168857               0.000000000               0.000000000               0.000000000               0.000000000              -0.000041041               0.004666031              -0.000003083              -0.000598643               0.001754876               0.001156233               0.000000000               0.000000000               0.000000000               0.000000000               0.001051019               0.003767299               0.002067620              -0.000076783               0.001281347               0.001204564               0.000000000               0.000000000               0.000000000               0.000000000               0.000239472               0.004621985               0.001919397              -0.000487947               0.001703294               0.001215348               0.000000000               0.000000000               0.000000000               0.000000000              -0.000483135               0.005622230               0.001618267              -0.000883953               0.002168709               0.001284755               0.000000000               0.000000000               0.000000000               0.000000000              -0.000602330               0.005872155               0.001283607              -0.000959891               0.002277329               0.001317438               0.000000000               0.000000000               0.000000000               0.000000000              -0.000574407               0.005881370               0.001013637              -0.000950572               0.002277294               0.001326722               0.000000000               0.000000000               0.000000000               0.000000000              -0.000523536               0.005810864               0.000809327              -0.000922682               0.002244496               0.001321814               0.000000000               0.000000000               0.000000000               0.000000000              -0.000464992               0.005703241               0.000657585              -0.000887275               0.002196820               0.001309544               0.000000000               0.000000000               0.000000000               0.000000000              -0.000391080               0.005577164               0.000535153              -0.000843799               0.002140302               0.001296504               0.000000000               0.000000000               0.000000000               0.000000000              -0.000307575               0.005444708               0.000429577              -0.000795927               0.002080194               0.001284266               0.000000000               0.000000000               0.000000000               0.000000000              -0.000225402               0.005309185               0.000336184              -0.000748172               0.002019101               0.001270929               0.000000000               0.000000000               0.000000000               0.000000000              -0.000154065               0.005170362               0.000252949              -0.000704068               0.001958126               0.001254058               0.000000000               0.000000000               0.000000000               0.000000000              -0.000098855               0.005039901               0.000176253              -0.000667056               0.001902302               0.001235246               0.000000000               0.000000000               0.000000000               0.000000000              -0.000067931               0.004923546               0.000109266              -0.000640916               0.001854804               0.001213888               0.000000000               0.000000000               0.000000000               0.000000000              -0.000059985               0.004821528               0.000058885              -0.000625184               0.001815555               0.001190371               0.000000000               0.000000000               0.000000000               0.000000000              -0.000067794               0.004724145               0.000024884              -0.000615939               0.001780012               0.001164073               0.000000000               0.000000000               0.000000000               0.000000000              -0.000086259               0.004625398               0.000006119              -0.000610520               0.001745290               0.001134770               0.000000000               0.000000000               0.000000000               0.000000000              -0.000095359               0.004577284               0.000000298              -0.000607918               0.001728385               0.001120467               0.000000000               0.000000000               0.000000000               0.000000000               0.000445141               0.002595599               0.001559430              -0.000157523               0.000917698               0.000760174               0.000000000               0.000000000               0.000000000               0.000000000               0.000025650               0.003612475               0.001767695              -0.000441941               0.001351459               0.000909518               0.000000000               0.000000000               0.000000000               0.000000000              -0.000492171               0.004767241               0.001796783              -0.000780468               0.001849220               0.001068752               0.000000000               0.000000000               0.000000000               0.000000000              -0.000583750               0.005218009               0.001553602              -0.000871156               0.002029704               0.001158548               0.000000000               0.000000000               0.000000000               0.000000000              -0.000550526               0.005384142               0.001295171              -0.000879464               0.002087850               0.001208387               0.000000000               0.000000000               0.000000000               0.000000000              -0.000493191               0.005430891               0.001079081              -0.000863806               0.002098214               0.001234408               0.000000000               0.000000000               0.000000000               0.000000000              -0.000436688               0.005415977               0.000911158              -0.000840754               0.002085559               0.001244805               0.000000000               0.000000000               0.000000000               0.000000000              -0.000371487               0.005365779               0.000769316              -0.000810028               0.002058585               0.001248556               0.000000000               0.000000000               0.000000000               0.000000000              -0.000297082               0.005296051               0.000641867              -0.000773411               0.002023136               0.001249726               0.000000000               0.000000000               0.000000000               0.000000000              -0.000220860               0.005209523               0.000528206              -0.000734011               0.001981161               0.001247149               0.000000000               0.000000000               0.000000000               0.000000000              -0.000149913               0.005106656               0.000423902              -0.000694548               0.001933717               0.001239170               0.000000000               0.000000000               0.000000000               0.000000000              -0.000091255               0.004998037               0.000323069              -0.000658974               0.001885653               0.001226680               0.000000000               0.000000000               0.000000000               0.000000000              -0.000053457               0.004889248               0.000228770              -0.000631201               0.001840133               0.001208932               0.000000000               0.000000000               0.000000000               0.000000000              -0.000044990               0.004787517               0.000148244              -0.000615309               0.001800926               0.001185617               0.000000000               0.000000000               0.000000000               0.000000000              -0.000064203               0.004695835               0.000083458              -0.000611054               0.001768947               0.001157893               0.000000000               0.000000000               0.000000000               0.000000000              -0.000106187               0.004608097               0.000034518              -0.000615831               0.001741294               0.001125463               0.000000000               0.000000000               0.000000000               0.000000000              -0.000140048               0.004559398               0.000010656              -0.000622441               0.001727265               0.001104824               0.000000000               0.000000000               0.000000000               0.000000000              -0.000312631               0.001600717               0.001050986              -0.000317326               0.000639342               0.000322015               0.000000000               0.000000000               0.000000000               0.000000000              -0.000270340               0.002656307               0.001536115              -0.000433416               0.001029898               0.000596482               0.000000000               0.000000000               0.000000000               0.000000000              -0.000473325               0.003822964               0.001840787              -0.000655367               0.001492764               0.000837396               0.000000000               0.000000000               0.000000000               0.000000000              -0.000487276               0.004419127               0.001714135              -0.000735119               0.001718067               0.000982948               0.000000000               0.000000000               0.000000000               0.000000000              -0.000441174               0.004729316               0.001500092              -0.000756604               0.001828624               0.001072020               0.000000000               0.000000000               0.000000000               0.000000000              -0.000381441               0.004898812               0.001296464              -0.000755391               0.001884717               0.001129327               0.000000000               0.000000000               0.000000000               0.000000000              -0.000331080               0.004989219               0.001125312              -0.000747806               0.001912325               0.001164519               0.000000000               0.000000000               0.000000000               0.000000000              -0.000281074               0.005030772               0.000976243              -0.000734248               0.001921657               0.001187409               0.000000000               0.000000000               0.000000000               0.000000000              -0.000222392               0.005037995               0.000840135              -0.000713145               0.001917030               0.001203885               0.000000000               0.000000000               0.000000000               0.000000000              -0.000160236               0.005016780               0.000715721              -0.000687185               0.001901305               0.001214120               0.000000000               0.000000000               0.000000000               0.000000000              -0.000098578               0.004968363               0.000599784              -0.000658011               0.001875441               0.001217430               0.000000000               0.000000000               0.000000000               0.000000000              -0.000040868               0.004902010               0.000486416              -0.000628075               0.001843345               0.001215270               0.000000000               0.000000000               0.000000000               0.000000000               0.000004568               0.004824853               0.000373874              -0.000601392               0.001808732               0.001207340               0.000000000               0.000000000               0.000000000               0.000000000               0.000021195               0.004744220               0.000266853              -0.000585078               0.001776417               0.001191339               0.000000000               0.000000000               0.000000000               0.000000000               0.000001611               0.004667754               0.000169067              -0.000582864               0.001750190               0.001167327               0.000000000               0.000000000               0.000000000               0.000000000              -0.000056987               0.004593799               0.000080010              -0.000595593               0.001729782               0.001134189               0.000000000               0.000000000               0.000000000               0.000000000              -0.000115731               0.004545573               0.000030745              -0.000611594               0.001719040               0.001107446               0.000000000               0.000000000               0.000000000               0.000000000              -0.001152791               0.000833336               0.000599494              -0.000536463               0.000456596              -0.000079867               0.000000000               0.000000000               0.000000000               0.000000000              -0.000623145               0.001799965               0.001244640              -0.000458675               0.000752873               0.000294198               0.000000000               0.000000000               0.000000000               0.000000000              -0.000443153               0.002859917               0.001734273              -0.000523672               0.001127853               0.000604181               0.000000000               0.000000000               0.000000000               0.000000000              -0.000333183               0.003532780               0.001720688              -0.000566541               0.001366428               0.000799887               0.000000000               0.000000000               0.000000000               0.000000000              -0.000253612               0.003960596               0.001569685              -0.000590179               0.001516911               0.000926733               0.000000000               0.000000000               0.000000000               0.000000000              -0.000189426               0.004246544               0.001398383              -0.000601852               0.001616117               0.001014265               0.000000000               0.000000000               0.000000000               0.000000000              -0.000147592               0.004441593               0.001241630              -0.000610545               0.001684031               0.001073486               0.000000000               0.000000000               0.000000000               0.000000000              -0.000114034               0.004578363               0.001100554              -0.000615057               0.001731124               0.001116067               0.000000000               0.000000000               0.000000000               0.000000000              -0.000077237               0.004669569               0.000968714              -0.000612659               0.001760727               0.001148068               0.000000000               0.000000000               0.000000000               0.000000000              -0.000035866               0.004722914               0.000846467              -0.000603813               0.001775560               0.001171747               0.000000000               0.000000000               0.000000000               0.000000000               0.000008679               0.004745549               0.000731749              -0.000589938               0.001778480               0.001188542               0.000000000               0.000000000               0.000000000               0.000000000               0.000056346               0.004742608               0.000620711              -0.000571695               0.001771419               0.001199724               0.000000000               0.000000000               0.000000000               0.000000000               0.000105278               0.004720702               0.000504305              -0.000550607               0.001757087               0.001206480               0.000000000               0.000000000               0.000000000               0.000000000               0.000140302               0.004685596               0.000383228              -0.000533085               0.001739545               0.001206460               0.000000000               0.000000000               0.000000000               0.000000000               0.000142861               0.004637056               0.000262360              -0.000526058               0.001721023               0.001194965               0.000000000               0.000000000               0.000000000               0.000000000               0.000100831               0.004583857               0.000134876              -0.000535169               0.001706327               0.001171158               0.000000000               0.000000000               0.000000000               0.000000000               0.000045198               0.004545335               0.000061759              -0.000551216               0.001698835               0.001147619               0.000000000               0.000000000               0.000000000               0.000000000              -0.001979368               0.000296246               0.000259937              -0.000779293               0.000358511              -0.000420782               0.000000000               0.000000000               0.000000000               0.000000000              -0.000990673               0.001092781               0.000922950              -0.000508099               0.000533622               0.000025523               0.000000000               0.000000000               0.000000000               0.000000000              -0.000414693               0.001969354               0.001472127              -0.000401679               0.000790337               0.000388658               0.000000000               0.000000000               0.000000000               0.000000000              -0.000153299               0.002657282               0.001539998              -0.000389648               0.001015634               0.000625986               0.000000000               0.000000000               0.000000000               0.000000000              -0.000024294               0.003166727               0.001454682              -0.000404951               0.001190548               0.000785597               0.000000000               0.000000000               0.000000000               0.000000000               0.000049843               0.003548038               0.001329155              -0.000424814               0.001324272               0.000899458               0.000000000               0.000000000               0.000000000               0.000000000               0.000090528               0.003832871               0.001203216              -0.000445161               0.001425997               0.000980837               0.000000000               0.000000000               0.000000000               0.000000000               0.000108795               0.004053032               0.001084919              -0.000465831               0.001506274               0.001040443               0.000000000               0.000000000               0.000000000               0.000000000               0.000125236               0.004226041               0.000971371              -0.000481291               0.001569096               0.001087805               0.000000000               0.000000000               0.000000000               0.000000000               0.000146922               0.004357461               0.000863824              -0.000489586               0.001615667               0.001126082               0.000000000               0.000000000               0.000000000               0.000000000               0.000175374               0.004456374               0.000761204              -0.000491280               0.001649203               0.001157923               0.000000000               0.000000000               0.000000000               0.000000000               0.000211916               0.004523915               0.000663393              -0.000486020               0.001669963               0.001183943               0.000000000               0.000000000               0.000000000               0.000000000               0.000259321               0.004566495               0.000560593              -0.000473565               0.001680005               0.001206439               0.000000000               0.000000000               0.000000000               0.000000000               0.000314902               0.004589574               0.000445006              -0.000455608               0.001681712               0.001226104               0.000000000               0.000000000               0.000000000               0.000000000               0.000357255               0.004585307               0.000317723              -0.000439192               0.001674818               0.001235626               0.000000000               0.000000000               0.000000000               0.000000000               0.000372973               0.004563190               0.000170721              -0.000430533               0.001664559               0.001234026               0.000000000               0.000000000               0.000000000               0.000000000               0.000365460               0.004544592               0.000087965              -0.000431026               0.001658524               0.001227498               0.000000000               0.000000000               0.000000000               0.000000000              -0.002683791              -0.000038067               0.000058887              -0.001001662               0.000321196              -0.000680466               0.000000000               0.000000000               0.000000000               0.000000000              -0.001318752               0.000573475               0.000598948              -0.000566216               0.000379894              -0.000186322               0.000000000               0.000000000               0.000000000               0.000000000              -0.000400380               0.001249283               0.001069505              -0.000306303               0.000518524               0.000212221               0.000000000               0.000000000               0.000000000               0.000000000               0.000008168               0.001909967               0.001165298              -0.000235683               0.000715210               0.000479526               0.000000000               0.000000000               0.000000000               0.000000000               0.000196098               0.002462963               0.001130457              -0.000234334               0.000899091               0.000664756               0.000000000               0.000000000               0.000000000               0.000000000               0.000288148               0.002909017               0.001056008              -0.000255572               0.001054853               0.000799281               0.000000000               0.000000000               0.000000000               0.000000000               0.000332499               0.003261468               0.000970185              -0.000282996               0.001181477               0.000898481               0.000000000               0.000000000               0.000000000               0.000000000               0.000345727               0.003544064               0.000885800              -0.000313360               0.001285796               0.000972436               0.000000000               0.000000000               0.000000000               0.000000000               0.000349313               0.003779193               0.000804569              -0.000341406               0.001373521               0.001032114               0.000000000               0.000000000               0.000000000               0.000000000               0.000356759               0.003974284               0.000723749              -0.000363000               0.001445748               0.001082748               0.000000000               0.000000000               0.000000000               0.000000000               0.000374622               0.004134272               0.000645899              -0.000376300               0.001503510               0.001127210               0.000000000               0.000000000               0.000000000               0.000000000               0.000407968               0.004267056               0.000571070              -0.000380393               0.001549135               0.001168742               0.000000000               0.000000000               0.000000000               0.000000000               0.000455921               0.004373985               0.000492734              -0.000375777               0.001583239               0.001207462               0.000000000               0.000000000               0.000000000               0.000000000               0.000524245               0.004457922               0.000400845              -0.000360648               0.001606175               0.001245527               0.000000000               0.000000000               0.000000000               0.000000000               0.000608685               0.004512803               0.000292304              -0.000335843               0.001616200               0.001280357               0.000000000               0.000000000               0.000000000               0.000000000               0.000701696               0.004533358               0.000159671              -0.000303533               0.001612282               0.001308749               0.000000000               0.000000000               0.000000000               0.000000000               0.000769330               0.004541236               0.000087167              -0.000279155               0.001606782               0.001327627               0.000000000               0.000000000               0.000000000               0.000000000              -0.003162595              -0.000208815              -0.000012132              -0.001159870               0.000317016              -0.000842854               0.000000000               0.000000000               0.000000000               0.000000000              -0.001549906               0.000260744               0.000290417              -0.000613807               0.000291515              -0.000322292               0.000000000               0.000000000               0.000000000               0.000000000              -0.000399333               0.000783196               0.000561730              -0.000247649               0.000343612               0.000095963               0.000000000               0.000000000               0.000000000               0.000000000               0.000113164               0.001408569               0.000628707              -0.000133635               0.000514063               0.000380428               0.000000000               0.000000000               0.000000000               0.000000000               0.000356561               0.001975982               0.000621898              -0.000113288               0.000696416               0.000583129               0.000000000               0.000000000               0.000000000               0.000000000               0.000469834               0.002453035               0.000590316              -0.000130442               0.000861151               0.000730709               0.000000000               0.000000000               0.000000000               0.000000000               0.000516140               0.002843212               0.000547080              -0.000161849               0.001001678               0.000839828               0.000000000               0.000000000               0.000000000               0.000000000               0.000532299               0.003166060               0.000502444              -0.000196145               0.001120725               0.000924579               0.000000000               0.000000000               0.000000000               0.000000000               0.000532986               0.003437040               0.000460083              -0.000229760               0.001222255               0.000992495               0.000000000               0.000000000               0.000000000               0.000000000               0.000533773               0.003668346               0.000417258              -0.000258378               0.001308896               0.001050518               0.000000000               0.000000000               0.000000000               0.000000000               0.000545402               0.003871198               0.000376093              -0.000279374               0.001383511               0.001104137               0.000000000               0.000000000               0.000000000               0.000000000               0.000573706               0.004050220               0.000335335              -0.000291137               0.001447105               0.001155968               0.000000000               0.000000000               0.000000000               0.000000000               0.000624326               0.004210541               0.000291823              -0.000292195               0.001500898               0.001208703               0.000000000               0.000000000               0.000000000               0.000000000               0.000704912               0.004348474               0.000241246              -0.000279217               0.001542549               0.001263332               0.000000000               0.000000000               0.000000000               0.000000000               0.000821245               0.004447864               0.000178405              -0.000248015               0.001565278               0.001317263               0.000000000               0.000000000               0.000000000               0.000000000               0.000979358               0.004503258               0.000098958              -0.000195648               0.001566287               0.001370639               0.000000000               0.000000000               0.000000000               0.000000000               0.001114168               0.004535510               0.000056710              -0.000149125               0.001561530               0.001412405               0.000000000               0.000000000               0.000000000               0.000000000              -0.003333935              -0.000259664              -0.000000000              -0.001217767               0.000319365              -0.000898401               0.000000000               0.000000000               0.000000000               0.000000000              -0.001634331               0.000156293              -0.000000000              -0.000632410               0.000262899              -0.000369511               0.000000000               0.000000000               0.000000000               0.000000000              -0.000400620               0.000623924              -0.000000000              -0.000228223               0.000284047               0.000055824               0.000000000               0.000000000               0.000000000               0.000000000               0.000148861               0.001234603               0.000000000              -0.000098502               0.000444364               0.000345862               0.000000000               0.000000000               0.000000000               0.000000000               0.000416901               0.001802138               0.000000000              -0.000068930               0.000623683               0.000554754               0.000000000               0.000000000               0.000000000               0.000000000               0.000538251               0.002285498               0.000000000              -0.000083843               0.000789773               0.000705930               0.000000000               0.000000000               0.000000000               0.000000000               0.000586066               0.002687162              -0.000000000              -0.000116121               0.000934419               0.000818298               0.000000000               0.000000000               0.000000000               0.000000000               0.000602519               0.003022568               0.000000000              -0.000151876               0.001058138               0.000906262               0.000000000               0.000000000               0.000000000               0.000000000               0.000604834               0.003305658               0.000000000              -0.000186394               0.001164006               0.000977612               0.000000000               0.000000000               0.000000000               0.000000000               0.000604484               0.003550153              -0.000000000              -0.000217087               0.001255735               0.001038648               0.000000000               0.000000000               0.000000000               0.000000000               0.000613656               0.003769111              -0.000000000              -0.000241017               0.001336697               0.001095680               0.000000000               0.000000000               0.000000000               0.000000000               0.000638720               0.003968117               0.000000000              -0.000256494               0.001408190               0.001151696               0.000000000               0.000000000               0.000000000               0.000000000               0.000691075               0.004149711               0.000000000              -0.000259560               0.001469743               0.001210183               0.000000000               0.000000000               0.000000000               0.000000000               0.000776878               0.004304373              -0.000000000              -0.000246717               0.001517016               0.001270299               0.000000000               0.000000000               0.000000000               0.000000000               0.000906418               0.004421491               0.000000000              -0.000212779               0.001544742               0.001331963               0.000000000               0.000000000               0.000000000               0.000000000               0.001091505               0.004491847               0.000000000              -0.000152166               0.001547989               0.001395823               0.000000000               0.000000000               0.000000000               0.000000000               0.001252593               0.004532330              -0.000000000              -0.000096819               0.001543035               0.001446216               0.000000000               0.000000000               0.000000000               0.000000000               0.001345291               0.015092427              -0.000000000              -0.001382066               0.005491447               0.004109381               0.000000000               0.000000000               0.000000000               0.000000000               0.001421827               0.012190703              -0.000000000              -0.000990650               0.004393744               0.003403093               0.000000000               0.000000000               0.000000000               0.000000000               0.001936372               0.009842999              -0.000000000              -0.000504234               0.003449045               0.002944811               0.000000000               0.000000000               0.000000000               0.000000000               0.001957376               0.008535518              -0.000000000              -0.000332923               0.002956119               0.002623196               0.000000000               0.000000000               0.000000000               0.000000000               0.001811153               0.007740642              -0.000000000              -0.000288397               0.002676321               0.002387923               0.000000000               0.000000000               0.000000000               0.000000000               0.001610993               0.007219077              -0.000000000              -0.000298261               0.002505756               0.002207494               0.000000000               0.000000000               0.000000000               0.000000000               0.001404668               0.006860371               0.000000000              -0.000330795               0.002397032               0.002066237               0.000000000               0.000000000               0.000000000               0.000000000               0.001201257               0.006612782               0.000000000              -0.000376126               0.002329614               0.001953488               0.000000000               0.000000000               0.000000000               0.000000000               0.001000784               0.006435232              -0.000000000              -0.000429109               0.002288092               0.001858983               0.000000000               0.000000000               0.000000000               0.000000000               0.000810713               0.006300714               0.000000000              -0.000483571               0.002261407               0.001777837               0.000000000               0.000000000               0.000000000               0.000000000               0.000634512               0.006187376              -0.000000000              -0.000535479               0.002240931               0.001705452               0.000000000               0.000000000               0.000000000               0.000000000               0.000476140               0.006083038              -0.000000000              -0.000581826               0.002221601               0.001639775               0.000000000               0.000000000               0.000000000               0.000000000               0.000337442               0.005978003              -0.000000000              -0.000620708               0.002199550               0.001578842               0.000000000               0.000000000               0.000000000               0.000000000               0.000221969               0.005863284              -0.000000000              -0.000649671               0.002170965               0.001521295               0.000000000               0.000000000               0.000000000               0.000000000               0.000129294               0.005728452              -0.000000000              -0.000667570               0.002131988               0.001464418               0.000000000               0.000000000               0.000000000               0.000000000               0.000057680               0.005563439               0.000000000              -0.000673798               0.002079060               0.001405262               0.000000000               0.000000000               0.000000000               0.000000000               0.000014940               0.005436015               0.000000000              -0.000673898               0.002036619               0.001362722               0.000000000               0.000000000               0.000000000               0.000000000               0.001414157               0.014812374              -0.001089628              -0.001321235               0.005377820               0.004056585               0.000000000               0.000000000               0.000000000               0.000000000               0.001422484               0.011997636              -0.000633169              -0.000966271               0.004321262               0.003354992               0.000000000               0.000000000               0.000000000               0.000000000               0.001864754               0.009749318              -0.000172172              -0.000519381               0.003422867               0.002903486               0.000000000               0.000000000               0.000000000               0.000000000               0.001858664               0.008495023               0.000031362              -0.000364878               0.002953272               0.002588394               0.000000000               0.000000000               0.000000000               0.000000000               0.001707301               0.007726828               0.000122241              -0.000325615               0.002684122               0.002358507               0.000000000               0.000000000               0.000000000               0.000000000               0.001506439               0.007219562               0.000161032              -0.000337530               0.002519007               0.002181477               0.000000000               0.000000000               0.000000000               0.000000000               0.001298674               0.006871209               0.000177141              -0.000371897               0.002414346               0.002042449               0.000000000               0.000000000               0.000000000               0.000000000               0.001097532               0.006623582               0.000181790              -0.000416372               0.002346629               0.001930257               0.000000000               0.000000000               0.000000000               0.000000000               0.000909060               0.006444028               0.000179256              -0.000464605               0.002302856               0.001838251               0.000000000               0.000000000               0.000000000               0.000000000               0.000733723               0.006306135               0.000171659              -0.000513119               0.002273064               0.001759944               0.000000000               0.000000000               0.000000000               0.000000000               0.000570239               0.006189097               0.000160357              -0.000559796               0.002249610               0.001689814               0.000000000               0.000000000               0.000000000               0.000000000               0.000423017               0.006081585               0.000147773              -0.000601565               0.002227696               0.001626131               0.000000000               0.000000000               0.000000000               0.000000000               0.000297382               0.005977135               0.000131813              -0.000635622               0.002204232               0.001568610               0.000000000               0.000000000               0.000000000               0.000000000               0.000195728               0.005864684               0.000110020              -0.000659686               0.002174771               0.001515085               0.000000000               0.000000000               0.000000000               0.000000000               0.000113815               0.005734432               0.000080996              -0.000674122               0.002136165               0.001462044               0.000000000               0.000000000               0.000000000               0.000000000               0.000050442               0.005581634               0.000043997              -0.000678787               0.002086788               0.001408002               0.000000000               0.000000000               0.000000000               0.000000000               0.000011862               0.005464698               0.000026614              -0.000678637               0.002047760               0.001369123               0.000000000               0.000000000               0.000000000               0.000000000               0.001591062               0.014008098              -0.002049365              -0.001154362               0.005054106               0.003899744               0.000000000               0.000000000               0.000000000               0.000000000               0.001415673               0.011452509              -0.001194012              -0.000900684               0.004117693               0.003217009               0.000000000               0.000000000               0.000000000               0.000000000               0.001662279               0.009481343              -0.000335492              -0.000561812               0.003347687               0.002785875               0.000000000               0.000000000               0.000000000               0.000000000               0.001580313               0.008370770               0.000033495              -0.000453728               0.002941471               0.002487744               0.000000000               0.000000000               0.000000000               0.000000000               0.001408611               0.007675729               0.000193707              -0.000431236               0.002702296               0.002271060               0.000000000               0.000000000               0.000000000               0.000000000               0.001212615               0.007209959               0.000263088              -0.000446513               0.002552133               0.002105620               0.000000000               0.000000000               0.000000000               0.000000000               0.001015815               0.006884270               0.000291500              -0.000479602               0.002454601               0.001974999               0.000000000               0.000000000               0.000000000               0.000000000               0.000832350               0.006644208               0.000300665              -0.000518393               0.002387512               0.001869118               0.000000000               0.000000000               0.000000000               0.000000000               0.000673201               0.006461208               0.000299992              -0.000555199               0.002338781               0.001783581               0.000000000               0.000000000               0.000000000               0.000000000               0.000531607               0.006313107               0.000290020              -0.000589784               0.002300943               0.001711158               0.000000000               0.000000000               0.000000000               0.000000000               0.000405546               0.006186270               0.000273677              -0.000621203               0.002269137               0.001647934               0.000000000               0.000000000               0.000000000               0.000000000               0.000297788               0.006072769               0.000255855              -0.000647424               0.002240044               0.001592620               0.000000000               0.000000000               0.000000000               0.000000000               0.000207003               0.005962921               0.000230970              -0.000667737               0.002210200               0.001542462               0.000000000               0.000000000               0.000000000               0.000000000               0.000134677               0.005850098               0.000192975              -0.000680757               0.002176932               0.001496175               0.000000000               0.000000000               0.000000000               0.000000000               0.000076169               0.005731962               0.000145044              -0.000687930               0.002139945               0.001452015               0.000000000               0.000000000               0.000000000               0.000000000               0.000031104               0.005610713               0.000082252              -0.000689673               0.002100110               0.001410437               0.000000000               0.000000000               0.000000000               0.000000000               0.000004052               0.005526554               0.000049542              -0.000689298               0.002071932               0.001382634               0.000000000               0.000000000               0.000000000               0.000000000               0.001815351               0.012780142              -0.002779869              -0.000916761               0.004565591               0.003648830               0.000000000               0.000000000               0.000000000               0.000000000               0.001381085               0.010634634              -0.001632787              -0.000811421               0.003815316               0.003003895               0.000000000               0.000000000               0.000000000               0.000000000               0.001351769               0.009074909              -0.000490794              -0.000627449               0.003234089               0.002606640               0.000000000               0.000000000               0.000000000               0.000000000               0.001176027               0.008166009              -0.000017646              -0.000579740               0.002915222               0.002335483               0.000000000               0.000000000               0.000000000               0.000000000               0.000986469               0.007573874               0.000184411              -0.000576807               0.002716868               0.002140061               0.000000000               0.000000000               0.000000000               0.000000000               0.000805097               0.007162312               0.000273839              -0.000593376               0.002585205               0.001991829               0.000000000               0.000000000               0.000000000               0.000000000               0.000637201               0.006864672               0.000312409              -0.000619132               0.002494578               0.001875446               0.000000000               0.000000000               0.000000000               0.000000000               0.000490055               0.006639319               0.000326006              -0.000646143               0.002428465               0.001782322               0.000000000               0.000000000               0.000000000               0.000000000               0.000371244               0.006455264               0.000327105              -0.000667690               0.002374296               0.001706606               0.000000000               0.000000000               0.000000000               0.000000000               0.000276610               0.006296970               0.000319135              -0.000683391               0.002326766               0.001643375               0.000000000               0.000000000               0.000000000               0.000000000               0.000202696               0.006156712               0.000304791              -0.000693576               0.002283409               0.001589833               0.000000000               0.000000000               0.000000000               0.000000000               0.000146041               0.006027086               0.000284666              -0.000698619               0.002241882               0.001543263               0.000000000               0.000000000               0.000000000               0.000000000               0.000098487               0.005901415               0.000252991              -0.000700743               0.002200700               0.001499957               0.000000000               0.000000000               0.000000000               0.000000000               0.000064281               0.005783985               0.000207513              -0.000698891               0.002160940               0.001462048               0.000000000               0.000000000               0.000000000               0.000000000               0.000038644               0.005678432               0.000153045              -0.000695311               0.002124562               0.001429251               0.000000000               0.000000000               0.000000000               0.000000000               0.000015389               0.005587787               0.000085284              -0.000692701               0.002093477               0.001400777               0.000000000               0.000000000               0.000000000               0.000000000               0.000000839               0.005538656               0.000049263              -0.000692015               0.002076872               0.001384857               0.000000000               0.000000000               0.000000000               0.000000000               0.002007312               0.011272294              -0.003222632              -0.000656296               0.003976158               0.003319862               0.000000000               0.000000000               0.000000000               0.000000000               0.001293808               0.009643334              -0.001924774              -0.000720238               0.003454491               0.002734253               0.000000000               0.000000000               0.000000000               0.000000000               0.000966160               0.008580399              -0.000642241              -0.000710238               0.003096850               0.002386612               0.000000000               0.000000000               0.000000000               0.000000000               0.000713590               0.007894122              -0.000129072              -0.000719167               0.002871070               0.002151903               0.000000000               0.000000000               0.000000000               0.000000000               0.000527854               0.007411688               0.000086666              -0.000728514               0.002713376               0.001984862               0.000000000               0.000000000               0.000000000               0.000000000               0.000378340               0.007057476               0.000185823              -0.000740305               0.002599237               0.001858932               0.000000000               0.000000000               0.000000000               0.000000000               0.000255922               0.006789321               0.000235441              -0.000752692               0.002513982               0.001761290               0.000000000               0.000000000               0.000000000               0.000000000               0.000159207               0.006573773               0.000256643              -0.000762017               0.002445241               0.001683224               0.000000000               0.000000000               0.000000000               0.000000000               0.000087456               0.006385840               0.000262466              -0.000765432               0.002383736               0.001618304               0.000000000               0.000000000               0.000000000               0.000000000               0.000041686               0.006215429               0.000260523              -0.000761295               0.002325554               0.001564259               0.000000000               0.000000000               0.000000000               0.000000000               0.000014900               0.006059784               0.000249305              -0.000751884               0.002270536               0.001518652               0.000000000               0.000000000               0.000000000               0.000000000               0.000000848               0.005912066               0.000229776              -0.000738688               0.002216898               0.001478210               0.000000000               0.000000000               0.000000000               0.000000000              -0.000006731               0.005774522               0.000200617              -0.000724338               0.002166267               0.001441930               0.000000000               0.000000000               0.000000000               0.000000000              -0.000007148               0.005654055               0.000159814              -0.000709436               0.002121145               0.001411709               0.000000000               0.000000000               0.000000000               0.000000000              -0.000003017               0.005553960               0.000112413              -0.000695374               0.002083093               0.001387718               0.000000000               0.000000000               0.000000000               0.000000000              -0.000001835               0.005478109               0.000059905              -0.000685450               0.002054502               0.001369051               0.000000000               0.000000000               0.000000000               0.000000000              -0.000005428               0.005442548               0.000034413              -0.000682352               0.002041615               0.001359263               0.000000000               0.000000000               0.000000000               0.000000000               0.002082783               0.009628519              -0.003372812              -0.000422524               0.003350315               0.002927791               0.000000000               0.000000000               0.000000000               0.000000000               0.001135002               0.008579250              -0.002076350              -0.000646780               0.003075314               0.002428534               0.000000000               0.000000000               0.000000000               0.000000000               0.000549810               0.008043459              -0.000800171              -0.000799252               0.002947543               0.002148292               0.000000000               0.000000000               0.000000000               0.000000000               0.000261862               0.007571909              -0.000301035              -0.000848288               0.002806707               0.001958419               0.000000000               0.000000000               0.000000000               0.000000000               0.000108003               0.007189611              -0.000086451              -0.000858198               0.002682579               0.001824381               0.000000000               0.000000000               0.000000000               0.000000000               0.000009536               0.006886161               0.000023166              -0.000857192               0.002581095               0.001723903               0.000000000               0.000000000               0.000000000               0.000000000              -0.000061104               0.006640292               0.000089300              -0.000852948               0.002497725               0.001644776               0.000000000               0.000000000               0.000000000               0.000000000              -0.000107269               0.006428733               0.000124052              -0.000843816               0.002424161               0.001580346               0.000000000               0.000000000               0.000000000               0.000000000              -0.000132167               0.006231615               0.000139544              -0.000828512               0.002353355               0.001524843               0.000000000               0.000000000               0.000000000               0.000000000              -0.000135854               0.006049812               0.000148520              -0.000807170               0.002285640               0.001478471               0.000000000               0.000000000               0.000000000               0.000000000              -0.000122228               0.005885610               0.000148142              -0.000781535               0.002222362               0.001440827               0.000000000               0.000000000               0.000000000               0.000000000              -0.000099032               0.005734961               0.000137698              -0.000754005               0.002162970               0.001408964               0.000000000               0.000000000               0.000000000               0.000000000              -0.000076894               0.005596714               0.000120846              -0.000728423               0.002108360               0.001379938               0.000000000               0.000000000               0.000000000               0.000000000              -0.000057264               0.005477773               0.000094910              -0.000706194               0.002061304               0.001355110               0.000000000               0.000000000               0.000000000               0.000000000              -0.000037658               0.005383696               0.000064478              -0.000687082               0.002023575               0.001336493               0.000000000               0.000000000               0.000000000               0.000000000              -0.000019083               0.005315647               0.000034621              -0.000671610               0.001995735               0.001324124               0.000000000               0.000000000               0.000000000               0.000000000              -0.000014157               0.005280819               0.000022608              -0.000665410               0.001982059               0.001316649               0.000000000               0.000000000               0.000000000               0.000000000               0.002000148               0.007972355              -0.003270391              -0.000246492               0.002739588               0.002493096               0.000000000               0.000000000               0.000000000               0.000000000               0.000914927               0.007523342              -0.002119539              -0.000597320               0.002706862               0.002109541               0.000000000               0.000000000               0.000000000               0.000000000               0.000155134               0.007488060              -0.000975996              -0.000877830               0.002788605               0.001910775               0.000000000               0.000000000               0.000000000               0.000000000              -0.000117897               0.007205812              -0.000520506              -0.000944936               0.002716892               0.001771956               0.000000000               0.000000000               0.000000000               0.000000000              -0.000218518               0.006910156              -0.000302932              -0.000945711               0.002618599               0.001672888               0.000000000               0.000000000               0.000000000               0.000000000              -0.000260854               0.006651241              -0.000172838              -0.000929223               0.002526799               0.001597576               0.000000000               0.000000000               0.000000000               0.000000000              -0.000281202               0.006425034              -0.000084561              -0.000908578               0.002444516               0.001535938               0.000000000               0.000000000               0.000000000               0.000000000              -0.000285496               0.006211015              -0.000031846              -0.000883436               0.002364796               0.001481360               0.000000000               0.000000000               0.000000000               0.000000000              -0.000270987               0.006008581              -0.000000416              -0.000852691               0.002287071               0.001434380               0.000000000               0.000000000               0.000000000               0.000000000              -0.000235373               0.005827845               0.000026668              -0.000816743               0.002214843               0.001398100               0.000000000               0.000000000               0.000000000               0.000000000              -0.000186523               0.005665334               0.000044325              -0.000778111               0.002147796               0.001369685               0.000000000               0.000000000               0.000000000               0.000000000              -0.000139227               0.005514796               0.000049381              -0.000741558               0.002085433               0.001343875               0.000000000               0.000000000               0.000000000               0.000000000              -0.000100901               0.005381164               0.000048358              -0.000710482               0.002030530               0.001320049               0.000000000               0.000000000               0.000000000               0.000000000              -0.000070973               0.005271653               0.000041607              -0.000685570               0.001985723               0.001300154               0.000000000               0.000000000               0.000000000               0.000000000              -0.000043823               0.005189164               0.000030476              -0.000665078               0.001951397               0.001286319               0.000000000               0.000000000               0.000000000               0.000000000              -0.000020517               0.005128651               0.000016980              -0.000648774               0.001925791               0.001277017               0.000000000               0.000000000               0.000000000               0.000000000              -0.000015075               0.005093783               0.000012404              -0.000642375               0.001912036               0.001269661               0.000000000               0.000000000               0.000000000               0.000000000               0.001773948               0.006404349              -0.002969814              -0.000135317               0.002179866               0.002044549               0.000000000               0.000000000               0.000000000               0.000000000               0.000655396               0.006531867              -0.002085539              -0.000570710               0.002367503               0.001796793               0.000000000               0.000000000               0.000000000               0.000000000              -0.000175186               0.006923159              -0.001166837              -0.000931088               0.002618059               0.001686971               0.000000000               0.000000000               0.000000000               0.000000000              -0.000390241               0.006799562              -0.000753826              -0.000996283               0.002598592               0.001602309               0.000000000               0.000000000               0.000000000               0.000000000              -0.000428447               0.006583355              -0.000520444              -0.000983585               0.002522291               0.001538707               0.000000000               0.000000000               0.000000000               0.000000000              -0.000421666               0.006369027              -0.000365917              -0.000954251               0.002441071               0.001486821               0.000000000               0.000000000               0.000000000               0.000000000              -0.000403375               0.006159213              -0.000257187              -0.000921165               0.002360105               0.001438940               0.000000000               0.000000000               0.000000000               0.000000000              -0.000369345               0.005949766              -0.000183113              -0.000882223               0.002277310               0.001395087               0.000000000               0.000000000               0.000000000               0.000000000              -0.000316781               0.005757469              -0.000128200              -0.000838474               0.002198628               0.001360154               0.000000000               0.000000000               0.000000000               0.000000000              -0.000251611               0.005584341              -0.000079505              -0.000792395               0.002125560               0.001333165               0.000000000               0.000000000               0.000000000               0.000000000              -0.000183715               0.005421167              -0.000042979              -0.000746537               0.002055883               0.001309346               0.000000000               0.000000000               0.000000000               0.000000000              -0.000127445               0.005273522              -0.000019426              -0.000706980               0.001993483               0.001286503               0.000000000               0.000000000               0.000000000               0.000000000              -0.000083693               0.005151429              -0.000001132              -0.000675312               0.001942230               0.001266918               0.000000000               0.000000000               0.000000000               0.000000000              -0.000052106               0.005053090               0.000009973              -0.000651174               0.001901405               0.001250230               0.000000000               0.000000000               0.000000000               0.000000000              -0.000030479               0.004974468               0.000013317              -0.000633237               0.001869218               0.001235982               0.000000000               0.000000000               0.000000000               0.000000000              -0.000015466               0.004908354               0.000009728              -0.000619342               0.001842549               0.001223207               0.000000000               0.000000000               0.000000000               0.000000000              -0.000013613               0.004866880               0.000009249              -0.000613463               0.001826765               0.001213302               0.000000000               0.000000000               0.000000000               0.000000000               0.001465903               0.005047311              -0.002545356              -0.000081203               0.001709487               0.001628283               0.000000000               0.000000000               0.000000000               0.000000000               0.000418076               0.005639815              -0.002013668              -0.000548199               0.002062652               0.001514453               0.000000000               0.000000000               0.000000000               0.000000000              -0.000399606               0.006385190              -0.001382049              -0.000947999               0.002444375               0.001496376               0.000000000               0.000000000               0.000000000               0.000000000              -0.000547810               0.006423312              -0.001000012              -0.001008340               0.002477196               0.001468855               0.000000000               0.000000000               0.000000000               0.000000000              -0.000539396               0.006294778              -0.000745598              -0.000989118               0.002427944               0.001438826               0.000000000               0.000000000               0.000000000               0.000000000              -0.000499514               0.006131023              -0.000566623              -0.000953693               0.002361552               0.001407858               0.000000000               0.000000000               0.000000000               0.000000000              -0.000449922               0.005948887              -0.000436733              -0.000912329               0.002287052               0.001374723               0.000000000               0.000000000               0.000000000               0.000000000              -0.000382363               0.005761804              -0.000338313              -0.000863609               0.002208452               0.001344842               0.000000000               0.000000000               0.000000000               0.000000000              -0.000299678               0.005586513              -0.000258062              -0.000810691               0.002132383               0.001321691               0.000000000               0.000000000               0.000000000               0.000000000              -0.000217847               0.005418357              -0.000189367              -0.000758985               0.002059096               0.001300111               0.000000000               0.000000000               0.000000000               0.000000000              -0.000145378               0.005255167              -0.000131189              -0.000711411               0.001988842               0.001277431               0.000000000               0.000000000               0.000000000               0.000000000              -0.000089253               0.005113671              -0.000082497              -0.000672677               0.001928766               0.001256089               0.000000000               0.000000000               0.000000000               0.000000000              -0.000057565               0.004994794              -0.000042943              -0.000645934               0.001880226               0.001234292               0.000000000               0.000000000               0.000000000               0.000000000              -0.000041860               0.004894276              -0.000015624              -0.000627480               0.001840569               0.001213089               0.000000000               0.000000000               0.000000000               0.000000000              -0.000036863               0.004804388              -0.000001250              -0.000614370               0.001806237               0.001191866               0.000000000               0.000000000               0.000000000               0.000000000              -0.000039691               0.004715179               0.000002353              -0.000604280               0.001773137               0.001168857               0.000000000               0.000000000               0.000000000               0.000000000              -0.000041041               0.004666031               0.000003083              -0.000598643               0.001754876               0.001156233               0.000000000               0.000000000               0.000000000               0.000000000               0.001051019               0.003767299              -0.002067620              -0.000076783               0.001281347               0.001204564               0.000000000               0.000000000               0.000000000               0.000000000               0.000239472               0.004621985              -0.001919397              -0.000487947               0.001703294               0.001215348               0.000000000               0.000000000               0.000000000               0.000000000              -0.000483135               0.005622230              -0.001618267              -0.000883953               0.002168709               0.001284755               0.000000000               0.000000000               0.000000000               0.000000000              -0.000602330               0.005872155              -0.001283607              -0.000959891               0.002277329               0.001317438               0.000000000               0.000000000               0.000000000               0.000000000              -0.000574407               0.005881370              -0.001013637              -0.000950572               0.002277294               0.001326722               0.000000000               0.000000000               0.000000000               0.000000000              -0.000523536               0.005810864              -0.000809327              -0.000922682               0.002244496               0.001321814               0.000000000               0.000000000               0.000000000               0.000000000              -0.000464992               0.005703241              -0.000657585              -0.000887275               0.002196820               0.001309544               0.000000000               0.000000000               0.000000000               0.000000000              -0.000391080               0.005577164              -0.000535153              -0.000843799               0.002140302               0.001296504               0.000000000               0.000000000               0.000000000               0.000000000              -0.000307575               0.005444708              -0.000429577              -0.000795927               0.002080194               0.001284266               0.000000000               0.000000000               0.000000000               0.000000000              -0.000225402               0.005309185              -0.000336184              -0.000748172               0.002019101               0.001270929               0.000000000               0.000000000               0.000000000               0.000000000              -0.000154065               0.005170362              -0.000252949              -0.000704068               0.001958126               0.001254058               0.000000000               0.000000000               0.000000000               0.000000000              -0.000098855               0.005039901              -0.000176253              -0.000667056               0.001902302               0.001235246               0.000000000               0.000000000               0.000000000               0.000000000              -0.000067931               0.004923546              -0.000109266              -0.000640916               0.001854804               0.001213888               0.000000000               0.000000000               0.000000000               0.000000000              -0.000059985               0.004821528              -0.000058885              -0.000625184               0.001815555               0.001190371               0.000000000               0.000000000               0.000000000               0.000000000              -0.000067794               0.004724145              -0.000024884              -0.000615939               0.001780012               0.001164073               0.000000000               0.000000000               0.000000000               0.000000000              -0.000086259               0.004625398              -0.000006119              -0.000610520               0.001745290               0.001134770               0.000000000               0.000000000               0.000000000               0.000000000              -0.000095359               0.004577284              -0.000000298              -0.000607918               0.001728385               0.001120467               0.000000000               0.000000000               0.000000000               0.000000000               0.000445141               0.002595599              -0.001559430              -0.000157523               0.000917698               0.000760174               0.000000000               0.000000000               0.000000000               0.000000000               0.000025650               0.003612475              -0.001767695              -0.000441941               0.001351459               0.000909518               0.000000000               0.000000000               0.000000000               0.000000000              -0.000492171               0.004767241              -0.001796783              -0.000780468               0.001849220               0.001068752               0.000000000               0.000000000               0.000000000               0.000000000              -0.000583750               0.005218009              -0.001553602              -0.000871156               0.002029704               0.001158548               0.000000000               0.000000000               0.000000000               0.000000000              -0.000550526               0.005384142              -0.001295171              -0.000879464               0.002087850               0.001208387               0.000000000               0.000000000               0.000000000               0.000000000              -0.000493191               0.005430891              -0.001079081              -0.000863806               0.002098214               0.001234408               0.000000000               0.000000000               0.000000000               0.000000000              -0.000436688               0.005415977              -0.000911158              -0.000840754               0.002085559               0.001244805               0.000000000               0.000000000               0.000000000               0.000000000              -0.000371487               0.005365779              -0.000769316              -0.000810028               0.002058585               0.001248556               0.000000000               0.000000000               0.000000000               0.000000000              -0.000297082               0.005296051              -0.000641867              -0.000773411               0.002023136               0.001249726               0.000000000               0.000000000               0.000000000               0.000000000              -0.000220860               0.005209523              -0.000528206              -0.000734011               0.001981161               0.001247149               0.000000000               0.000000000               0.000000000               0.000000000              -0.000149913               0.005106656              -0.000423902              -0.000694548               0.001933717               0.001239170               0.000000000               0.000000000               0.000000000               0.000000000              -0.000091255               0.004998037              -0.000323069              -0.000658974               0.001885653               0.001226680               0.000000000               0.000000000               0.000000000               0.000000000              -0.000053457               0.004889248              -0.000228770              -0.000631201               0.001840133               0.001208932               0.000000000               0.000000000               0.000000000               0.000000000              -0.000044990               0.004787517              -0.000148244              -0.000615309               0.001800926               0.001185617               0.000000000               0.000000000               0.000000000               0.000000000              -0.000064203               0.004695835              -0.000083458              -0.000611054               0.001768947               0.001157893               0.000000000               0.000000000               0.000000000               0.000000000              -0.000106187               0.004608097              -0.000034518              -0.000615831               0.001741294               0.001125463               0.000000000               0.000000000               0.000000000               0.000000000              -0.000140048               0.004559398              -0.000010656              -0.000622441               0.001727265               0.001104824               0.000000000               0.000000000               0.000000000               0.000000000              -0.000312631               0.001600717              -0.001050986              -0.000317326               0.000639342               0.000322015               0.000000000               0.000000000               0.000000000               0.000000000              -0.000270340               0.002656307              -0.001536115              -0.000433416               0.001029898               0.000596482               0.000000000               0.000000000               0.000000000               0.000000000              -0.000473325               0.003822964              -0.001840787              -0.000655367               0.001492764               0.000837396               0.000000000               0.000000000               0.000000000               0.000000000              -0.000487276               0.004419127              -0.001714135              -0.000735119               0.001718067               0.000982948               0.000000000               0.000000000               0.000000000               0.000000000              -0.000441174               0.004729316              -0.001500092              -0.000756604               0.001828624               0.001072020               0.000000000               0.000000000               0.000000000               0.000000000              -0.000381441               0.004898812              -0.001296464              -0.000755391               0.001884717               0.001129327               0.000000000               0.000000000               0.000000000               0.000000000              -0.000331080               0.004989219              -0.001125312              -0.000747806               0.001912325               0.001164519               0.000000000               0.000000000               0.000000000               0.000000000              -0.000281074               0.005030772              -0.000976243              -0.000734248               0.001921657               0.001187409               0.000000000               0.000000000               0.000000000               0.000000000              -0.000222392               0.005037995              -0.000840135              -0.000713145               0.001917030               0.001203885               0.000000000               0.000000000               0.000000000               0.000000000              -0.000160236               0.005016780              -0.000715721              -0.000687185               0.001901305               0.001214120               0.000000000               0.000000000               0.000000000               0.000000000              -0.000098578               0.004968363              -0.000599784              -0.000658011               0.001875441               0.001217430               0.000000000               0.000000000               0.000000000               0.000000000              -0.000040868               0.004902010              -0.000486416              -0.000628075               0.001843345               0.001215270               0.000000000               0.000000000               0.000000000               0.000000000               0.000004568               0.004824853              -0.000373874              -0.000601392               0.001808732               0.001207340               0.000000000               0.000000000               0.000000000               0.000000000               0.000021195               0.004744220              -0.000266853              -0.000585078               0.001776417               0.001191339               0.000000000               0.000000000               0.000000000               0.000000000               0.000001611               0.004667754              -0.000169067              -0.000582864               0.001750190               0.001167327               0.000000000               0.000000000               0.000000000               0.000000000              -0.000056987               0.004593799              -0.000080010              -0.000595593               0.001729782               0.001134189               0.000000000               0.000000000               0.000000000               0.000000000              -0.000115731               0.004545573              -0.000030745              -0.000611594               0.001719040               0.001107446               0.000000000               0.000000000               0.000000000               0.000000000              -0.001152791               0.000833336              -0.000599494              -0.000536463               0.000456596              -0.000079867               0.000000000               0.000000000               0.000000000               0.000000000              -0.000623145               0.001799965              -0.001244640              -0.000458675               0.000752873               0.000294198               0.000000000               0.000000000               0.000000000               0.000000000              -0.000443153               0.002859917              -0.001734273              -0.000523672               0.001127853               0.000604181               0.000000000               0.000000000               0.000000000               0.000000000              -0.000333183               0.003532780              -0.001720688              -0.000566541               0.001366428               0.000799887               0.000000000               0.000000000               0.000000000               0.000000000              -0.000253612               0.003960596              -0.001569685              -0.000590179               0.001516911               0.000926733               0.000000000               0.000000000               0.000000000               0.000000000              -0.000189426               0.004246544              -0.001398383              -0.000601852               0.001616117               0.001014265               0.000000000               0.000000000               0.000000000               0.000000000              -0.000147592               0.004441593              -0.001241630              -0.000610545               0.001684031               0.001073486               0.000000000               0.000000000               0.000000000               0.000000000              -0.000114034               0.004578363              -0.001100554              -0.000615057               0.001731124               0.001116067               0.000000000               0.000000000               0.000000000               0.000000000              -0.000077237               0.004669569              -0.000968714              -0.000612659               0.001760727               0.001148068               0.000000000               0.000000000               0.000000000               0.000000000              -0.000035866               0.004722914              -0.000846467              -0.000603813               0.001775560               0.001171747               0.000000000               0.000000000               0.000000000               0.000000000               0.000008679               0.004745549              -0.000731749              -0.000589938               0.001778480               0.001188542               0.000000000               0.000000000               0.000000000               0.000000000               0.000056346               0.004742608              -0.000620711              -0.000571695               0.001771419               0.001199724               0.000000000               0.000000000               0.000000000               0.000000000               0.000105278               0.004720702              -0.000504305              -0.000550607               0.001757087               0.001206480               0.000000000               0.000000000               0.000000000               0.000000000               0.000140302               0.004685596              -0.000383228              -0.000533085               0.001739545               0.001206460               0.000000000               0.000000000               0.000000000               0.000000000               0.000142861               0.004637056              -0.000262360              -0.000526058               0.001721023               0.001194965               0.000000000               0.000000000               0.000000000               0.000000000               0.000100831               0.004583857              -0.000134876              -0.000535169               0.001706327               0.001171158               0.000000000               0.000000000               0.000000000               0.000000000               0.000045198               0.004545335              -0.000061759              -0.000551216               0.001698835               0.001147619               0.000000000               0.000000000               0.000000000               0.000000000              -0.001979368               0.000296246              -0.000259937              -0.000779293               0.000358511              -0.000420782               0.000000000               0.000000000               0.000000000               0.000000000              -0.000990673               0.001092781              -0.000922950              -0.000508099               0.000533622               0.000025523               0.000000000               0.000000000               0.000000000               0.000000000              -0.000414693               0.001969354              -0.001472127              -0.000401679               0.000790337               0.000388658               0.000000000               0.000000000               0.000000000               0.000000000              -0.000153299               0.002657282              -0.001539998              -0.000389648               0.001015634               0.000625986               0.000000000               0.000000000               0.000000000               0.000000000              -0.000024294               0.003166727              -0.001454682              -0.000404951               0.001190548               0.000785597               0.000000000               0.000000000               0.000000000               0.000000000               0.000049843               0.003548038              -0.001329155              -0.000424814               0.001324272               0.000899458               0.000000000               0.000000000               0.000000000               0.000000000               0.000090528               0.003832871              -0.001203216              -0.000445161               0.001425997               0.000980837               0.000000000               0.000000000               0.000000000               0.000000000               0.000108795               0.004053032              -0.001084919              -0.000465831               0.001506274               0.001040443               0.000000000               0.000000000               0.000000000               0.000000000               0.000125236               0.004226041              -0.000971371              -0.000481291               0.001569096               0.001087805               0.000000000               0.000000000               0.000000000               0.000000000               0.000146922               0.004357461              -0.000863824              -0.000489586               0.001615667               0.001126082               0.000000000               0.000000000               0.000000000               0.000000000               0.000175374               0.004456374              -0.000761204              -0.000491280               0.001649203               0.001157923               0.000000000               0.000000000               0.000000000               0.000000000               0.000211916               0.004523915              -0.000663393              -0.000486020               0.001669963               0.001183943               0.000000000               0.000000000               0.000000000               0.000000000               0.000259321               0.004566495              -0.000560593              -0.000473565               0.001680005               0.001206439               0.000000000               0.000000000               0.000000000               0.000000000               0.000314902               0.004589574              -0.000445006              -0.000455608               0.001681712               0.001226104               0.000000000               0.000000000               0.000000000               0.000000000               0.000357255               0.004585307              -0.000317723              -0.000439192               0.001674818               0.001235626               0.000000000               0.000000000               0.000000000               0.000000000               0.000372973               0.004563190              -0.000170721              -0.000430533               0.001664559               0.001234026               0.000000000               0.000000000               0.000000000               0.000000000               0.000365460               0.004544592              -0.000087965              -0.000431026               0.001658524               0.001227498               0.000000000               0.000000000               0.000000000               0.000000000              -0.002683791              -0.000038067              -0.000058887              -0.001001662               0.000321196              -0.000680466               0.000000000               0.000000000               0.000000000               0.000000000              -0.001318752               0.000573475              -0.000598948              -0.000566216               0.000379894              -0.000186322               0.000000000               0.000000000               0.000000000               0.000000000              -0.000400380               0.001249283              -0.001069505              -0.000306303               0.000518524               0.000212221               0.000000000               0.000000000               0.000000000               0.000000000               0.000008168               0.001909967              -0.001165298              -0.000235683               0.000715210               0.000479526               0.000000000               0.000000000               0.000000000               0.000000000               0.000196098               0.002462963              -0.001130457              -0.000234334               0.000899091               0.000664756               0.000000000               0.000000000               0.000000000               0.000000000               0.000288148               0.002909017              -0.001056008              -0.000255572               0.001054853               0.000799281               0.000000000               0.000000000               0.000000000               0.000000000               0.000332499               0.003261468              -0.000970185              -0.000282996               0.001181477               0.000898481               0.000000000               0.000000000               0.000000000               0.000000000               0.000345727               0.003544064              -0.000885800              -0.000313360               0.001285796               0.000972436               0.000000000               0.000000000               0.000000000               0.000000000               0.000349313               0.003779193              -0.000804569              -0.000341406               0.001373521               0.001032114               0.000000000               0.000000000               0.000000000               0.000000000               0.000356759               0.003974284              -0.000723749              -0.000363000               0.001445748               0.001082748               0.000000000               0.000000000               0.000000000               0.000000000               0.000374622               0.004134272              -0.000645899              -0.000376300               0.001503510               0.001127210               0.000000000               0.000000000               0.000000000               0.000000000               0.000407968               0.004267056              -0.000571070              -0.000380393               0.001549135               0.001168742               0.000000000               0.000000000               0.000000000               0.000000000               0.000455921               0.004373985              -0.000492734              -0.000375777               0.001583239               0.001207462               0.000000000               0.000000000               0.000000000               0.000000000               0.000524245               0.004457922              -0.000400845              -0.000360648               0.001606175               0.001245527               0.000000000               0.000000000               0.000000000               0.000000000               0.000608685               0.004512803              -0.000292304              -0.000335843               0.001616200               0.001280357               0.000000000               0.000000000               0.000000000               0.000000000               0.000701696               0.004533358              -0.000159671              -0.000303533               0.001612282               0.001308749               0.000000000               0.000000000               0.000000000               0.000000000               0.000769330               0.004541236              -0.000087167              -0.000279155               0.001606782               0.001327627               0.000000000               0.000000000               0.000000000               0.000000000              -0.003162595              -0.000208815               0.000012132              -0.001159870               0.000317016              -0.000842854               0.000000000               0.000000000               0.000000000               0.000000000              -0.001549906               0.000260744              -0.000290417              -0.000613807               0.000291515              -0.000322292               0.000000000               0.000000000               0.000000000               0.000000000              -0.000399333               0.000783196              -0.000561730              -0.000247649               0.000343612               0.000095963               0.000000000               0.000000000               0.000000000               0.000000000               0.000113164               0.001408569              -0.000628707              -0.000133635               0.000514063               0.000380428               0.000000000               0.000000000               0.000000000               0.000000000               0.000356561               0.001975982              -0.000621898              -0.000113288               0.000696416               0.000583129               0.000000000               0.000000000               0.000000000               0.000000000               0.000469834               0.002453035              -0.000590316              -0.000130442               0.000861151               0.000730709               0.000000000               0.000000000               0.000000000               0.000000000               0.000516140               0.002843212              -0.000547080              -0.000161849               0.001001678               0.000839828               0.000000000               0.000000000               0.000000000               0.000000000               0.000532299               0.003166060              -0.000502444              -0.000196145               0.001120725               0.000924579               0.000000000               0.000000000               0.000000000               0.000000000               0.000532986               0.003437040              -0.000460083              -0.000229760               0.001222255               0.000992495               0.000000000               0.000000000               0.000000000               0.000000000               0.000533773               0.003668346              -0.000417258              -0.000258378               0.001308896               0.001050518               0.000000000               0.000000000               0.000000000               0.000000000               0.000545402               0.003871198              -0.000376093              -0.000279374               0.001383511               0.001104137               0.000000000               0.000000000               0.000000000               0.000000000               0.000573706               0.004050220              -0.000335335              -0.000291137               0.001447105               0.001155968               0.000000000               0.000000000               0.000000000               0.000000000               0.000624326               0.004210541              -0.000291823              -0.000292195               0.001500898               0.001208703               0.000000000               0.000000000               0.000000000               0.000000000               0.000704912               0.004348474              -0.000241246              -0.000279217               0.001542549               0.001263332               0.000000000               0.000000000               0.000000000               0.000000000               0.000821245               0.004447864              -0.000178405              -0.000248015               0.001565278               0.001317263               0.000000000               0.000000000               0.000000000               0.000000000               0.000979358               0.004503258              -0.000098958              -0.000195648               0.001566287               0.001370639               0.000000000               0.000000000               0.000000000               0.000000000               0.001114168               0.004535510              -0.000056710              -0.000149125               0.001561530               0.001412405               0.000000000               0.000000000               0.000000000               0.000000000               0.000000000               0.000000000               0.000000000               0.000000000               0.000000000               0.000000000               0.000000000               0.000000000               0.000000000               0.000000000               0.000000000               0.000000000               0.000000000               0.000000000               0.000000000               0.000000000               0.000000000               0.000000000               0.000000000               0.000000000               0.000000000               0.000000000               0.000000000               0.000000000               0.000000000               0.000000000               0.000000000               0.000000000               0.000000000               0.000000000               0.000000000               0.000000000               0.000000000               0.000000000               0.000000000               0.000000000               0.000000000               0.000000000               0.000000000               0.000000000               0.000000000               0.000000000               0.000000000               0.000000000               0.000000000               0.000000000               0.000000000               0.000000000               0.000000000               0.000000000               0.000000000               0.000000000               0.000000000               0.000000000               0.000000000               0.000000000               0.000000000               0.000000000               0.000000000               0.000000000               0.000000000               0.000000000               0.000000000               0.000000000               0.000000000               0.000000000               0.000000000               0.000000000               0.000000000               0.000000000               0.000000000               0.000000000               0.000000000               0.000000000               0.000000000               0.000000000               0.000000000               0.000000000               0.000000000               0.000000000               0.000000000               0.000000000               0.000000000               0.000000000               0.000000000               0.000000000               0.000000000               0.000000000               0.000000000               0.000000000               0.000000000               0.000000000               0.000000000               0.000000000               0.000000000               0.000000000               0.000000000               0.000000000               0.000000000               0.000000000               0.000000000               0.000000000               0.000000000               0.000000000               0.000000000               0.000000000               0.000000000               0.000000000               0.000000000               0.000000000               0.000000000               0.000000000               0.000000000               0.000000000               0.000000000               0.000000000               0.000000000               0.000000000               0.000000000               0.000000000               0.000000000               0.000000000               0.000000000               0.000000000               0.000000000               0.000000000               0.000000000               0.000000000               0.000000000               0.000000000               0.000000000               0.000000000               0.000000000               0.000000000               0.000000000               0.000000000               0.000000000               0.000000000               0.000000000               0.000000000               0.000000000               0.000000000               0.000000000               0.000000000               0.000000000               0.000000000               0.000000000               0.000000000               0.000000000               0.000000000               0.000000000               0.000000000               0.000000000               0.000000000               0.000000000               0.000000000               0.000000000               0.000000000               0.000000000               0.000000000               0.000000000               0.000000000               0.000000000               0.000000000               0.000000000               0.000000000               0.000000000               0.000000000               0.000000000               0.000000000               0.000000000               0.000000000               0.000000000               0.000000000               0.000000000               0.000000000               0.000000000               0.000000000               0.000000000               0.000000000               0.000000000               0.000000000               0.000000000               0.000000000               0.000000000               0.000000000               0.000000000               0.000000000               0.000000000               0.000000000               0.000000000               0.000000000               0.000000000               0.000000000               0.000000000               0.000000000               0.000000000               0.000000000               0.000000000               0.000000000               0.000000000               0.000000000               0.000000000               0.000000000               0.000000000               0.000000000               0.000000000               0.000000000               0.000000000               0.000000000               0.000000000               0.000000000               0.000000000               0.000000000               0.000000000               0.000000000               0.000000000               0.000000000               0.000000000               0.000000000               0.000000000               0.000000000               0.000000000               0.000000000               0.000000000               0.000000000               0.000000000               0.000000000               0.000000000               0.000000000               0.000000000               0.000000000               0.000000000               0.000000000               0.000000000               0.000000000               0.000000000               0.000000000               0.000000000               0.000000000               0.000000000               0.000000000               0.000000000               0.000000000               0.000000000               0.000000000               0.000000000               0.000000000               0.000000000               0.000000000               0.000000000               0.000000000               0.000000000               0.000000000               0.000000000               0.000000000               0.000000000               0.000000000               0.000000000               0.000000000               0.000000000               0.000000000               0.000000000               0.000000000               0.000000000               0.000000000               0.000000000               0.000000000               0.000000000               0.000000000               0.000000000               0.000000000               0.000000000               0.000000000               0.000000000               0.000000000               0.000000000               0.000000000               0.000000000               0.000000000               0.000000000               0.000000000               0.000000000               0.000000000               0.000000000               0.000000000               0.000000000               0.000000000               0.000000000               0.000000000               0.000000000               0.000000000               0.000000000               0.000000000               0.000000000               0.000000000               0.000000000               0.000000000               0.000000000               0.000000000               0.000000000               0.000000000               0.000000000               0.000000000               0.000000000               0.000000000               0.000000000               0.000000000               0.000000000               0.000000000               0.000000000               0.000000000               0.000000000               0.000000000               0.000000000               0.000000000               0.000000000               0.000000000               0.000000000               0.000000000               0.000000000               0.000000000               0.000000000               0.000000000               0.000000000               0.000000000               0.000000000               0.000000000               0.000000000               0.000000000               0.000000000               0.000000000               0.000000000               0.000000000               0.000000000               0.000000000               0.000000000               0.000000000               0.000000000               0.000000000               0.001414157               0.014812374               0.001089628              -0.001321235               0.005377820               0.004056585               0.000000000               0.000000000               0.000000000               0.000000000               0.001422484               0.011997636               0.000633169              -0.000966271               0.004321262               0.003354992               0.000000000               0.000000000               0.000000000               0.000000000               0.001864754               0.009749318               0.000172172              -0.000519381               0.003422867               0.002903486               0.000000000               0.000000000               0.000000000               0.000000000               0.001858664               0.008495023              -0.000031362              -0.000364878               0.002953272               0.002588394               0.000000000               0.000000000               0.000000000               0.000000000               0.001707301               0.007726828              -0.000122241              -0.000325615               0.002684122               0.002358507               0.000000000               0.000000000               0.000000000               0.000000000               0.001506439               0.007219562              -0.000161032              -0.000337530               0.002519007               0.002181477               0.000000000               0.000000000               0.000000000               0.000000000               0.001298674               0.006871209              -0.000177141              -0.000371897               0.002414346               0.002042449               0.000000000               0.000000000               0.000000000               0.000000000               0.001097532               0.006623582              -0.000181790              -0.000416372               0.002346629               0.001930257               0.000000000               0.000000000               0.000000000               0.000000000               0.000909060               0.006444028              -0.000179256              -0.000464605               0.002302856               0.001838251               0.000000000               0.000000000               0.000000000               0.000000000               0.000733723               0.006306135              -0.000171659              -0.000513119               0.002273064               0.001759944               0.000000000               0.000000000               0.000000000               0.000000000               0.000570239               0.006189097              -0.000160357              -0.000559796               0.002249610               0.001689814               0.000000000               0.000000000               0.000000000               0.000000000               0.000423017               0.006081585              -0.000147773              -0.000601565               0.002227696               0.001626131               0.000000000               0.000000000               0.000000000               0.000000000               0.000297382               0.005977135              -0.000131813              -0.000635622               0.002204232               0.001568610               0.000000000               0.000000000               0.000000000               0.000000000               0.000195728               0.005864684              -0.000110020              -0.000659686               0.002174771               0.001515085               0.000000000               0.000000000               0.000000000               0.000000000               0.000113815               0.005734432              -0.000080996              -0.000674122               0.002136165               0.001462044               0.000000000               0.000000000               0.000000000               0.000000000               0.000050442               0.005581634              -0.000043997              -0.000678787               0.002086788               0.001408002               0.000000000               0.000000000               0.000000000               0.000000000               0.000011862               0.005464698              -0.000026614              -0.000678637               0.002047760               0.001369123               0.000000000               0.000000000               0.000000000               0.000000000               0.001591062               0.014008098               0.002049365              -0.001154362               0.005054106               0.003899744               0.000000000               0.000000000               0.000000000               0.000000000               0.001415673               0.011452509               0.001194012              -0.000900684               0.004117693               0.003217009               0.000000000               0.000000000               0.000000000               0.000000000               0.001662279               0.009481343               0.000335492              -0.000561812               0.003347687               0.002785875               0.000000000               0.000000000               0.000000000               0.000000000               0.001580313               0.008370770              -0.000033495              -0.000453728               0.002941471               0.002487744               0.000000000               0.000000000               0.000000000               0.000000000               0.001408611               0.007675729              -0.000193707              -0.000431236               0.002702296               0.002271060               0.000000000               0.000000000               0.000000000               0.000000000               0.001212615               0.007209959              -0.000263088              -0.000446513               0.002552133               0.002105620               0.000000000               0.000000000               0.000000000               0.000000000               0.001015815               0.006884270              -0.000291500              -0.000479602               0.002454601               0.001974999               0.000000000               0.000000000               0.000000000               0.000000000               0.000832350               0.006644208              -0.000300665              -0.000518393               0.002387512               0.001869118               0.000000000               0.000000000               0.000000000               0.000000000               0.000673201               0.006461208              -0.000299992              -0.000555199               0.002338781               0.001783581               0.000000000               0.000000000               0.000000000               0.000000000               0.000531607               0.006313107              -0.000290020              -0.000589784               0.002300943               0.001711158               0.000000000               0.000000000               0.000000000               0.000000000               0.000405546               0.006186270              -0.000273677              -0.000621203               0.002269137               0.001647934               0.000000000               0.000000000               0.000000000               0.000000000               0.000297788               0.006072769              -0.000255855              -0.000647424               0.002240044               0.001592620               0.000000000               0.000000000               0.000000000               0.000000000               0.000207003               0.005962921              -0.000230970              -0.000667737               0.002210200               0.001542462               0.000000000               0.000000000               0.000000000               0.000000000               0.000134677               0.005850098              -0.000192975              -0.000680757               0.002176932               0.001496175               0.000000000               0.000000000               0.000000000               0.000000000               0.000076169               0.005731962              -0.000145044              -0.000687930               0.002139945               0.001452015               0.000000000               0.000000000               0.000000000               0.000000000               0.000031104               0.005610713              -0.000082252              -0.000689673               0.002100110               0.001410437               0.000000000               0.000000000               0.000000000               0.000000000               0.000004052               0.005526554              -0.000049542              -0.000689298               0.002071932               0.001382634               0.000000000               0.000000000               0.000000000               0.000000000               0.001815351               0.012780142               0.002779869              -0.000916761               0.004565591               0.003648830               0.000000000               0.000000000               0.000000000               0.000000000               0.001381085               0.010634634               0.001632787              -0.000811421               0.003815316               0.003003895               0.000000000               0.000000000               0.000000000               0.000000000               0.001351769               0.009074909               0.000490794              -0.000627449               0.003234089               0.002606640               0.000000000               0.000000000               0.000000000               0.000000000               0.001176027               0.008166009               0.000017646              -0.000579740               0.002915222               0.002335483               0.000000000               0.000000000               0.000000000               0.000000000               0.000986469               0.007573874              -0.000184411              -0.000576807               0.002716868               0.002140061               0.000000000               0.000000000               0.000000000               0.000000000               0.000805097               0.007162312              -0.000273839              -0.000593376               0.002585205               0.001991829               0.000000000               0.000000000               0.000000000               0.000000000               0.000637201               0.006864672              -0.000312409              -0.000619132               0.002494578               0.001875446               0.000000000               0.000000000               0.000000000               0.000000000               0.000490055               0.006639319              -0.000326006              -0.000646143               0.002428465               0.001782322               0.000000000               0.000000000               0.000000000               0.000000000               0.000371244               0.006455264              -0.000327105              -0.000667690               0.002374296               0.001706606               0.000000000               0.000000000               0.000000000               0.000000000               0.000276610               0.006296970              -0.000319135              -0.000683391               0.002326766               0.001643375               0.000000000               0.000000000               0.000000000               0.000000000               0.000202696               0.006156712              -0.000304791              -0.000693576               0.002283409               0.001589833               0.000000000               0.000000000               0.000000000               0.000000000               0.000146041               0.006027086              -0.000284666              -0.000698619               0.002241882               0.001543263               0.000000000               0.000000000               0.000000000               0.000000000               0.000098487               0.005901415              -0.000252991              -0.000700743               0.002200700               0.001499957               0.000000000               0.000000000               0.000000000               0.000000000               0.000064281               0.005783985              -0.000207513              -0.000698891               0.002160940               0.001462048               0.000000000               0.000000000               0.000000000               0.000000000               0.000038644               0.005678432              -0.000153045              -0.000695311               0.002124562               0.001429251               0.000000000               0.000000000               0.000000000               0.000000000               0.000015389               0.005587787              -0.000085284              -0.000692701               0.002093477               0.001400777               0.000000000               0.000000000               0.000000000               0.000000000               0.000000839               0.005538656              -0.000049263              -0.000692015               0.002076872               0.001384857               0.000000000               0.000000000               0.000000000               0.000000000               0.002007312               0.011272294               0.003222632              -0.000656296               0.003976158               0.003319862               0.000000000               0.000000000               0.000000000               0.000000000               0.001293808               0.009643334               0.001924774              -0.000720238               0.003454491               0.002734253               0.000000000               0.000000000               0.000000000               0.000000000               0.000966160               0.008580399               0.000642241              -0.000710238               0.003096850               0.002386612               0.000000000               0.000000000               0.000000000               0.000000000               0.000713590               0.007894122               0.000129072              -0.000719167               0.002871070               0.002151903               0.000000000               0.000000000               0.000000000               0.000000000               0.000527854               0.007411688              -0.000086666              -0.000728514               0.002713376               0.001984862               0.000000000               0.000000000               0.000000000               0.000000000               0.000378340               0.007057476              -0.000185823              -0.000740305               0.002599237               0.001858932               0.000000000               0.000000000               0.000000000               0.000000000               0.000255922               0.006789321              -0.000235441              -0.000752692               0.002513982               0.001761290               0.000000000               0.000000000               0.000000000               0.000000000               0.000159207               0.006573773              -0.000256643              -0.000762017               0.002445241               0.001683224               0.000000000               0.000000000               0.000000000               0.000000000               0.000087456               0.006385840              -0.000262466              -0.000765432               0.002383736               0.001618304               0.000000000               0.000000000               0.000000000               0.000000000               0.000041686               0.006215429              -0.000260523              -0.000761295               0.002325554               0.001564259               0.000000000               0.000000000               0.000000000               0.000000000               0.000014900               0.006059784              -0.000249305              -0.000751884               0.002270536               0.001518652               0.000000000               0.000000000               0.000000000               0.000000000               0.000000848               0.005912066              -0.000229776              -0.000738688               0.002216898               0.001478210               0.000000000               0.000000000               0.000000000               0.000000000              -0.000006731               0.005774522              -0.000200617              -0.000724338               0.002166267               0.001441930               0.000000000               0.000000000               0.000000000               0.000000000              -0.000007148               0.005654055              -0.000159814              -0.000709436               0.002121145               0.001411709               0.000000000               0.000000000               0.000000000               0.000000000              -0.000003017               0.005553960              -0.000112413              -0.000695374               0.002083093               0.001387718               0.000000000               0.000000000               0.000000000               0.000000000              -0.000001835               0.005478109              -0.000059905              -0.000685450               0.002054502               0.001369051               0.000000000               0.000000000               0.000000000               0.000000000              -0.000005428               0.005442548              -0.000034413              -0.000682352               0.002041615               0.001359263               0.000000000               0.000000000               0.000000000               0.000000000               0.002082783               0.009628519               0.003372812              -0.000422524               0.003350315               0.002927791               0.000000000               0.000000000               0.000000000               0.000000000               0.001135002               0.008579250               0.002076350              -0.000646780               0.003075314               0.002428534               0.000000000               0.000000000               0.000000000               0.000000000               0.000549810               0.008043459               0.000800171              -0.000799252               0.002947543               0.002148292               0.000000000               0.000000000               0.000000000               0.000000000               0.000261862               0.007571909               0.000301035              -0.000848288               0.002806707               0.001958419               0.000000000               0.000000000               0.000000000               0.000000000               0.000108003               0.007189611               0.000086451              -0.000858198               0.002682579               0.001824381               0.000000000               0.000000000               0.000000000               0.000000000               0.000009536               0.006886161              -0.000023166              -0.000857192               0.002581095               0.001723903               0.000000000               0.000000000               0.000000000               0.000000000              -0.000061104               0.006640292              -0.000089300              -0.000852948               0.002497725               0.001644776               0.000000000               0.000000000               0.000000000               0.000000000              -0.000107269               0.006428733              -0.000124052              -0.000843816               0.002424161               0.001580346               0.000000000               0.000000000               0.000000000               0.000000000              -0.000132167               0.006231615              -0.000139544              -0.000828512               0.002353355               0.001524843               0.000000000               0.000000000               0.000000000               0.000000000              -0.000135854               0.006049812              -0.000148520              -0.000807170               0.002285640               0.001478471               0.000000000               0.000000000               0.000000000               0.000000000              -0.000122228               0.005885610              -0.000148142              -0.000781535               0.002222362               0.001440827               0.000000000               0.000000000               0.000000000               0.000000000              -0.000099032               0.005734961              -0.000137698              -0.000754005               0.002162970               0.001408964               0.000000000               0.000000000               0.000000000               0.000000000              -0.000076894               0.005596714              -0.000120846              -0.000728423               0.002108360               0.001379938               0.000000000               0.000000000               0.000000000               0.000000000              -0.000057264               0.005477773              -0.000094910              -0.000706194               0.002061304               0.001355110               0.000000000               0.000000000               0.000000000               0.000000000              -0.000037658               0.005383696              -0.000064478              -0.000687082               0.002023575               0.001336493               0.000000000               0.000000000               0.000000000               0.000000000              -0.000019083               0.005315647              -0.000034621              -0.000671610               0.001995735               0.001324124               0.000000000               0.000000000               0.000000000               0.000000000              -0.000014157               0.005280819              -0.000022608              -0.000665410               0.001982059               0.001316649               0.000000000               0.000000000               0.000000000               0.000000000               0.002000148               0.007972355               0.003270391              -0.000246492               0.002739588               0.002493096               0.000000000               0.000000000               0.000000000               0.000000000               0.000914927               0.007523342               0.002119539              -0.000597320               0.002706862               0.002109541               0.000000000               0.000000000               0.000000000               0.000000000               0.000155134               0.007488060               0.000975996              -0.000877830               0.002788605               0.001910775               0.000000000               0.000000000               0.000000000               0.000000000              -0.000117897               0.007205812               0.000520506              -0.000944936               0.002716892               0.001771956               0.000000000               0.000000000               0.000000000               0.000000000              -0.000218518               0.006910156               0.000302932              -0.000945711               0.002618599               0.001672888               0.000000000               0.000000000               0.000000000               0.000000000              -0.000260854               0.006651241               0.000172838              -0.000929223               0.002526799               0.001597576               0.000000000               0.000000000               0.000000000               0.000000000              -0.000281202               0.006425034               0.000084561              -0.000908578               0.002444516               0.001535938               0.000000000               0.000000000               0.000000000               0.000000000              -0.000285496               0.006211015               0.000031846              -0.000883436               0.002364796               0.001481360               0.000000000               0.000000000               0.000000000               0.000000000              -0.000270987               0.006008581               0.000000416              -0.000852691               0.002287071               0.001434380               0.000000000               0.000000000               0.000000000               0.000000000              -0.000235373               0.005827845              -0.000026668              -0.000816743               0.002214843               0.001398100               0.000000000               0.000000000               0.000000000               0.000000000              -0.000186523               0.005665334              -0.000044325              -0.000778111               0.002147796               0.001369685               0.000000000               0.000000000               0.000000000               0.000000000              -0.000139227               0.005514796              -0.000049381              -0.000741558               0.002085433               0.001343875               0.000000000               0.000000000               0.000000000               0.000000000              -0.000100901               0.005381164              -0.000048358              -0.000710482               0.002030530               0.001320049               0.000000000               0.000000000               0.000000000               0.000000000              -0.000070973               0.005271653              -0.000041607              -0.000685570               0.001985723               0.001300154               0.000000000               0.000000000               0.000000000               0.000000000              -0.000043823               0.005189164              -0.000030476              -0.000665078               0.001951397               0.001286319               0.000000000               0.000000000               0.000000000               0.000000000              -0.000020517               0.005128651              -0.000016980              -0.000648774               0.001925791               0.001277017               0.000000000               0.000000000               0.000000000               0.000000000              -0.000015075               0.005093783              -0.000012404              -0.000642375               0.001912036               0.001269661               0.000000000               0.000000000               0.000000000               0.000000000               0.001773948               0.006404349               0.002969814              -0.000135317               0.002179866               0.002044549               0.000000000               0.000000000               0.000000000               0.000000000               0.000655396               0.006531867               0.002085539              -0.000570710               0.002367503               0.001796793               0.000000000               0.000000000               0.000000000               0.000000000              -0.000175186               0.006923159               0.001166837              -0.000931088               0.002618059               0.001686971               0.000000000               0.000000000               0.000000000               0.000000000              -0.000390241               0.006799562               0.000753826              -0.000996283               0.002598592               0.001602309               0.000000000               0.000000000               0.000000000               0.000000000              -0.000428447               0.006583355               0.000520444              -0.000983585               0.002522291               0.001538707               0.000000000               0.000000000               0.000000000               0.000000000              -0.000421666               0.006369027               0.000365917              -0.000954251               0.002441071               0.001486821               0.000000000               0.000000000               0.000000000               0.000000000              -0.000403375               0.006159213               0.000257187              -0.000921165               0.002360105               0.001438940               0.000000000               0.000000000               0.000000000               0.000000000              -0.000369345               0.005949766               0.000183113              -0.000882223               0.002277310               0.001395087               0.000000000               0.000000000               0.000000000               0.000000000              -0.000316781               0.005757469               0.000128200              -0.000838474               0.002198628               0.001360154               0.000000000               0.000000000               0.000000000               0.000000000              -0.000251611               0.005584341               0.000079505              -0.000792395               0.002125560               0.001333165               0.000000000               0.000000000               0.000000000               0.000000000              -0.000183715               0.005421167               0.000042979              -0.000746537               0.002055883               0.001309346               0.000000000               0.000000000               0.000000000               0.000000000              -0.000127445               0.005273522               0.000019426              -0.000706980               0.001993483               0.001286503               0.000000000               0.000000000               0.000000000               0.000000000              -0.000083693               0.005151429               0.000001132              -0.000675312               0.001942230               0.001266918               0.000000000               0.000000000               0.000000000               0.000000000              -0.000052106               0.005053090              -0.000009973              -0.000651174               0.001901405               0.001250230               0.000000000               0.000000000               0.000000000               0.000000000              -0.000030479               0.004974468              -0.000013317              -0.000633237               0.001869218               0.001235982               0.000000000               0.000000000               0.000000000               0.000000000              -0.000015466               0.004908354              -0.000009728              -0.000619342               0.001842549               0.001223207               0.000000000               0.000000000               0.000000000               0.000000000              -0.000013613               0.004866880              -0.000009249              -0.000613463               0.001826765               0.001213302               0.000000000               0.000000000               0.000000000               0.000000000               0.001465903               0.005047311               0.002545356              -0.000081203               0.001709487               0.001628283               0.000000000               0.000000000               0.000000000               0.000000000               0.000418076               0.005639815               0.002013668              -0.000548199               0.002062652               0.001514453               0.000000000               0.000000000               0.000000000               0.000000000              -0.000399606               0.006385190               0.001382049              -0.000947999               0.002444375               0.001496376               0.000000000               0.000000000               0.000000000               0.000000000              -0.000547810               0.006423312               0.001000012              -0.001008340               0.002477196               0.001468855               0.000000000               0.000000000               0.000000000               0.000000000              -0.000539396               0.006294778               0.000745598              -0.000989118               0.002427944               0.001438826               0.000000000               0.000000000               0.000000000               0.000000000              -0.000499514               0.006131023               0.000566623              -0.000953693               0.002361552               0.001407858               0.000000000               0.000000000               0.000000000               0.000000000              -0.000449922               0.005948887               0.000436733              -0.000912329               0.002287052               0.001374723               0.000000000               0.000000000               0.000000000               0.000000000              -0.000382363               0.005761804               0.000338313              -0.000863609               0.002208452               0.001344842               0.000000000               0.000000000               0.000000000               0.000000000              -0.000299678               0.005586513               0.000258062              -0.000810691               0.002132383               0.001321691               0.000000000               0.000000000               0.000000000               0.000000000              -0.000217847               0.005418357               0.000189367              -0.000758985               0.002059096               0.001300111               0.000000000               0.000000000               0.000000000               0.000000000              -0.000145378               0.005255167               0.000131189              -0.000711411               0.001988842               0.001277431               0.000000000               0.000000000               0.000000000               0.000000000              -0.000089253               0.005113671               0.000082497              -0.000672677               0.001928766               0.001256089               0.000000000               0.000000000               0.000000000               0.000000000              -0.000057565               0.004994794               0.000042943              -0.000645934               0.001880226               0.001234292               0.000000000               0.000000000               0.000000000               0.000000000              -0.000041860               0.004894276               0.000015624              -0.000627480               0.001840569               0.001213089               0.000000000               0.000000000               0.000000000               0.000000000              -0.000036863               0.004804388               0.000001250              -0.000614370               0.001806237               0.001191866               0.000000000               0.000000000               0.000000000               0.000000000              -0.000039691               0.004715179              -0.000002353              -0.000604280               0.001773137               0.001168857               0.000000000               0.000000000               0.000000000               0.000000000              -0.000041041               0.004666031              -0.000003083              -0.000598643               0.001754876               0.001156233               0.000000000               0.000000000               0.000000000               0.000000000               0.001051019               0.003767299               0.002067620              -0.000076783               0.001281347               0.001204564               0.000000000               0.000000000               0.000000000               0.000000000               0.000239472               0.004621985               0.001919397              -0.000487947               0.001703294               0.001215348               0.000000000               0.000000000               0.000000000               0.000000000              -0.000483135               0.005622230               0.001618267              -0.000883953               0.002168709               0.001284755               0.000000000               0.000000000               0.000000000               0.000000000              -0.000602330               0.005872155               0.001283607              -0.000959891               0.002277329               0.001317438               0.000000000               0.000000000               0.000000000               0.000000000              -0.000574407               0.005881370               0.001013637              -0.000950572               0.002277294               0.001326722               0.000000000               0.000000000               0.000000000               0.000000000              -0.000523536               0.005810864               0.000809327              -0.000922682               0.002244496               0.001321814               0.000000000               0.000000000               0.000000000               0.000000000              -0.000464992               0.005703241               0.000657585              -0.000887275               0.002196820               0.001309544               0.000000000               0.000000000               0.000000000               0.000000000              -0.000391080               0.005577164               0.000535153              -0.000843799               0.002140302               0.001296504               0.000000000               0.000000000               0.000000000               0.000000000              -0.000307575               0.005444708               0.000429577              -0.000795927               0.002080194               0.001284266               0.000000000               0.000000000               0.000000000               0.000000000              -0.000225402               0.005309185               0.000336184              -0.000748172               0.002019101               0.001270929               0.000000000               0.000000000               0.000000000               0.000000000              -0.000154065               0.005170362               0.000252949              -0.000704068               0.001958126               0.001254058               0.000000000               0.000000000               0.000000000               0.000000000              -0.000098855               0.005039901               0.000176253              -0.000667056               0.001902302               0.001235246               0.000000000               0.000000000               0.000000000               0.000000000              -0.000067931               0.004923546               0.000109266              -0.000640916               0.001854804               0.001213888               0.000000000               0.000000000               0.000000000               0.000000000              -0.000059985               0.004821528               0.000058885              -0.000625184               0.001815555               0.001190371               0.000000000               0.000000000               0.000000000               0.000000000              -0.000067794               0.004724145               0.000024884              -0.000615939               0.001780012               0.001164073               0.000000000               0.000000000               0.000000000               0.000000000              -0.000086259               0.004625398               0.000006119              -0.000610520               0.001745290               0.001134770               0.000000000               0.000000000               0.000000000               0.000000000              -0.000095359               0.004577284               0.000000298              -0.000607918               0.001728385               0.001120467               0.000000000               0.000000000               0.000000000               0.000000000               0.000445141               0.002595599               0.001559430              -0.000157523               0.000917698               0.000760174               0.000000000               0.000000000               0.000000000               0.000000000               0.000025650               0.003612475               0.001767695              -0.000441941               0.001351459               0.000909518               0.000000000               0.000000000               0.000000000               0.000000000              -0.000492171               0.004767241               0.001796783              -0.000780468               0.001849220               0.001068752               0.000000000               0.000000000               0.000000000               0.000000000              -0.000583750               0.005218009               0.001553602              -0.000871156               0.002029704               0.001158548               0.000000000               0.000000000               0.000000000               0.000000000              -0.000550526               0.005384142               0.001295171              -0.000879464               0.002087850               0.001208387               0.000000000               0.000000000               0.000000000               0.000000000              -0.000493191               0.005430891               0.001079081              -0.000863806               0.002098214               0.001234408               0.000000000               0.000000000               0.000000000               0.000000000              -0.000436688               0.005415977               0.000911158              -0.000840754               0.002085559               0.001244805               0.000000000               0.000000000               0.000000000               0.000000000              -0.000371487               0.005365779               0.000769316              -0.000810028               0.002058585               0.001248556               0.000000000               0.000000000               0.000000000               0.000000000              -0.000297082               0.005296051               0.000641867              -0.000773411               0.002023136               0.001249726               0.000000000               0.000000000               0.000000000               0.000000000              -0.000220860               0.005209523               0.000528206              -0.000734011               0.001981161               0.001247149               0.000000000               0.000000000               0.000000000               0.000000000              -0.000149913               0.005106656               0.000423902              -0.000694548               0.001933717               0.001239170               0.000000000               0.000000000               0.000000000               0.000000000              -0.000091255               0.004998037               0.000323069              -0.000658974               0.001885653               0.001226680               0.000000000               0.000000000               0.000000000               0.000000000              -0.000053457               0.004889248               0.000228770              -0.000631201               0.001840133               0.001208932               0.000000000               0.000000000               0.000000000               0.000000000              -0.000044990               0.004787517               0.000148244              -0.000615309               0.001800926               0.001185617               0.000000000               0.000000000               0.000000000               0.000000000              -0.000064203               0.004695835               0.000083458              -0.000611054               0.001768947               0.001157893               0.000000000               0.000000000               0.000000000               0.000000000              -0.000106187               0.004608097               0.000034518              -0.000615831               0.001741294               0.001125463               0.000000000               0.000000000               0.000000000               0.000000000              -0.000140048               0.004559398               0.000010656              -0.000622441               0.001727265               0.001104824               0.000000000               0.000000000               0.000000000               0.000000000              -0.000312631               0.001600717               0.001050986              -0.000317326               0.000639342               0.000322015               0.000000000               0.000000000               0.000000000               0.000000000              -0.000270340               0.002656307               0.001536115              -0.000433416               0.001029898               0.000596482               0.000000000               0.000000000               0.000000000               0.000000000              -0.000473325               0.003822964               0.001840787              -0.000655367               0.001492764               0.000837396               0.000000000               0.000000000               0.000000000               0.000000000              -0.000487276               0.004419127               0.001714135              -0.000735119               0.001718067               0.000982948               0.000000000               0.000000000               0.000000000               0.000000000              -0.000441174               0.004729316               0.001500092              -0.000756604               0.001828624               0.001072020               0.000000000               0.000000000               0.000000000               0.000000000              -0.000381441               0.004898812               0.001296464              -0.000755391               0.001884717               0.001129327               0.000000000               0.000000000               0.000000000               0.000000000              -0.000331080               0.004989219               0.001125312              -0.000747806               0.001912325               0.001164519               0.000000000               0.000000000               0.000000000               0.000000000              -0.000281074               0.005030772               0.000976243              -0.000734248               0.001921657               0.001187409               0.000000000               0.000000000               0.000000000               0.000000000              -0.000222392               0.005037995               0.000840135              -0.000713145               0.001917030               0.001203885               0.000000000               0.000000000               0.000000000               0.000000000              -0.000160236               0.005016780               0.000715721              -0.000687185               0.001901305               0.001214120               0.000000000               0.000000000               0.000000000               0.000000000              -0.000098578               0.004968363               0.000599784              -0.000658011               0.001875441               0.001217430               0.000000000               0.000000000               0.000000000               0.000000000              -0.000040868               0.004902010               0.000486416              -0.000628075               0.001843345               0.001215270               0.000000000               0.000000000               0.000000000               0.000000000               0.000004568               0.004824853               0.000373874              -0.000601392               0.001808732               0.001207340               0.000000000               0.000000000               0.000000000               0.000000000               0.000021195               0.004744220               0.000266853              -0.000585078               0.001776417               0.001191339               0.000000000               0.000000000               0.000000000               0.000000000               0.000001611               0.004667754               0.000169067              -0.000582864               0.001750190               0.001167327               0.000000000               0.000000000               0.000000000               0.000000000              -0.000056987               0.004593799               0.000080010              -0.000595593               0.001729782               0.001134189               0.000000000               0.000000000               0.000000000               0.000000000              -0.000115731               0.004545573               0.000030745              -0.000611594               0.001719040               0.001107446               0.000000000               0.000000000               0.000000000               0.000000000              -0.001152791               0.000833336               0.000599494              -0.000536463               0.000456596              -0.000079867               0.000000000               0.000000000               0.000000000               0.000000000              -0.000623145               0.001799965               0.001244640              -0.000458675               0.000752873               0.000294198               0.000000000               0.000000000               0.000000000               0.000000000              -0.000443153               0.002859917               0.001734273              -0.000523672               0.001127853               0.000604181               0.000000000               0.000000000               0.000000000               0.000000000              -0.000333183               0.003532780               0.001720688              -0.000566541               0.001366428               0.000799887               0.000000000               0.000000000               0.000000000               0.000000000              -0.000253612               0.003960596               0.001569685              -0.000590179               0.001516911               0.000926733               0.000000000               0.000000000               0.000000000               0.000000000              -0.000189426               0.004246544               0.001398383              -0.000601852               0.001616117               0.001014265               0.000000000               0.000000000               0.000000000               0.000000000              -0.000147592               0.004441593               0.001241630              -0.000610545               0.001684031               0.001073486               0.000000000               0.000000000               0.000000000               0.000000000              -0.000114034               0.004578363               0.001100554              -0.000615057               0.001731124               0.001116067               0.000000000               0.000000000               0.000000000               0.000000000              -0.000077237               0.004669569               0.000968714              -0.000612659               0.001760727               0.001148068               0.000000000               0.000000000               0.000000000               0.000000000              -0.000035866               0.004722914               0.000846467              -0.000603813               0.001775560               0.001171747               0.000000000               0.000000000               0.000000000               0.000000000               0.000008679               0.004745549               0.000731749              -0.000589938               0.001778480               0.001188542               0.000000000               0.000000000               0.000000000               0.000000000               0.000056346               0.004742608               0.000620711              -0.000571695               0.001771419               0.001199724               0.000000000               0.000000000               0.000000000               0.000000000               0.000105278               0.004720702               0.000504305              -0.000550607               0.001757087               0.001206480               0.000000000               0.000000000               0.000000000               0.000000000               0.000140302               0.004685596               0.000383228              -0.000533085               0.001739545               0.001206460               0.000000000               0.000000000               0.000000000               0.000000000               0.000142861               0.004637056               0.000262360              -0.000526058               0.001721023               0.001194965               0.000000000               0.000000000               0.000000000               0.000000000               0.000100831               0.004583857               0.000134876              -0.000535169               0.001706327               0.001171158               0.000000000               0.000000000               0.000000000               0.000000000               0.000045198               0.004545335               0.000061759              -0.000551216               0.001698835               0.001147619               0.000000000               0.000000000               0.000000000               0.000000000              -0.001979368               0.000296246               0.000259937              -0.000779293               0.000358511              -0.000420782               0.000000000               0.000000000               0.000000000               0.000000000              -0.000990673               0.001092781               0.000922950              -0.000508099               0.000533622               0.000025523               0.000000000               0.000000000               0.000000000               0.000000000              -0.000414693               0.001969354               0.001472127              -0.000401679               0.000790337               0.000388658               0.000000000               0.000000000               0.000000000               0.000000000              -0.000153299               0.002657282               0.001539998              -0.000389648               0.001015634               0.000625986               0.000000000               0.000000000               0.000000000               0.000000000              -0.000024294               0.003166727               0.001454682              -0.000404951               0.001190548               0.000785597               0.000000000               0.000000000               0.000000000               0.000000000               0.000049843               0.003548038               0.001329155              -0.000424814               0.001324272               0.000899458               0.000000000               0.000000000               0.000000000               0.000000000               0.000090528               0.003832871               0.001203216              -0.000445161               0.001425997               0.000980837               0.000000000               0.000000000               0.000000000               0.000000000               0.000108795               0.004053032               0.001084919              -0.000465831               0.001506274               0.001040443               0.000000000               0.000000000               0.000000000               0.000000000               0.000125236               0.004226041               0.000971371              -0.000481291               0.001569096               0.001087805               0.000000000               0.000000000               0.000000000               0.000000000               0.000146922               0.004357461               0.000863824              -0.000489586               0.001615667               0.001126082               0.000000000               0.000000000               0.000000000               0.000000000               0.000175374               0.004456374               0.000761204              -0.000491280               0.001649203               0.001157923               0.000000000               0.000000000               0.000000000               0.000000000               0.000211916               0.004523915               0.000663393              -0.000486020               0.001669963               0.001183943               0.000000000               0.000000000               0.000000000               0.000000000               0.000259321               0.004566495               0.000560593              -0.000473565               0.001680005               0.001206439               0.000000000               0.000000000               0.000000000               0.000000000               0.000314902               0.004589574               0.000445006              -0.000455608               0.001681712               0.001226104               0.000000000               0.000000000               0.000000000               0.000000000               0.000357255               0.004585307               0.000317723              -0.000439192               0.001674818               0.001235626               0.000000000               0.000000000               0.000000000               0.000000000               0.000372973               0.004563190               0.000170721              -0.000430533               0.001664559               0.001234026               0.000000000               0.000000000               0.000000000               0.000000000               0.000365460               0.004544592               0.000087965              -0.000431026               0.001658524               0.001227498               0.000000000               0.000000000               0.000000000               0.000000000              -0.002683791              -0.000038067               0.000058887              -0.001001662               0.000321196              -0.000680466               0.000000000               0.000000000               0.000000000               0.000000000              -0.001318752               0.000573475               0.000598948              -0.000566216               0.000379894              -0.000186322               0.000000000               0.000000000               0.000000000               0.000000000              -0.000400380               0.001249283               0.001069505              -0.000306303               0.000518524               0.000212221               0.000000000               0.000000000               0.000000000               0.000000000               0.000008168               0.001909967               0.001165298              -0.000235683               0.000715210               0.000479526               0.000000000               0.000000000               0.000000000               0.000000000               0.000196098               0.002462963               0.001130457              -0.000234334               0.000899091               0.000664756               0.000000000               0.000000000               0.000000000               0.000000000               0.000288148               0.002909017               0.001056008              -0.000255572               0.001054853               0.000799281               0.000000000               0.000000000               0.000000000               0.000000000               0.000332499               0.003261468               0.000970185              -0.000282996               0.001181477               0.000898481               0.000000000               0.000000000               0.000000000               0.000000000               0.000345727               0.003544064               0.000885800              -0.000313360               0.001285796               0.000972436               0.000000000               0.000000000               0.000000000               0.000000000               0.000349313               0.003779193               0.000804569              -0.000341406               0.001373521               0.001032114               0.000000000               0.000000000               0.000000000               0.000000000               0.000356759               0.003974284               0.000723749              -0.000363000               0.001445748               0.001082748               0.000000000               0.000000000               0.000000000               0.000000000               0.000374622               0.004134272               0.000645899              -0.000376300               0.001503510               0.001127210               0.000000000               0.000000000               0.000000000               0.000000000               0.000407968               0.004267056               0.000571070              -0.000380393               0.001549135               0.001168742               0.000000000               0.000000000               0.000000000               0.000000000               0.000455921               0.004373985               0.000492734              -0.000375777               0.001583239               0.001207462               0.000000000               0.000000000               0.000000000               0.000000000               0.000524245               0.004457922               0.000400845              -0.000360648               0.001606175               0.001245527               0.000000000               0.000000000               0.000000000               0.000000000               0.000608685               0.004512803               0.000292304              -0.000335843               0.001616200               0.001280357               0.000000000               0.000000000               0.000000000               0.000000000               0.000701696               0.004533358               0.000159671              -0.000303533               0.001612282               0.001308749               0.000000000               0.000000000               0.000000000               0.000000000               0.000769330               0.004541236               0.000087167              -0.000279155               0.001606782               0.001327627               0.000000000               0.000000000               0.000000000               0.000000000              -0.003162595              -0.000208815              -0.000012132              -0.001159870               0.000317016              -0.000842854               0.000000000               0.000000000               0.000000000               0.000000000              -0.001549906               0.000260744               0.000290417              -0.000613807               0.000291515              -0.000322292               0.000000000               0.000000000               0.000000000               0.000000000              -0.000399333               0.000783196               0.000561730              -0.000247649               0.000343612               0.000095963               0.000000000               0.000000000               0.000000000               0.000000000               0.000113164               0.001408569               0.000628707              -0.000133635               0.000514063               0.000380428               0.000000000               0.000000000               0.000000000               0.000000000               0.000356561               0.001975982               0.000621898              -0.000113288               0.000696416               0.000583129               0.000000000               0.000000000               0.000000000               0.000000000               0.000469834               0.002453035               0.000590316              -0.000130442               0.000861151               0.000730709               0.000000000               0.000000000               0.000000000               0.000000000               0.000516140               0.002843212               0.000547080              -0.000161849               0.001001678               0.000839828               0.000000000               0.000000000               0.000000000               0.000000000               0.000532299               0.003166060               0.000502444              -0.000196145               0.001120725               0.000924579               0.000000000               0.000000000               0.000000000               0.000000000               0.000532986               0.003437040               0.000460083              -0.000229760               0.001222255               0.000992495               0.000000000               0.000000000               0.000000000               0.000000000               0.000533773               0.003668346               0.000417258              -0.000258378               0.001308896               0.001050518               0.000000000               0.000000000               0.000000000               0.000000000               0.000545402               0.003871198               0.000376093              -0.000279374               0.001383511               0.001104137               0.000000000               0.000000000               0.000000000               0.000000000               0.000573706               0.004050220               0.000335335              -0.000291137               0.001447105               0.001155968               0.000000000               0.000000000               0.000000000               0.000000000               0.000624326               0.004210541               0.000291823              -0.000292195               0.001500898               0.001208703               0.000000000               0.000000000               0.000000000               0.000000000               0.000704912               0.004348474               0.000241246              -0.000279217               0.001542549               0.001263332               0.000000000               0.000000000               0.000000000               0.000000000               0.000821245               0.004447864               0.000178405              -0.000248015               0.001565278               0.001317263               0.000000000               0.000000000               0.000000000               0.000000000               0.000979358               0.004503258               0.000098958              -0.000195648               0.001566287               0.001370639               0.000000000               0.000000000               0.000000000               0.000000000               0.001114168               0.004535510               0.000056710              -0.000149125               0.001561530               0.001412405               0.000000000               0.000000000               0.000000000               0.000000000               0.000000000               0.000000000               0.000000000               0.000000000               0.000000000               0.000000000               0.000000000               0.000000000               0.000000000               0.000000000               0.000000000               0.000000000               0.000000000               0.000000000               0.000000000               0.000000000               0.000000000               0.000000000               0.000000000               0.000000000               0.000000000               0.000000000               0.000000000               0.000000000               0.000000000               0.000000000               0.000000000               0.000000000               0.000000000               0.000000000               0.000000000               0.000000000               0.000000000               0.000000000               0.000000000               0.000000000               0.000000000               0.000000000               0.000000000               0.000000000               0.000000000               0.000000000               0.000000000               0.000000000               0.000000000               0.000000000               0.000000000               0.000000000               0.000000000               0.000000000               0.000000000               0.000000000               0.000000000               0.000000000               0.000000000               0.000000000               0.000000000               0.000000000               0.000000000               0.000000000               0.000000000               0.000000000               0.000000000               0.000000000               0.000000000               0.000000000               0.000000000               0.000000000               0.000000000               0.000000000               0.000000000               0.000000000               0.000000000               0.000000000               0.000000000               0.000000000               0.000000000               0.000000000               0.000000000               0.000000000               0.000000000               0.000000000               0.000000000               0.000000000               0.000000000               0.000000000               0.000000000               0.000000000               0.000000000               0.000000000               0.000000000               0.000000000               0.000000000               0.000000000               0.000000000               0.000000000               0.000000000               0.000000000               0.000000000               0.000000000               0.000000000               0.000000000               0.000000000               0.000000000               0.000000000               0.000000000               0.000000000               0.000000000               0.000000000               0.000000000               0.000000000               0.000000000               0.000000000               0.000000000               0.000000000               0.000000000               0.000000000               0.000000000               0.000000000               0.000000000               0.000000000               0.000000000               0.000000000               0.000000000               0.000000000               0.000000000               0.000000000               0.000000000               0.000000000               0.000000000               0.000000000               0.000000000               0.000000000               0.000000000               0.000000000               0.000000000               0.000000000               0.000000000               0.000000000               0.000000000               0.000000000               0.000000000               0.000000000               0.000000000               0.000000000               0.000000000               0.000000000               0.000000000               0.000000000               0.000000000               0.000000000               0.000000000               0.000000000               0.000000000               0.000000000               0.000000000               0.000000000               0.000000000               0.000000000               0.000000000               0.000000000               0.000000000               0.000000000               0.000000000               0.000000000               0.000000000               0.000000000               0.000000000               0.000000000               0.000000000 </DataArray>
</PointData>
</Piece>
</UnstructuredGrid> </VTKFile>
