<?xml version="1.0"?>
<VTKFile type="UnstructuredGrid" version="0.1">
<UnstructuredGrid>
<Piece NumberOfPoints="      1156" NumberOfCells="      1024">
<Points>
<DataArray type="Float64"                                    Name="coordinates"                                                      NumberOfComponents=" 3" format="ascii">
              0.133000000               0.000000000               0.000000000               0.155937500               0.000000000               0.000000000               0.178875000               0.000000000               0.000000000               0.201812500               0.000000000               0.000000000               0.224750000               0.000000000               0.000000000               0.247687500               0.000000000               0.000000000               0.270625000               0.000000000               0.000000000               0.293562500               0.000000000               0.000000000               0.316500000               0.000000000               0.000000000               0.339437500               0.000000000               0.000000000               0.362375000               0.000000000               0.000000000               0.385312500               0.000000000               0.000000000               0.408250000               0.000000000               0.000000000               0.431187500               0.000000000               0.000000000               0.454125000               0.000000000               0.000000000               0.477062500               0.000000000               0.000000000               0.500000000               0.000000000               0.000000000               0.132359569               0.013036280               0.000000000               0.155337096               0.016127762               0.000000000               0.178314623               0.019219245               0.000000000               0.201292150               0.022310727               0.000000000               0.224269676               0.025402210               0.000000000               0.247247203               0.028493692               0.000000000               0.270224730               0.031585175               0.000000000               0.293202257               0.034676657               0.000000000               0.316179784               0.037768140               0.000000000               0.339157311               0.040859622               0.000000000               0.362134838               0.043951105               0.000000000               0.385112365               0.047042587               0.000000000               0.408089892               0.050134070               0.000000000               0.431067419               0.053225552               0.000000000               0.454044946               0.056317035               0.000000000               0.477022473               0.059408517               0.000000000               0.500000000               0.062500000               0.000000000               0.130444442               0.025947013               0.000000000               0.153541665               0.032137825               0.000000000               0.176638887               0.038328636               0.000000000               0.199736109               0.044519448               0.000000000               0.222833332               0.050710260               0.000000000               0.245930554               0.056901071               0.000000000               0.269027776               0.063091883               0.000000000               0.292124999               0.069282695               0.000000000               0.315222221               0.075473506               0.000000000               0.338319444               0.081664318               0.000000000               0.361416666               0.087855130               0.000000000               0.384513888               0.094045942               0.000000000               0.407611111               0.100236753               0.000000000               0.430708333               0.106427565               0.000000000               0.453805555               0.112618377               0.000000000               0.476902778               0.118809188               0.000000000               0.500000000               0.125000000               0.000000000               0.127273065               0.038607862               0.000000000               0.150568498               0.047913621               0.000000000               0.173863932               0.057219379               0.000000000               0.197159365               0.066525138               0.000000000               0.220454798               0.075830897               0.000000000               0.243750232               0.085136655               0.000000000               0.267045665               0.094442414               0.000000000               0.290341099               0.103748172               0.000000000               0.313636532               0.113053931               0.000000000               0.336931966               0.122359690               0.000000000               0.360227399               0.131665448               0.000000000               0.383522833               0.140971207               0.000000000               0.406818266               0.150276966               0.000000000               0.430113700               0.159582724               0.000000000               0.453409133               0.168888483               0.000000000               0.476704567               0.178194241               0.000000000               0.500000000               0.187500000               0.000000000               0.122875978               0.050896897               0.000000000               0.146446229               0.063340840               0.000000000               0.170016481               0.075784784               0.000000000               0.193586732               0.088228728               0.000000000               0.217156983               0.100672672               0.000000000               0.240727235               0.113116616               0.000000000               0.264297486               0.125560560               0.000000000               0.287867738               0.138004504               0.000000000               0.311437989               0.150448448               0.000000000               0.335008240               0.162892392               0.000000000               0.358578492               0.175336336               0.000000000               0.382148743               0.187780280               0.000000000               0.405718994               0.200224224               0.000000000               0.429289246               0.212668168               0.000000000               0.452859497               0.225112112               0.000000000               0.476429749               0.237556056               0.000000000               0.500000000               0.250000000               0.000000000               0.117295528               0.062695766               0.000000000               0.141214558               0.078308531               0.000000000               0.165133587               0.093921295               0.000000000               0.189052617               0.109534060               0.000000000               0.212971646               0.125146824               0.000000000               0.236890676               0.140759589               0.000000000               0.260809705               0.156372354               0.000000000               0.284728735               0.171985118               0.000000000               0.308647764               0.187597883               0.000000000               0.332566794               0.203210648               0.000000000               0.356485823               0.218823412               0.000000000               0.380404853               0.234436177               0.000000000               0.404323882               0.250048941               0.000000000               0.428242912               0.265661706               0.000000000               0.452161941               0.281274471               0.000000000               0.476080971               0.296887235               0.000000000               0.500000000               0.312500000               0.000000000               0.110585458               0.073890841               0.000000000               0.134923867               0.092710163               0.000000000               0.159262276               0.111529486               0.000000000               0.183600685               0.130348808               0.000000000               0.207939094               0.149168131               0.000000000               0.232277503               0.167987453               0.000000000               0.256615912               0.186806776               0.000000000               0.280954320               0.205626098               0.000000000               0.305292729               0.224445420               0.000000000               0.329631138               0.243264743               0.000000000               0.353969547               0.262084065               0.000000000               0.378307956               0.280903388               0.000000000               0.402646365               0.299722710               0.000000000               0.426984773               0.318542033               0.000000000               0.451323182               0.337361355               0.000000000               0.475661591               0.356180678               0.000000000               0.500000000               0.375000000               0.000000000               0.102810390               0.084374307               0.000000000               0.127634741               0.106444663               0.000000000               0.152459092               0.128515018               0.000000000               0.177283442               0.150585374               0.000000000               0.202107793               0.172655730               0.000000000               0.226932143               0.194726086               0.000000000               0.251756494               0.216796442               0.000000000               0.276580845               0.238866798               0.000000000               0.301405195               0.260937153               0.000000000               0.326229546               0.283007509               0.000000000               0.351053896               0.305077865               0.000000000               0.375878247               0.327148221               0.000000000               0.400702598               0.349218577               0.000000000               0.425526948               0.371288933               0.000000000               0.450351299               0.393359288               0.000000000               0.475175649               0.415429644               0.000000000               0.500000000               0.437500000               0.000000000               0.094045202               0.094045202               0.000000000               0.119417377               0.119417377               0.000000000               0.144789552               0.144789552               0.000000000               0.170161727               0.170161727               0.000000000               0.195533901               0.195533901               0.000000000               0.220906076               0.220906076               0.000000000               0.246278251               0.246278251               0.000000000               0.271650426               0.271650426               0.000000000               0.297022601               0.297022601               0.000000000               0.322394776               0.322394776               0.000000000               0.347766951               0.347766951               0.000000000               0.373139126               0.373139126               0.000000000               0.398511300               0.398511300               0.000000000               0.423883475               0.423883475               0.000000000               0.449255650               0.449255650               0.000000000               0.474627825               0.474627825               0.000000000               0.500000000               0.500000000               0.000000000               0.084374307               0.102810390               0.000000000               0.106444663               0.127634741               0.000000000               0.128515018               0.152459092               0.000000000               0.150585374               0.177283442               0.000000000               0.172655730               0.202107793               0.000000000               0.194726086               0.226932143               0.000000000               0.216796442               0.251756494               0.000000000               0.238866798               0.276580845               0.000000000               0.260937153               0.301405195               0.000000000               0.283007509               0.326229546               0.000000000               0.305077865               0.351053896               0.000000000               0.327148221               0.375878247               0.000000000               0.349218577               0.400702598               0.000000000               0.371288933               0.425526948               0.000000000               0.393359288               0.450351299               0.000000000               0.415429644               0.475175649               0.000000000               0.437500000               0.500000000               0.000000000               0.073890841               0.110585458               0.000000000               0.092710163               0.134923867               0.000000000               0.111529486               0.159262276               0.000000000               0.130348808               0.183600685               0.000000000               0.149168131               0.207939094               0.000000000               0.167987453               0.232277503               0.000000000               0.186806776               0.256615912               0.000000000               0.205626098               0.280954320               0.000000000               0.224445420               0.305292729               0.000000000               0.243264743               0.329631138               0.000000000               0.262084065               0.353969547               0.000000000               0.280903388               0.378307956               0.000000000               0.299722710               0.402646365               0.000000000               0.318542033               0.426984773               0.000000000               0.337361355               0.451323182               0.000000000               0.356180678               0.475661591               0.000000000               0.375000000               0.500000000               0.000000000               0.062695766               0.117295528               0.000000000               0.078308531               0.141214558               0.000000000               0.093921295               0.165133587               0.000000000               0.109534060               0.189052617               0.000000000               0.125146824               0.212971646               0.000000000               0.140759589               0.236890676               0.000000000               0.156372354               0.260809705               0.000000000               0.171985118               0.284728735               0.000000000               0.187597883               0.308647764               0.000000000               0.203210648               0.332566794               0.000000000               0.218823412               0.356485823               0.000000000               0.234436177               0.380404853               0.000000000               0.250048941               0.404323882               0.000000000               0.265661706               0.428242912               0.000000000               0.281274471               0.452161941               0.000000000               0.296887235               0.476080971               0.000000000               0.312500000               0.500000000               0.000000000               0.050896897               0.122875978               0.000000000               0.063340840               0.146446229               0.000000000               0.075784784               0.170016481               0.000000000               0.088228728               0.193586732               0.000000000               0.100672672               0.217156983               0.000000000               0.113116616               0.240727235               0.000000000               0.125560560               0.264297486               0.000000000               0.138004504               0.287867738               0.000000000               0.150448448               0.311437989               0.000000000               0.162892392               0.335008240               0.000000000               0.175336336               0.358578492               0.000000000               0.187780280               0.382148743               0.000000000               0.200224224               0.405718994               0.000000000               0.212668168               0.429289246               0.000000000               0.225112112               0.452859497               0.000000000               0.237556056               0.476429749               0.000000000               0.250000000               0.500000000               0.000000000               0.038607862               0.127273065               0.000000000               0.047913621               0.150568498               0.000000000               0.057219379               0.173863932               0.000000000               0.066525138               0.197159365               0.000000000               0.075830897               0.220454798               0.000000000               0.085136655               0.243750232               0.000000000               0.094442414               0.267045665               0.000000000               0.103748172               0.290341099               0.000000000               0.113053931               0.313636532               0.000000000               0.122359690               0.336931966               0.000000000               0.131665448               0.360227399               0.000000000               0.140971207               0.383522833               0.000000000               0.150276966               0.406818266               0.000000000               0.159582724               0.430113700               0.000000000               0.168888483               0.453409133               0.000000000               0.178194241               0.476704567               0.000000000               0.187500000               0.500000000               0.000000000               0.025947013               0.130444442               0.000000000               0.032137825               0.153541665               0.000000000               0.038328636               0.176638887               0.000000000               0.044519448               0.199736109               0.000000000               0.050710260               0.222833332               0.000000000               0.056901071               0.245930554               0.000000000               0.063091883               0.269027776               0.000000000               0.069282695               0.292124999               0.000000000               0.075473506               0.315222221               0.000000000               0.081664318               0.338319444               0.000000000               0.087855130               0.361416666               0.000000000               0.094045942               0.384513888               0.000000000               0.100236753               0.407611111               0.000000000               0.106427565               0.430708333               0.000000000               0.112618377               0.453805555               0.000000000               0.118809188               0.476902778               0.000000000               0.125000000               0.500000000               0.000000000               0.013036280               0.132359569               0.000000000               0.016127762               0.155337096               0.000000000               0.019219245               0.178314623               0.000000000               0.022310727               0.201292150               0.000000000               0.025402210               0.224269676               0.000000000               0.028493692               0.247247203               0.000000000               0.031585175               0.270224730               0.000000000               0.034676657               0.293202257               0.000000000               0.037768140               0.316179784               0.000000000               0.040859622               0.339157311               0.000000000               0.043951105               0.362134838               0.000000000               0.047042587               0.385112365               0.000000000               0.050134070               0.408089892               0.000000000               0.053225552               0.431067419               0.000000000               0.056317035               0.454044946               0.000000000               0.059408517               0.477022473               0.000000000               0.062500000               0.500000000               0.000000000               0.000000000               0.133000000               0.000000000               0.000000000               0.155937500               0.000000000               0.000000000               0.178875000               0.000000000               0.000000000               0.201812500               0.000000000               0.000000000               0.224750000               0.000000000               0.000000000               0.247687500               0.000000000               0.000000000               0.270625000               0.000000000               0.000000000               0.293562500               0.000000000               0.000000000               0.316500000               0.000000000               0.000000000               0.339437500               0.000000000               0.000000000               0.362375000               0.000000000               0.000000000               0.385312500               0.000000000               0.000000000               0.408250000               0.000000000               0.000000000               0.431187500               0.000000000               0.000000000               0.454125000               0.000000000               0.000000000               0.477062500               0.000000000               0.000000000               0.500000000               0.000000000               0.133000000               0.000000000               0.000000000               0.155937500               0.000000000               0.000000000               0.178875000               0.000000000               0.000000000               0.201812500               0.000000000               0.000000000               0.224750000               0.000000000               0.000000000               0.247687500               0.000000000               0.000000000               0.270625000               0.000000000               0.000000000               0.293562500               0.000000000               0.000000000               0.316500000               0.000000000               0.000000000               0.339437500               0.000000000               0.000000000               0.362375000               0.000000000               0.000000000               0.385312500               0.000000000               0.000000000               0.408250000               0.000000000               0.000000000               0.431187500               0.000000000               0.000000000               0.454125000               0.000000000               0.000000000               0.477062500               0.000000000               0.000000000               0.500000000               0.000000000               0.000000000               0.132359569              -0.013036280               0.000000000               0.155337096              -0.016127762               0.000000000               0.178314623              -0.019219245               0.000000000               0.201292150              -0.022310727               0.000000000               0.224269676              -0.025402210               0.000000000               0.247247203              -0.028493692               0.000000000               0.270224730              -0.031585175               0.000000000               0.293202257              -0.034676657               0.000000000               0.316179784              -0.037768140               0.000000000               0.339157311              -0.040859622               0.000000000               0.362134838              -0.043951105               0.000000000               0.385112365              -0.047042587               0.000000000               0.408089892              -0.050134070               0.000000000               0.431067419              -0.053225552               0.000000000               0.454044946              -0.056317035               0.000000000               0.477022473              -0.059408517               0.000000000               0.500000000              -0.062500000               0.000000000               0.130444442              -0.025947013               0.000000000               0.153541665              -0.032137825               0.000000000               0.176638887              -0.038328636               0.000000000               0.199736109              -0.044519448               0.000000000               0.222833332              -0.050710260               0.000000000               0.245930554              -0.056901071               0.000000000               0.269027776              -0.063091883               0.000000000               0.292124999              -0.069282695               0.000000000               0.315222221              -0.075473506               0.000000000               0.338319444              -0.081664318               0.000000000               0.361416666              -0.087855130               0.000000000               0.384513888              -0.094045942               0.000000000               0.407611111              -0.100236753               0.000000000               0.430708333              -0.106427565               0.000000000               0.453805555              -0.112618377               0.000000000               0.476902778              -0.118809188               0.000000000               0.500000000              -0.125000000               0.000000000               0.127273065              -0.038607862               0.000000000               0.150568498              -0.047913621               0.000000000               0.173863932              -0.057219379               0.000000000               0.197159365              -0.066525138               0.000000000               0.220454798              -0.075830897               0.000000000               0.243750232              -0.085136655               0.000000000               0.267045665              -0.094442414               0.000000000               0.290341099              -0.103748172               0.000000000               0.313636532              -0.113053931               0.000000000               0.336931966              -0.122359690               0.000000000               0.360227399              -0.131665448               0.000000000               0.383522833              -0.140971207               0.000000000               0.406818266              -0.150276966               0.000000000               0.430113700              -0.159582724               0.000000000               0.453409133              -0.168888483               0.000000000               0.476704567              -0.178194241               0.000000000               0.500000000              -0.187500000               0.000000000               0.122875978              -0.050896897               0.000000000               0.146446229              -0.063340840               0.000000000               0.170016481              -0.075784784               0.000000000               0.193586732              -0.088228728               0.000000000               0.217156983              -0.100672672               0.000000000               0.240727235              -0.113116616               0.000000000               0.264297486              -0.125560560               0.000000000               0.287867738              -0.138004504               0.000000000               0.311437989              -0.150448448               0.000000000               0.335008240              -0.162892392               0.000000000               0.358578492              -0.175336336               0.000000000               0.382148743              -0.187780280               0.000000000               0.405718994              -0.200224224               0.000000000               0.429289246              -0.212668168               0.000000000               0.452859497              -0.225112112               0.000000000               0.476429749              -0.237556056               0.000000000               0.500000000              -0.250000000               0.000000000               0.117295528              -0.062695766               0.000000000               0.141214558              -0.078308531               0.000000000               0.165133587              -0.093921295               0.000000000               0.189052617              -0.109534060               0.000000000               0.212971646              -0.125146824               0.000000000               0.236890676              -0.140759589               0.000000000               0.260809705              -0.156372354               0.000000000               0.284728735              -0.171985118               0.000000000               0.308647764              -0.187597883               0.000000000               0.332566794              -0.203210648               0.000000000               0.356485823              -0.218823412               0.000000000               0.380404853              -0.234436177               0.000000000               0.404323882              -0.250048941               0.000000000               0.428242912              -0.265661706               0.000000000               0.452161941              -0.281274471               0.000000000               0.476080971              -0.296887235               0.000000000               0.500000000              -0.312500000               0.000000000               0.110585458              -0.073890841               0.000000000               0.134923867              -0.092710163               0.000000000               0.159262276              -0.111529486               0.000000000               0.183600685              -0.130348808               0.000000000               0.207939094              -0.149168131               0.000000000               0.232277503              -0.167987453               0.000000000               0.256615912              -0.186806776               0.000000000               0.280954320              -0.205626098               0.000000000               0.305292729              -0.224445420               0.000000000               0.329631138              -0.243264743               0.000000000               0.353969547              -0.262084065               0.000000000               0.378307956              -0.280903388               0.000000000               0.402646365              -0.299722710               0.000000000               0.426984773              -0.318542033               0.000000000               0.451323182              -0.337361355               0.000000000               0.475661591              -0.356180678               0.000000000               0.500000000              -0.375000000               0.000000000               0.102810390              -0.084374307               0.000000000               0.127634741              -0.106444663               0.000000000               0.152459092              -0.128515018               0.000000000               0.177283442              -0.150585374               0.000000000               0.202107793              -0.172655730               0.000000000               0.226932143              -0.194726086               0.000000000               0.251756494              -0.216796442               0.000000000               0.276580845              -0.238866798               0.000000000               0.301405195              -0.260937153               0.000000000               0.326229546              -0.283007509               0.000000000               0.351053896              -0.305077865               0.000000000               0.375878247              -0.327148221               0.000000000               0.400702598              -0.349218577               0.000000000               0.425526948              -0.371288933               0.000000000               0.450351299              -0.393359288               0.000000000               0.475175649              -0.415429644               0.000000000               0.500000000              -0.437500000               0.000000000               0.094045202              -0.094045202               0.000000000               0.119417377              -0.119417377               0.000000000               0.144789552              -0.144789552               0.000000000               0.170161727              -0.170161727               0.000000000               0.195533901              -0.195533901               0.000000000               0.220906076              -0.220906076               0.000000000               0.246278251              -0.246278251               0.000000000               0.271650426              -0.271650426               0.000000000               0.297022601              -0.297022601               0.000000000               0.322394776              -0.322394776               0.000000000               0.347766951              -0.347766951               0.000000000               0.373139126              -0.373139126               0.000000000               0.398511300              -0.398511300               0.000000000               0.423883475              -0.423883475               0.000000000               0.449255650              -0.449255650               0.000000000               0.474627825              -0.474627825               0.000000000               0.500000000              -0.500000000               0.000000000               0.084374307              -0.102810390               0.000000000               0.106444663              -0.127634741               0.000000000               0.128515018              -0.152459092               0.000000000               0.150585374              -0.177283442               0.000000000               0.172655730              -0.202107793               0.000000000               0.194726086              -0.226932143               0.000000000               0.216796442              -0.251756494               0.000000000               0.238866798              -0.276580845               0.000000000               0.260937153              -0.301405195               0.000000000               0.283007509              -0.326229546               0.000000000               0.305077865              -0.351053896               0.000000000               0.327148221              -0.375878247               0.000000000               0.349218577              -0.400702598               0.000000000               0.371288933              -0.425526948               0.000000000               0.393359288              -0.450351299               0.000000000               0.415429644              -0.475175649               0.000000000               0.437500000              -0.500000000               0.000000000               0.073890841              -0.110585458               0.000000000               0.092710163              -0.134923867               0.000000000               0.111529486              -0.159262276               0.000000000               0.130348808              -0.183600685               0.000000000               0.149168131              -0.207939094               0.000000000               0.167987453              -0.232277503               0.000000000               0.186806776              -0.256615912               0.000000000               0.205626098              -0.280954320               0.000000000               0.224445420              -0.305292729               0.000000000               0.243264743              -0.329631138               0.000000000               0.262084065              -0.353969547               0.000000000               0.280903388              -0.378307956               0.000000000               0.299722710              -0.402646365               0.000000000               0.318542033              -0.426984773               0.000000000               0.337361355              -0.451323182               0.000000000               0.356180678              -0.475661591               0.000000000               0.375000000              -0.500000000               0.000000000               0.062695766              -0.117295528               0.000000000               0.078308531              -0.141214558               0.000000000               0.093921295              -0.165133587               0.000000000               0.109534060              -0.189052617               0.000000000               0.125146824              -0.212971646               0.000000000               0.140759589              -0.236890676               0.000000000               0.156372354              -0.260809705               0.000000000               0.171985118              -0.284728735               0.000000000               0.187597883              -0.308647764               0.000000000               0.203210648              -0.332566794               0.000000000               0.218823412              -0.356485823               0.000000000               0.234436177              -0.380404853               0.000000000               0.250048941              -0.404323882               0.000000000               0.265661706              -0.428242912               0.000000000               0.281274471              -0.452161941               0.000000000               0.296887235              -0.476080971               0.000000000               0.312500000              -0.500000000               0.000000000               0.050896897              -0.122875978               0.000000000               0.063340840              -0.146446229               0.000000000               0.075784784              -0.170016481               0.000000000               0.088228728              -0.193586732               0.000000000               0.100672672              -0.217156983               0.000000000               0.113116616              -0.240727235               0.000000000               0.125560560              -0.264297486               0.000000000               0.138004504              -0.287867738               0.000000000               0.150448448              -0.311437989               0.000000000               0.162892392              -0.335008240               0.000000000               0.175336336              -0.358578492               0.000000000               0.187780280              -0.382148743               0.000000000               0.200224224              -0.405718994               0.000000000               0.212668168              -0.429289246               0.000000000               0.225112112              -0.452859497               0.000000000               0.237556056              -0.476429749               0.000000000               0.250000000              -0.500000000               0.000000000               0.038607862              -0.127273065               0.000000000               0.047913621              -0.150568498               0.000000000               0.057219379              -0.173863932               0.000000000               0.066525138              -0.197159365               0.000000000               0.075830897              -0.220454798               0.000000000               0.085136655              -0.243750232               0.000000000               0.094442414              -0.267045665               0.000000000               0.103748172              -0.290341099               0.000000000               0.113053931              -0.313636532               0.000000000               0.122359690              -0.336931966               0.000000000               0.131665448              -0.360227399               0.000000000               0.140971207              -0.383522833               0.000000000               0.150276966              -0.406818266               0.000000000               0.159582724              -0.430113700               0.000000000               0.168888483              -0.453409133               0.000000000               0.178194241              -0.476704567               0.000000000               0.187500000              -0.500000000               0.000000000               0.025947013              -0.130444442               0.000000000               0.032137825              -0.153541665               0.000000000               0.038328636              -0.176638887               0.000000000               0.044519448              -0.199736109               0.000000000               0.050710260              -0.222833332               0.000000000               0.056901071              -0.245930554               0.000000000               0.063091883              -0.269027776               0.000000000               0.069282695              -0.292124999               0.000000000               0.075473506              -0.315222221               0.000000000               0.081664318              -0.338319444               0.000000000               0.087855130              -0.361416666               0.000000000               0.094045942              -0.384513888               0.000000000               0.100236753              -0.407611111               0.000000000               0.106427565              -0.430708333               0.000000000               0.112618377              -0.453805555               0.000000000               0.118809188              -0.476902778               0.000000000               0.125000000              -0.500000000               0.000000000               0.013036280              -0.132359569               0.000000000               0.016127762              -0.155337096               0.000000000               0.019219245              -0.178314623               0.000000000               0.022310727              -0.201292150               0.000000000               0.025402210              -0.224269676               0.000000000               0.028493692              -0.247247203               0.000000000               0.031585175              -0.270224730               0.000000000               0.034676657              -0.293202257               0.000000000               0.037768140              -0.316179784               0.000000000               0.040859622              -0.339157311               0.000000000               0.043951105              -0.362134838               0.000000000               0.047042587              -0.385112365               0.000000000               0.050134070              -0.408089892               0.000000000               0.053225552              -0.431067419               0.000000000               0.056317035              -0.454044946               0.000000000               0.059408517              -0.477022473               0.000000000               0.062500000              -0.500000000               0.000000000               0.000000000              -0.133000000               0.000000000               0.000000000              -0.155937500               0.000000000               0.000000000              -0.178875000               0.000000000               0.000000000              -0.201812500               0.000000000               0.000000000              -0.224750000               0.000000000               0.000000000              -0.247687500               0.000000000               0.000000000              -0.270625000               0.000000000               0.000000000              -0.293562500               0.000000000               0.000000000              -0.316500000               0.000000000               0.000000000              -0.339437500               0.000000000               0.000000000              -0.362375000               0.000000000               0.000000000              -0.385312500               0.000000000               0.000000000              -0.408250000               0.000000000               0.000000000              -0.431187500               0.000000000               0.000000000              -0.454125000               0.000000000               0.000000000              -0.477062500               0.000000000               0.000000000              -0.500000000               0.000000000              -0.133000000               0.000000000               0.000000000              -0.155937500               0.000000000               0.000000000              -0.178875000               0.000000000               0.000000000              -0.201812500               0.000000000               0.000000000              -0.224750000               0.000000000               0.000000000              -0.247687500               0.000000000               0.000000000              -0.270625000               0.000000000               0.000000000              -0.293562500               0.000000000               0.000000000              -0.316500000               0.000000000               0.000000000              -0.339437500               0.000000000               0.000000000              -0.362375000               0.000000000               0.000000000              -0.385312500               0.000000000               0.000000000              -0.408250000               0.000000000               0.000000000              -0.431187500               0.000000000               0.000000000              -0.454125000               0.000000000               0.000000000              -0.477062500               0.000000000               0.000000000              -0.500000000               0.000000000               0.000000000              -0.132359569              -0.013036280               0.000000000              -0.155337096              -0.016127762               0.000000000              -0.178314623              -0.019219245               0.000000000              -0.201292150              -0.022310727               0.000000000              -0.224269676              -0.025402210               0.000000000              -0.247247203              -0.028493692               0.000000000              -0.270224730              -0.031585175               0.000000000              -0.293202257              -0.034676657               0.000000000              -0.316179784              -0.037768140               0.000000000              -0.339157311              -0.040859622               0.000000000              -0.362134838              -0.043951105               0.000000000              -0.385112365              -0.047042587               0.000000000              -0.408089892              -0.050134070               0.000000000              -0.431067419              -0.053225552               0.000000000              -0.454044946              -0.056317035               0.000000000              -0.477022473              -0.059408517               0.000000000              -0.500000000              -0.062500000               0.000000000              -0.130444442              -0.025947013               0.000000000              -0.153541665              -0.032137825               0.000000000              -0.176638887              -0.038328636               0.000000000              -0.199736109              -0.044519448               0.000000000              -0.222833332              -0.050710260               0.000000000              -0.245930554              -0.056901071               0.000000000              -0.269027776              -0.063091883               0.000000000              -0.292124999              -0.069282695               0.000000000              -0.315222221              -0.075473506               0.000000000              -0.338319444              -0.081664318               0.000000000              -0.361416666              -0.087855130               0.000000000              -0.384513888              -0.094045942               0.000000000              -0.407611111              -0.100236753               0.000000000              -0.430708333              -0.106427565               0.000000000              -0.453805555              -0.112618377               0.000000000              -0.476902778              -0.118809188               0.000000000              -0.500000000              -0.125000000               0.000000000              -0.127273065              -0.038607862               0.000000000              -0.150568498              -0.047913621               0.000000000              -0.173863932              -0.057219379               0.000000000              -0.197159365              -0.066525138               0.000000000              -0.220454798              -0.075830897               0.000000000              -0.243750232              -0.085136655               0.000000000              -0.267045665              -0.094442414               0.000000000              -0.290341099              -0.103748172               0.000000000              -0.313636532              -0.113053931               0.000000000              -0.336931966              -0.122359690               0.000000000              -0.360227399              -0.131665448               0.000000000              -0.383522833              -0.140971207               0.000000000              -0.406818266              -0.150276966               0.000000000              -0.430113700              -0.159582724               0.000000000              -0.453409133              -0.168888483               0.000000000              -0.476704567              -0.178194241               0.000000000              -0.500000000              -0.187500000               0.000000000              -0.122875978              -0.050896897               0.000000000              -0.146446229              -0.063340840               0.000000000              -0.170016481              -0.075784784               0.000000000              -0.193586732              -0.088228728               0.000000000              -0.217156983              -0.100672672               0.000000000              -0.240727235              -0.113116616               0.000000000              -0.264297486              -0.125560560               0.000000000              -0.287867738              -0.138004504               0.000000000              -0.311437989              -0.150448448               0.000000000              -0.335008240              -0.162892392               0.000000000              -0.358578492              -0.175336336               0.000000000              -0.382148743              -0.187780280               0.000000000              -0.405718994              -0.200224224               0.000000000              -0.429289246              -0.212668168               0.000000000              -0.452859497              -0.225112112               0.000000000              -0.476429749              -0.237556056               0.000000000              -0.500000000              -0.250000000               0.000000000              -0.117295528              -0.062695766               0.000000000              -0.141214558              -0.078308531               0.000000000              -0.165133587              -0.093921295               0.000000000              -0.189052617              -0.109534060               0.000000000              -0.212971646              -0.125146824               0.000000000              -0.236890676              -0.140759589               0.000000000              -0.260809705              -0.156372354               0.000000000              -0.284728735              -0.171985118               0.000000000              -0.308647764              -0.187597883               0.000000000              -0.332566794              -0.203210648               0.000000000              -0.356485823              -0.218823412               0.000000000              -0.380404853              -0.234436177               0.000000000              -0.404323882              -0.250048941               0.000000000              -0.428242912              -0.265661706               0.000000000              -0.452161941              -0.281274471               0.000000000              -0.476080971              -0.296887235               0.000000000              -0.500000000              -0.312500000               0.000000000              -0.110585458              -0.073890841               0.000000000              -0.134923867              -0.092710163               0.000000000              -0.159262276              -0.111529486               0.000000000              -0.183600685              -0.130348808               0.000000000              -0.207939094              -0.149168131               0.000000000              -0.232277503              -0.167987453               0.000000000              -0.256615912              -0.186806776               0.000000000              -0.280954320              -0.205626098               0.000000000              -0.305292729              -0.224445420               0.000000000              -0.329631138              -0.243264743               0.000000000              -0.353969547              -0.262084065               0.000000000              -0.378307956              -0.280903388               0.000000000              -0.402646365              -0.299722710               0.000000000              -0.426984773              -0.318542033               0.000000000              -0.451323182              -0.337361355               0.000000000              -0.475661591              -0.356180678               0.000000000              -0.500000000              -0.375000000               0.000000000              -0.102810390              -0.084374307               0.000000000              -0.127634741              -0.106444663               0.000000000              -0.152459092              -0.128515018               0.000000000              -0.177283442              -0.150585374               0.000000000              -0.202107793              -0.172655730               0.000000000              -0.226932143              -0.194726086               0.000000000              -0.251756494              -0.216796442               0.000000000              -0.276580845              -0.238866798               0.000000000              -0.301405195              -0.260937153               0.000000000              -0.326229546              -0.283007509               0.000000000              -0.351053896              -0.305077865               0.000000000              -0.375878247              -0.327148221               0.000000000              -0.400702598              -0.349218577               0.000000000              -0.425526948              -0.371288933               0.000000000              -0.450351299              -0.393359288               0.000000000              -0.475175649              -0.415429644               0.000000000              -0.500000000              -0.437500000               0.000000000              -0.094045202              -0.094045202               0.000000000              -0.119417377              -0.119417377               0.000000000              -0.144789552              -0.144789552               0.000000000              -0.170161727              -0.170161727               0.000000000              -0.195533901              -0.195533901               0.000000000              -0.220906076              -0.220906076               0.000000000              -0.246278251              -0.246278251               0.000000000              -0.271650426              -0.271650426               0.000000000              -0.297022601              -0.297022601               0.000000000              -0.322394776              -0.322394776               0.000000000              -0.347766951              -0.347766951               0.000000000              -0.373139126              -0.373139126               0.000000000              -0.398511300              -0.398511300               0.000000000              -0.423883475              -0.423883475               0.000000000              -0.449255650              -0.449255650               0.000000000              -0.474627825              -0.474627825               0.000000000              -0.500000000              -0.500000000               0.000000000              -0.084374307              -0.102810390               0.000000000              -0.106444663              -0.127634741               0.000000000              -0.128515018              -0.152459092               0.000000000              -0.150585374              -0.177283442               0.000000000              -0.172655730              -0.202107793               0.000000000              -0.194726086              -0.226932143               0.000000000              -0.216796442              -0.251756494               0.000000000              -0.238866798              -0.276580845               0.000000000              -0.260937153              -0.301405195               0.000000000              -0.283007509              -0.326229546               0.000000000              -0.305077865              -0.351053896               0.000000000              -0.327148221              -0.375878247               0.000000000              -0.349218577              -0.400702598               0.000000000              -0.371288933              -0.425526948               0.000000000              -0.393359288              -0.450351299               0.000000000              -0.415429644              -0.475175649               0.000000000              -0.437500000              -0.500000000               0.000000000              -0.073890841              -0.110585458               0.000000000              -0.092710163              -0.134923867               0.000000000              -0.111529486              -0.159262276               0.000000000              -0.130348808              -0.183600685               0.000000000              -0.149168131              -0.207939094               0.000000000              -0.167987453              -0.232277503               0.000000000              -0.186806776              -0.256615912               0.000000000              -0.205626098              -0.280954320               0.000000000              -0.224445420              -0.305292729               0.000000000              -0.243264743              -0.329631138               0.000000000              -0.262084065              -0.353969547               0.000000000              -0.280903388              -0.378307956               0.000000000              -0.299722710              -0.402646365               0.000000000              -0.318542033              -0.426984773               0.000000000              -0.337361355              -0.451323182               0.000000000              -0.356180678              -0.475661591               0.000000000              -0.375000000              -0.500000000               0.000000000              -0.062695766              -0.117295528               0.000000000              -0.078308531              -0.141214558               0.000000000              -0.093921295              -0.165133587               0.000000000              -0.109534060              -0.189052617               0.000000000              -0.125146824              -0.212971646               0.000000000              -0.140759589              -0.236890676               0.000000000              -0.156372354              -0.260809705               0.000000000              -0.171985118              -0.284728735               0.000000000              -0.187597883              -0.308647764               0.000000000              -0.203210648              -0.332566794               0.000000000              -0.218823412              -0.356485823               0.000000000              -0.234436177              -0.380404853               0.000000000              -0.250048941              -0.404323882               0.000000000              -0.265661706              -0.428242912               0.000000000              -0.281274471              -0.452161941               0.000000000              -0.296887235              -0.476080971               0.000000000              -0.312500000              -0.500000000               0.000000000              -0.050896897              -0.122875978               0.000000000              -0.063340840              -0.146446229               0.000000000              -0.075784784              -0.170016481               0.000000000              -0.088228728              -0.193586732               0.000000000              -0.100672672              -0.217156983               0.000000000              -0.113116616              -0.240727235               0.000000000              -0.125560560              -0.264297486               0.000000000              -0.138004504              -0.287867738               0.000000000              -0.150448448              -0.311437989               0.000000000              -0.162892392              -0.335008240               0.000000000              -0.175336336              -0.358578492               0.000000000              -0.187780280              -0.382148743               0.000000000              -0.200224224              -0.405718994               0.000000000              -0.212668168              -0.429289246               0.000000000              -0.225112112              -0.452859497               0.000000000              -0.237556056              -0.476429749               0.000000000              -0.250000000              -0.500000000               0.000000000              -0.038607862              -0.127273065               0.000000000              -0.047913621              -0.150568498               0.000000000              -0.057219379              -0.173863932               0.000000000              -0.066525138              -0.197159365               0.000000000              -0.075830897              -0.220454798               0.000000000              -0.085136655              -0.243750232               0.000000000              -0.094442414              -0.267045665               0.000000000              -0.103748172              -0.290341099               0.000000000              -0.113053931              -0.313636532               0.000000000              -0.122359690              -0.336931966               0.000000000              -0.131665448              -0.360227399               0.000000000              -0.140971207              -0.383522833               0.000000000              -0.150276966              -0.406818266               0.000000000              -0.159582724              -0.430113700               0.000000000              -0.168888483              -0.453409133               0.000000000              -0.178194241              -0.476704567               0.000000000              -0.187500000              -0.500000000               0.000000000              -0.025947013              -0.130444442               0.000000000              -0.032137825              -0.153541665               0.000000000              -0.038328636              -0.176638887               0.000000000              -0.044519448              -0.199736109               0.000000000              -0.050710260              -0.222833332               0.000000000              -0.056901071              -0.245930554               0.000000000              -0.063091883              -0.269027776               0.000000000              -0.069282695              -0.292124999               0.000000000              -0.075473506              -0.315222221               0.000000000              -0.081664318              -0.338319444               0.000000000              -0.087855130              -0.361416666               0.000000000              -0.094045942              -0.384513888               0.000000000              -0.100236753              -0.407611111               0.000000000              -0.106427565              -0.430708333               0.000000000              -0.112618377              -0.453805555               0.000000000              -0.118809188              -0.476902778               0.000000000              -0.125000000              -0.500000000               0.000000000              -0.013036280              -0.132359569               0.000000000              -0.016127762              -0.155337096               0.000000000              -0.019219245              -0.178314623               0.000000000              -0.022310727              -0.201292150               0.000000000              -0.025402210              -0.224269676               0.000000000              -0.028493692              -0.247247203               0.000000000              -0.031585175              -0.270224730               0.000000000              -0.034676657              -0.293202257               0.000000000              -0.037768140              -0.316179784               0.000000000              -0.040859622              -0.339157311               0.000000000              -0.043951105              -0.362134838               0.000000000              -0.047042587              -0.385112365               0.000000000              -0.050134070              -0.408089892               0.000000000              -0.053225552              -0.431067419               0.000000000              -0.056317035              -0.454044946               0.000000000              -0.059408517              -0.477022473               0.000000000              -0.062500000              -0.500000000               0.000000000               0.000000000              -0.133000000               0.000000000               0.000000000              -0.155937500               0.000000000               0.000000000              -0.178875000               0.000000000               0.000000000              -0.201812500               0.000000000               0.000000000              -0.224750000               0.000000000               0.000000000              -0.247687500               0.000000000               0.000000000              -0.270625000               0.000000000               0.000000000              -0.293562500               0.000000000               0.000000000              -0.316500000               0.000000000               0.000000000              -0.339437500               0.000000000               0.000000000              -0.362375000               0.000000000               0.000000000              -0.385312500               0.000000000               0.000000000              -0.408250000               0.000000000               0.000000000              -0.431187500               0.000000000               0.000000000              -0.454125000               0.000000000               0.000000000              -0.477062500               0.000000000               0.000000000              -0.500000000               0.000000000              -0.133000000               0.000000000               0.000000000              -0.155937500               0.000000000               0.000000000              -0.178875000               0.000000000               0.000000000              -0.201812500               0.000000000               0.000000000              -0.224750000               0.000000000               0.000000000              -0.247687500               0.000000000               0.000000000              -0.270625000               0.000000000               0.000000000              -0.293562500               0.000000000               0.000000000              -0.316500000               0.000000000               0.000000000              -0.339437500               0.000000000               0.000000000              -0.362375000               0.000000000               0.000000000              -0.385312500               0.000000000               0.000000000              -0.408250000               0.000000000               0.000000000              -0.431187500               0.000000000               0.000000000              -0.454125000               0.000000000               0.000000000              -0.477062500               0.000000000               0.000000000              -0.500000000               0.000000000               0.000000000              -0.132359569               0.013036280               0.000000000              -0.155337096               0.016127762               0.000000000              -0.178314623               0.019219245               0.000000000              -0.201292150               0.022310727               0.000000000              -0.224269676               0.025402210               0.000000000              -0.247247203               0.028493692               0.000000000              -0.270224730               0.031585175               0.000000000              -0.293202257               0.034676657               0.000000000              -0.316179784               0.037768140               0.000000000              -0.339157311               0.040859622               0.000000000              -0.362134838               0.043951105               0.000000000              -0.385112365               0.047042587               0.000000000              -0.408089892               0.050134070               0.000000000              -0.431067419               0.053225552               0.000000000              -0.454044946               0.056317035               0.000000000              -0.477022473               0.059408517               0.000000000              -0.500000000               0.062500000               0.000000000              -0.130444442               0.025947013               0.000000000              -0.153541665               0.032137825               0.000000000              -0.176638887               0.038328636               0.000000000              -0.199736109               0.044519448               0.000000000              -0.222833332               0.050710260               0.000000000              -0.245930554               0.056901071               0.000000000              -0.269027776               0.063091883               0.000000000              -0.292124999               0.069282695               0.000000000              -0.315222221               0.075473506               0.000000000              -0.338319444               0.081664318               0.000000000              -0.361416666               0.087855130               0.000000000              -0.384513888               0.094045942               0.000000000              -0.407611111               0.100236753               0.000000000              -0.430708333               0.106427565               0.000000000              -0.453805555               0.112618377               0.000000000              -0.476902778               0.118809188               0.000000000              -0.500000000               0.125000000               0.000000000              -0.127273065               0.038607862               0.000000000              -0.150568498               0.047913621               0.000000000              -0.173863932               0.057219379               0.000000000              -0.197159365               0.066525138               0.000000000              -0.220454798               0.075830897               0.000000000              -0.243750232               0.085136655               0.000000000              -0.267045665               0.094442414               0.000000000              -0.290341099               0.103748172               0.000000000              -0.313636532               0.113053931               0.000000000              -0.336931966               0.122359690               0.000000000              -0.360227399               0.131665448               0.000000000              -0.383522833               0.140971207               0.000000000              -0.406818266               0.150276966               0.000000000              -0.430113700               0.159582724               0.000000000              -0.453409133               0.168888483               0.000000000              -0.476704567               0.178194241               0.000000000              -0.500000000               0.187500000               0.000000000              -0.122875978               0.050896897               0.000000000              -0.146446229               0.063340840               0.000000000              -0.170016481               0.075784784               0.000000000              -0.193586732               0.088228728               0.000000000              -0.217156983               0.100672672               0.000000000              -0.240727235               0.113116616               0.000000000              -0.264297486               0.125560560               0.000000000              -0.287867738               0.138004504               0.000000000              -0.311437989               0.150448448               0.000000000              -0.335008240               0.162892392               0.000000000              -0.358578492               0.175336336               0.000000000              -0.382148743               0.187780280               0.000000000              -0.405718994               0.200224224               0.000000000              -0.429289246               0.212668168               0.000000000              -0.452859497               0.225112112               0.000000000              -0.476429749               0.237556056               0.000000000              -0.500000000               0.250000000               0.000000000              -0.117295528               0.062695766               0.000000000              -0.141214558               0.078308531               0.000000000              -0.165133587               0.093921295               0.000000000              -0.189052617               0.109534060               0.000000000              -0.212971646               0.125146824               0.000000000              -0.236890676               0.140759589               0.000000000              -0.260809705               0.156372354               0.000000000              -0.284728735               0.171985118               0.000000000              -0.308647764               0.187597883               0.000000000              -0.332566794               0.203210648               0.000000000              -0.356485823               0.218823412               0.000000000              -0.380404853               0.234436177               0.000000000              -0.404323882               0.250048941               0.000000000              -0.428242912               0.265661706               0.000000000              -0.452161941               0.281274471               0.000000000              -0.476080971               0.296887235               0.000000000              -0.500000000               0.312500000               0.000000000              -0.110585458               0.073890841               0.000000000              -0.134923867               0.092710163               0.000000000              -0.159262276               0.111529486               0.000000000              -0.183600685               0.130348808               0.000000000              -0.207939094               0.149168131               0.000000000              -0.232277503               0.167987453               0.000000000              -0.256615912               0.186806776               0.000000000              -0.280954320               0.205626098               0.000000000              -0.305292729               0.224445420               0.000000000              -0.329631138               0.243264743               0.000000000              -0.353969547               0.262084065               0.000000000              -0.378307956               0.280903388               0.000000000              -0.402646365               0.299722710               0.000000000              -0.426984773               0.318542033               0.000000000              -0.451323182               0.337361355               0.000000000              -0.475661591               0.356180678               0.000000000              -0.500000000               0.375000000               0.000000000              -0.102810390               0.084374307               0.000000000              -0.127634741               0.106444663               0.000000000              -0.152459092               0.128515018               0.000000000              -0.177283442               0.150585374               0.000000000              -0.202107793               0.172655730               0.000000000              -0.226932143               0.194726086               0.000000000              -0.251756494               0.216796442               0.000000000              -0.276580845               0.238866798               0.000000000              -0.301405195               0.260937153               0.000000000              -0.326229546               0.283007509               0.000000000              -0.351053896               0.305077865               0.000000000              -0.375878247               0.327148221               0.000000000              -0.400702598               0.349218577               0.000000000              -0.425526948               0.371288933               0.000000000              -0.450351299               0.393359288               0.000000000              -0.475175649               0.415429644               0.000000000              -0.500000000               0.437500000               0.000000000              -0.094045202               0.094045202               0.000000000              -0.119417377               0.119417377               0.000000000              -0.144789552               0.144789552               0.000000000              -0.170161727               0.170161727               0.000000000              -0.195533901               0.195533901               0.000000000              -0.220906076               0.220906076               0.000000000              -0.246278251               0.246278251               0.000000000              -0.271650426               0.271650426               0.000000000              -0.297022601               0.297022601               0.000000000              -0.322394776               0.322394776               0.000000000              -0.347766951               0.347766951               0.000000000              -0.373139126               0.373139126               0.000000000              -0.398511300               0.398511300               0.000000000              -0.423883475               0.423883475               0.000000000              -0.449255650               0.449255650               0.000000000              -0.474627825               0.474627825               0.000000000              -0.500000000               0.500000000               0.000000000              -0.084374307               0.102810390               0.000000000              -0.106444663               0.127634741               0.000000000              -0.128515018               0.152459092               0.000000000              -0.150585374               0.177283442               0.000000000              -0.172655730               0.202107793               0.000000000              -0.194726086               0.226932143               0.000000000              -0.216796442               0.251756494               0.000000000              -0.238866798               0.276580845               0.000000000              -0.260937153               0.301405195               0.000000000              -0.283007509               0.326229546               0.000000000              -0.305077865               0.351053896               0.000000000              -0.327148221               0.375878247               0.000000000              -0.349218577               0.400702598               0.000000000              -0.371288933               0.425526948               0.000000000              -0.393359288               0.450351299               0.000000000              -0.415429644               0.475175649               0.000000000              -0.437500000               0.500000000               0.000000000              -0.073890841               0.110585458               0.000000000              -0.092710163               0.134923867               0.000000000              -0.111529486               0.159262276               0.000000000              -0.130348808               0.183600685               0.000000000              -0.149168131               0.207939094               0.000000000              -0.167987453               0.232277503               0.000000000              -0.186806776               0.256615912               0.000000000              -0.205626098               0.280954320               0.000000000              -0.224445420               0.305292729               0.000000000              -0.243264743               0.329631138               0.000000000              -0.262084065               0.353969547               0.000000000              -0.280903388               0.378307956               0.000000000              -0.299722710               0.402646365               0.000000000              -0.318542033               0.426984773               0.000000000              -0.337361355               0.451323182               0.000000000              -0.356180678               0.475661591               0.000000000              -0.375000000               0.500000000               0.000000000              -0.062695766               0.117295528               0.000000000              -0.078308531               0.141214558               0.000000000              -0.093921295               0.165133587               0.000000000              -0.109534060               0.189052617               0.000000000              -0.125146824               0.212971646               0.000000000              -0.140759589               0.236890676               0.000000000              -0.156372354               0.260809705               0.000000000              -0.171985118               0.284728735               0.000000000              -0.187597883               0.308647764               0.000000000              -0.203210648               0.332566794               0.000000000              -0.218823412               0.356485823               0.000000000              -0.234436177               0.380404853               0.000000000              -0.250048941               0.404323882               0.000000000              -0.265661706               0.428242912               0.000000000              -0.281274471               0.452161941               0.000000000              -0.296887235               0.476080971               0.000000000              -0.312500000               0.500000000               0.000000000              -0.050896897               0.122875978               0.000000000              -0.063340840               0.146446229               0.000000000              -0.075784784               0.170016481               0.000000000              -0.088228728               0.193586732               0.000000000              -0.100672672               0.217156983               0.000000000              -0.113116616               0.240727235               0.000000000              -0.125560560               0.264297486               0.000000000              -0.138004504               0.287867738               0.000000000              -0.150448448               0.311437989               0.000000000              -0.162892392               0.335008240               0.000000000              -0.175336336               0.358578492               0.000000000              -0.187780280               0.382148743               0.000000000              -0.200224224               0.405718994               0.000000000              -0.212668168               0.429289246               0.000000000              -0.225112112               0.452859497               0.000000000              -0.237556056               0.476429749               0.000000000              -0.250000000               0.500000000               0.000000000              -0.038607862               0.127273065               0.000000000              -0.047913621               0.150568498               0.000000000              -0.057219379               0.173863932               0.000000000              -0.066525138               0.197159365               0.000000000              -0.075830897               0.220454798               0.000000000              -0.085136655               0.243750232               0.000000000              -0.094442414               0.267045665               0.000000000              -0.103748172               0.290341099               0.000000000              -0.113053931               0.313636532               0.000000000              -0.122359690               0.336931966               0.000000000              -0.131665448               0.360227399               0.000000000              -0.140971207               0.383522833               0.000000000              -0.150276966               0.406818266               0.000000000              -0.159582724               0.430113700               0.000000000              -0.168888483               0.453409133               0.000000000              -0.178194241               0.476704567               0.000000000              -0.187500000               0.500000000               0.000000000              -0.025947013               0.130444442               0.000000000              -0.032137825               0.153541665               0.000000000              -0.038328636               0.176638887               0.000000000              -0.044519448               0.199736109               0.000000000              -0.050710260               0.222833332               0.000000000              -0.056901071               0.245930554               0.000000000              -0.063091883               0.269027776               0.000000000              -0.069282695               0.292124999               0.000000000              -0.075473506               0.315222221               0.000000000              -0.081664318               0.338319444               0.000000000              -0.087855130               0.361416666               0.000000000              -0.094045942               0.384513888               0.000000000              -0.100236753               0.407611111               0.000000000              -0.106427565               0.430708333               0.000000000              -0.112618377               0.453805555               0.000000000              -0.118809188               0.476902778               0.000000000              -0.125000000               0.500000000               0.000000000              -0.013036280               0.132359569               0.000000000              -0.016127762               0.155337096               0.000000000              -0.019219245               0.178314623               0.000000000              -0.022310727               0.201292150               0.000000000              -0.025402210               0.224269676               0.000000000              -0.028493692               0.247247203               0.000000000              -0.031585175               0.270224730               0.000000000              -0.034676657               0.293202257               0.000000000              -0.037768140               0.316179784               0.000000000              -0.040859622               0.339157311               0.000000000              -0.043951105               0.362134838               0.000000000              -0.047042587               0.385112365               0.000000000              -0.050134070               0.408089892               0.000000000              -0.053225552               0.431067419               0.000000000              -0.056317035               0.454044946               0.000000000              -0.059408517               0.477022473               0.000000000              -0.062500000               0.500000000               0.000000000               0.000000000               0.133000000               0.000000000               0.000000000               0.155937500               0.000000000               0.000000000               0.178875000               0.000000000               0.000000000               0.201812500               0.000000000               0.000000000               0.224750000               0.000000000               0.000000000               0.247687500               0.000000000               0.000000000               0.270625000               0.000000000               0.000000000               0.293562500               0.000000000               0.000000000               0.316500000               0.000000000               0.000000000               0.339437500               0.000000000               0.000000000               0.362375000               0.000000000               0.000000000               0.385312500               0.000000000               0.000000000               0.408250000               0.000000000               0.000000000               0.431187500               0.000000000               0.000000000               0.454125000               0.000000000               0.000000000               0.477062500               0.000000000               0.000000000               0.500000000               0.000000000 </DataArray>
</Points>
<Cells>
<DataArray type="Int32"                                    Name="connectivity"                                                      NumberOfComponents=" 1" format="ascii">
         0          1         18         17          1          2         19         18          2          3         20         19          3          4         21         20          4          5         22         21          5          6         23         22          6          7         24         23          7          8         25         24          8          9         26         25          9         10         27         26         10         11         28         27         11         12         29         28         12         13         30         29         13         14         31         30         14         15         32         31         15         16         33         32         17         18         35         34         18         19         36         35         19         20         37         36         20         21         38         37         21         22         39         38         22         23         40         39         23         24         41         40         24         25         42         41         25         26         43         42         26         27         44         43         27         28         45         44         28         29         46         45         29         30         47         46         30         31         48         47         31         32         49         48         32         33         50         49         34         35         52         51         35         36         53         52         36         37         54         53         37         38         55         54         38         39         56         55         39         40         57         56         40         41         58         57         41         42         59         58         42         43         60         59         43         44         61         60         44         45         62         61         45         46         63         62         46         47         64         63         47         48         65         64         48         49         66         65         49         50         67         66         51         52         69         68         52         53         70         69         53         54         71         70         54         55         72         71         55         56         73         72         56         57         74         73         57         58         75         74         58         59         76         75         59         60         77         76         60         61         78         77         61         62         79         78         62         63         80         79         63         64         81         80         64         65         82         81         65         66         83         82         66         67         84         83         68         69         86         85         69         70         87         86         70         71         88         87         71         72         89         88         72         73         90         89         73         74         91         90         74         75         92         91         75         76         93         92         76         77         94         93         77         78         95         94         78         79         96         95         79         80         97         96         80         81         98         97         81         82         99         98         82         83        100         99         83         84        101        100         85         86        103        102         86         87        104        103         87         88        105        104         88         89        106        105         89         90        107        106         90         91        108        107         91         92        109        108         92         93        110        109         93         94        111        110         94         95        112        111         95         96        113        112         96         97        114        113         97         98        115        114         98         99        116        115         99        100        117        116        100        101        118        117        102        103        120        119        103        104        121        120        104        105        122        121        105        106        123        122        106        107        124        123        107        108        125        124        108        109        126        125        109        110        127        126        110        111        128        127        111        112        129        128        112        113        130        129        113        114        131        130        114        115        132        131        115        116        133        132        116        117        134        133        117        118        135        134        119        120        137        136        120        121        138        137        121        122        139        138        122        123        140        139        123        124        141        140        124        125        142        141        125        126        143        142        126        127        144        143        127        128        145        144        128        129        146        145        129        130        147        146        130        131        148        147        131        132        149        148        132        133        150        149        133        134        151        150        134        135        152        151        136        137        154        153        137        138        155        154        138        139        156        155        139        140        157        156        140        141        158        157        141        142        159        158        142        143        160        159        143        144        161        160        144        145        162        161        145        146        163        162        146        147        164        163        147        148        165        164        148        149        166        165        149        150        167        166        150        151        168        167        151        152        169        168        153        154        171        170        154        155        172        171        155        156        173        172        156        157        174        173        157        158        175        174        158        159        176        175        159        160        177        176        160        161        178        177        161        162        179        178        162        163        180        179        163        164        181        180        164        165        182        181        165        166        183        182        166        167        184        183        167        168        185        184        168        169        186        185        170        171        188        187        171        172        189        188        172        173        190        189        173        174        191        190        174        175        192        191        175        176        193        192        176        177        194        193        177        178        195        194        178        179        196        195        179        180        197        196        180        181        198        197        181        182        199        198        182        183        200        199        183        184        201        200        184        185        202        201        185        186        203        202        187        188        205        204        188        189        206        205        189        190        207        206        190        191        208        207        191        192        209        208        192        193        210        209        193        194        211        210        194        195        212        211        195        196        213        212        196        197        214        213        197        198        215        214        198        199        216        215        199        200        217        216        200        201        218        217        201        202        219        218        202        203        220        219        204        205        222        221        205        206        223        222        206        207        224        223        207        208        225        224        208        209        226        225        209        210        227        226        210        211        228        227        211        212        229        228        212        213        230        229        213        214        231        230        214        215        232        231        215        216        233        232        216        217        234        233        217        218        235        234        218        219        236        235        219        220        237        236        221        222        239        238        222        223        240        239        223        224        241        240        224        225        242        241        225        226        243        242        226        227        244        243        227        228        245        244        228        229        246        245        229        230        247        246        230        231        248        247        231        232        249        248        232        233        250        249        233        234        251        250        234        235        252        251        235        236        253        252        236        237        254        253        238        239        256        255        239        240        257        256        240        241        258        257        241        242        259        258        242        243        260        259        243        244        261        260        244        245        262        261        245        246        263        262        246        247        264        263        247        248        265        264        248        249        266        265        249        250        267        266        250        251        268        267        251        252        269        268        252        253        270        269        253        254        271        270        255        256        273        272        256        257        274        273        257        258        275        274        258        259        276        275        259        260        277        276        260        261        278        277        261        262        279        278        262        263        280        279        263        264        281        280        264        265        282        281        265        266        283        282        266        267        284        283        267        268        285        284        268        269        286        285        269        270        287        286        270        271        288        287        306        307          1          0        307        308          2          1        308        309          3          2        309        310          4          3        310        311          5          4        311        312          6          5        312        313          7          6        313        314          8          7        314        315          9          8        315        316         10          9        316        317         11         10        317        318         12         11        318        319         13         12        319        320         14         13        320        321         15         14        321        322         16         15        323        324        307        306        324        325        308        307        325        326        309        308        326        327        310        309        327        328        311        310        328        329        312        311        329        330        313        312        330        331        314        313        331        332        315        314        332        333        316        315        333        334        317        316        334        335        318        317        335        336        319        318        336        337        320        319        337        338        321        320        338        339        322        321        340        341        324        323        341        342        325        324        342        343        326        325        343        344        327        326        344        345        328        327        345        346        329        328        346        347        330        329        347        348        331        330        348        349        332        331        349        350        333        332        350        351        334        333        351        352        335        334        352        353        336        335        353        354        337        336        354        355        338        337        355        356        339        338        357        358        341        340        358        359        342        341        359        360        343        342        360        361        344        343        361        362        345        344        362        363        346        345        363        364        347        346        364        365        348        347        365        366        349        348        366        367        350        349        367        368        351        350        368        369        352        351        369        370        353        352        370        371        354        353        371        372        355        354        372        373        356        355        374        375        358        357        375        376        359        358        376        377        360        359        377        378        361        360        378        379        362        361        379        380        363        362        380        381        364        363        381        382        365        364        382        383        366        365        383        384        367        366        384        385        368        367        385        386        369        368        386        387        370        369        387        388        371        370        388        389        372        371        389        390        373        372        391        392        375        374        392        393        376        375        393        394        377        376        394        395        378        377        395        396        379        378        396        397        380        379        397        398        381        380        398        399        382        381        399        400        383        382        400        401        384        383        401        402        385        384        402        403        386        385        403        404        387        386        404        405        388        387        405        406        389        388        406        407        390        389        408        409        392        391        409        410        393        392        410        411        394        393        411        412        395        394        412        413        396        395        413        414        397        396        414        415        398        397        415        416        399        398        416        417        400        399        417        418        401        400        418        419        402        401        419        420        403        402        420        421        404        403        421        422        405        404        422        423        406        405        423        424        407        406        425        426        409        408        426        427        410        409        427        428        411        410        428        429        412        411        429        430        413        412        430        431        414        413        431        432        415        414        432        433        416        415        433        434        417        416        434        435        418        417        435        436        419        418        436        437        420        419        437        438        421        420        438        439        422        421        439        440        423        422        440        441        424        423        442        443        426        425        443        444        427        426        444        445        428        427        445        446        429        428        446        447        430        429        447        448        431        430        448        449        432        431        449        450        433        432        450        451        434        433        451        452        435        434        452        453        436        435        453        454        437        436        454        455        438        437        455        456        439        438        456        457        440        439        457        458        441        440        459        460        443        442        460        461        444        443        461        462        445        444        462        463        446        445        463        464        447        446        464        465        448        447        465        466        449        448        466        467        450        449        467        468        451        450        468        469        452        451        469        470        453        452        470        471        454        453        471        472        455        454        472        473        456        455        473        474        457        456        474        475        458        457        476        477        460        459        477        478        461        460        478        479        462        461        479        480        463        462        480        481        464        463        481        482        465        464        482        483        466        465        483        484        467        466        484        485        468        467        485        486        469        468        486        487        470        469        487        488        471        470        488        489        472        471        489        490        473        472        490        491        474        473        491        492        475        474        493        494        477        476        494        495        478        477        495        496        479        478        496        497        480        479        497        498        481        480        498        499        482        481        499        500        483        482        500        501        484        483        501        502        485        484        502        503        486        485        503        504        487        486        504        505        488        487        505        506        489        488        506        507        490        489        507        508        491        490        508        509        492        491        510        511        494        493        511        512        495        494        512        513        496        495        513        514        497        496        514        515        498        497        515        516        499        498        516        517        500        499        517        518        501        500        518        519        502        501        519        520        503        502        520        521        504        503        521        522        505        504        522        523        506        505        523        524        507        506        524        525        508        507        525        526        509        508        527        528        511        510        528        529        512        511        529        530        513        512        530        531        514        513        531        532        515        514        532        533        516        515        533        534        517        516        534        535        518        517        535        536        519        518        536        537        520        519        537        538        521        520        538        539        522        521        539        540        523        522        540        541        524        523        541        542        525        524        542        543        526        525        544        545        528        527        545        546        529        528        546        547        530        529        547        548        531        530        548        549        532        531        549        550        533        532        550        551        534        533        551        552        535        534        552        553        536        535        553        554        537        536        554        555        538        537        555        556        539        538        556        557        540        539        557        558        541        540        558        559        542        541        559        560        543        542        561        562        545        544        562        563        546        545        563        564        547        546        564        565        548        547        565        566        549        548        566        567        550        549        567        568        551        550        568        569        552        551        569        570        553        552        570        571        554        553        571        572        555        554        572        573        556        555        573        574        557        556        574        575        558        557        575        576        559        558        576        577        560        559        578        579        596        595        579        580        597        596        580        581        598        597        581        582        599        598        582        583        600        599        583        584        601        600        584        585        602        601        585        586        603        602        586        587        604        603        587        588        605        604        588        589        606        605        589        590        607        606        590        591        608        607        591        592        609        608        592        593        610        609        593        594        611        610        595        596        613        612        596        597        614        613        597        598        615        614        598        599        616        615        599        600        617        616        600        601        618        617        601        602        619        618        602        603        620        619        603        604        621        620        604        605        622        621        605        606        623        622        606        607        624        623        607        608        625        624        608        609        626        625        609        610        627        626        610        611        628        627        612        613        630        629        613        614        631        630        614        615        632        631        615        616        633        632        616        617        634        633        617        618        635        634        618        619        636        635        619        620        637        636        620        621        638        637        621        622        639        638        622        623        640        639        623        624        641        640        624        625        642        641        625        626        643        642        626        627        644        643        627        628        645        644        629        630        647        646        630        631        648        647        631        632        649        648        632        633        650        649        633        634        651        650        634        635        652        651        635        636        653        652        636        637        654        653        637        638        655        654        638        639        656        655        639        640        657        656        640        641        658        657        641        642        659        658        642        643        660        659        643        644        661        660        644        645        662        661        646        647        664        663        647        648        665        664        648        649        666        665        649        650        667        666        650        651        668        667        651        652        669        668        652        653        670        669        653        654        671        670        654        655        672        671        655        656        673        672        656        657        674        673        657        658        675        674        658        659        676        675        659        660        677        676        660        661        678        677        661        662        679        678        663        664        681        680        664        665        682        681        665        666        683        682        666        667        684        683        667        668        685        684        668        669        686        685        669        670        687        686        670        671        688        687        671        672        689        688        672        673        690        689        673        674        691        690        674        675        692        691        675        676        693        692        676        677        694        693        677        678        695        694        678        679        696        695        680        681        698        697        681        682        699        698        682        683        700        699        683        684        701        700        684        685        702        701        685        686        703        702        686        687        704        703        687        688        705        704        688        689        706        705        689        690        707        706        690        691        708        707        691        692        709        708        692        693        710        709        693        694        711        710        694        695        712        711        695        696        713        712        697        698        715        714        698        699        716        715        699        700        717        716        700        701        718        717        701        702        719        718        702        703        720        719        703        704        721        720        704        705        722        721        705        706        723        722        706        707        724        723        707        708        725        724        708        709        726        725        709        710        727        726        710        711        728        727        711        712        729        728        712        713        730        729        714        715        732        731        715        716        733        732        716        717        734        733        717        718        735        734        718        719        736        735        719        720        737        736        720        721        738        737        721        722        739        738        722        723        740        739        723        724        741        740        724        725        742        741        725        726        743        742        726        727        744        743        727        728        745        744        728        729        746        745        729        730        747        746        731        732        749        748        732        733        750        749        733        734        751        750        734        735        752        751        735        736        753        752        736        737        754        753        737        738        755        754        738        739        756        755        739        740        757        756        740        741        758        757        741        742        759        758        742        743        760        759        743        744        761        760        744        745        762        761        745        746        763        762        746        747        764        763        748        749        766        765        749        750        767        766        750        751        768        767        751        752        769        768        752        753        770        769        753        754        771        770        754        755        772        771        755        756        773        772        756        757        774        773        757        758        775        774        758        759        776        775        759        760        777        776        760        761        778        777        761        762        779        778        762        763        780        779        763        764        781        780        765        766        783        782        766        767        784        783        767        768        785        784        768        769        786        785        769        770        787        786        770        771        788        787        771        772        789        788        772        773        790        789        773        774        791        790        774        775        792        791        775        776        793        792        776        777        794        793        777        778        795        794        778        779        796        795        779        780        797        796        780        781        798        797        782        783        800        799        783        784        801        800        784        785        802        801        785        786        803        802        786        787        804        803        787        788        805        804        788        789        806        805        789        790        807        806        790        791        808        807        791        792        809        808        792        793        810        809        793        794        811        810        794        795        812        811        795        796        813        812        796        797        814        813        797        798        815        814        799        800        817        816        800        801        818        817        801        802        819        818        802        803        820        819        803        804        821        820        804        805        822        821        805        806        823        822        806        807        824        823        807        808        825        824        808        809        826        825        809        810        827        826        810        811        828        827        811        812        829        828        812        813        830        829        813        814        831        830        814        815        832        831        816        817        834        833        817        818        835        834        818        819        836        835        819        820        837        836        820        821        838        837        821        822        839        838        822        823        840        839        823        824        841        840        824        825        842        841        825        826        843        842        826        827        844        843        827        828        845        844        828        829        846        845        829        830        847        846        830        831        848        847        831        832        849        848        833        834        562        561        834        835        563        562        835        836        564        563        836        837        565        564        837        838        566        565        838        839        567        566        839        840        568        567        840        841        569        568        841        842        570        569        842        843        571        570        843        844        572        571        844        845        573        572        845        846        574        573        846        847        575        574        847        848        576        575        848        849        577        576        884        885        579        578        885        886        580        579        886        887        581        580        887        888        582        581        888        889        583        582        889        890        584        583        890        891        585        584        891        892        586        585        892        893        587        586        893        894        588        587        894        895        589        588        895        896        590        589        896        897        591        590        897        898        592        591        898        899        593        592        899        900        594        593        901        902        885        884        902        903        886        885        903        904        887        886        904        905        888        887        905        906        889        888        906        907        890        889        907        908        891        890        908        909        892        891        909        910        893        892        910        911        894        893        911        912        895        894        912        913        896        895        913        914        897        896        914        915        898        897        915        916        899        898        916        917        900        899        918        919        902        901        919        920        903        902        920        921        904        903        921        922        905        904        922        923        906        905        923        924        907        906        924        925        908        907        925        926        909        908        926        927        910        909        927        928        911        910        928        929        912        911        929        930        913        912        930        931        914        913        931        932        915        914        932        933        916        915        933        934        917        916        935        936        919        918        936        937        920        919        937        938        921        920        938        939        922        921        939        940        923        922        940        941        924        923        941        942        925        924        942        943        926        925        943        944        927        926        944        945        928        927        945        946        929        928        946        947        930        929        947        948        931        930        948        949        932        931        949        950        933        932        950        951        934        933        952        953        936        935        953        954        937        936        954        955        938        937        955        956        939        938        956        957        940        939        957        958        941        940        958        959        942        941        959        960        943        942        960        961        944        943        961        962        945        944        962        963        946        945        963        964        947        946        964        965        948        947        965        966        949        948        966        967        950        949        967        968        951        950        969        970        953        952        970        971        954        953        971        972        955        954        972        973        956        955        973        974        957        956        974        975        958        957        975        976        959        958        976        977        960        959        977        978        961        960        978        979        962        961        979        980        963        962        980        981        964        963        981        982        965        964        982        983        966        965        983        984        967        966        984        985        968        967        986        987        970        969        987        988        971        970        988        989        972        971        989        990        973        972        990        991        974        973        991        992        975        974        992        993        976        975        993        994        977        976        994        995        978        977        995        996        979        978        996        997        980        979        997        998        981        980        998        999        982        981        999       1000        983        982       1000       1001        984        983       1001       1002        985        984       1003       1004        987        986       1004       1005        988        987       1005       1006        989        988       1006       1007        990        989       1007       1008        991        990       1008       1009        992        991       1009       1010        993        992       1010       1011        994        993       1011       1012        995        994       1012       1013        996        995       1013       1014        997        996       1014       1015        998        997       1015       1016        999        998       1016       1017       1000        999       1017       1018       1001       1000       1018       1019       1002       1001       1020       1021       1004       1003       1021       1022       1005       1004       1022       1023       1006       1005       1023       1024       1007       1006       1024       1025       1008       1007       1025       1026       1009       1008       1026       1027       1010       1009       1027       1028       1011       1010       1028       1029       1012       1011       1029       1030       1013       1012       1030       1031       1014       1013       1031       1032       1015       1014       1032       1033       1016       1015       1033       1034       1017       1016       1034       1035       1018       1017       1035       1036       1019       1018       1037       1038       1021       1020       1038       1039       1022       1021       1039       1040       1023       1022       1040       1041       1024       1023       1041       1042       1025       1024       1042       1043       1026       1025       1043       1044       1027       1026       1044       1045       1028       1027       1045       1046       1029       1028       1046       1047       1030       1029       1047       1048       1031       1030       1048       1049       1032       1031       1049       1050       1033       1032       1050       1051       1034       1033       1051       1052       1035       1034       1052       1053       1036       1035       1054       1055       1038       1037       1055       1056       1039       1038       1056       1057       1040       1039       1057       1058       1041       1040       1058       1059       1042       1041       1059       1060       1043       1042       1060       1061       1044       1043       1061       1062       1045       1044       1062       1063       1046       1045       1063       1064       1047       1046       1064       1065       1048       1047       1065       1066       1049       1048       1066       1067       1050       1049       1067       1068       1051       1050       1068       1069       1052       1051       1069       1070       1053       1052       1071       1072       1055       1054       1072       1073       1056       1055       1073       1074       1057       1056       1074       1075       1058       1057       1075       1076       1059       1058       1076       1077       1060       1059       1077       1078       1061       1060       1078       1079       1062       1061       1079       1080       1063       1062       1080       1081       1064       1063       1081       1082       1065       1064       1082       1083       1066       1065       1083       1084       1067       1066       1084       1085       1068       1067       1085       1086       1069       1068       1086       1087       1070       1069       1088       1089       1072       1071       1089       1090       1073       1072       1090       1091       1074       1073       1091       1092       1075       1074       1092       1093       1076       1075       1093       1094       1077       1076       1094       1095       1078       1077       1095       1096       1079       1078       1096       1097       1080       1079       1097       1098       1081       1080       1098       1099       1082       1081       1099       1100       1083       1082       1100       1101       1084       1083       1101       1102       1085       1084       1102       1103       1086       1085       1103       1104       1087       1086       1105       1106       1089       1088       1106       1107       1090       1089       1107       1108       1091       1090       1108       1109       1092       1091       1109       1110       1093       1092       1110       1111       1094       1093       1111       1112       1095       1094       1112       1113       1096       1095       1113       1114       1097       1096       1114       1115       1098       1097       1115       1116       1099       1098       1116       1117       1100       1099       1117       1118       1101       1100       1118       1119       1102       1101       1119       1120       1103       1102       1120       1121       1104       1103       1122       1123       1106       1105       1123       1124       1107       1106       1124       1125       1108       1107       1125       1126       1109       1108       1126       1127       1110       1109       1127       1128       1111       1110       1128       1129       1112       1111       1129       1130       1113       1112       1130       1131       1114       1113       1131       1132       1115       1114       1132       1133       1116       1115       1133       1134       1117       1116       1134       1135       1118       1117       1135       1136       1119       1118       1136       1137       1120       1119       1137       1138       1121       1120        272        273       1123       1122        273        274       1124       1123        274        275       1125       1124        275        276       1126       1125        276        277       1127       1126        277        278       1128       1127        278        279       1129       1128        279        280       1130       1129        280        281       1131       1130        281        282       1132       1131        282        283       1133       1132        283        284       1134       1133        284        285       1135       1134        285        286       1136       1135        286        287       1137       1136        287        288       1138       1137 </DataArray>
<DataArray type="Int32"                                    Name="offsets"                                                      NumberOfComponents=" 1" format="ascii">
         4          8         12         16         20         24         28         32         36         40         44         48         52         56         60         64         68         72         76         80         84         88         92         96        100        104        108        112        116        120        124        128        132        136        140        144        148        152        156        160        164        168        172        176        180        184        188        192        196        200        204        208        212        216        220        224        228        232        236        240        244        248        252        256        260        264        268        272        276        280        284        288        292        296        300        304        308        312        316        320        324        328        332        336        340        344        348        352        356        360        364        368        372        376        380        384        388        392        396        400        404        408        412        416        420        424        428        432        436        440        444        448        452        456        460        464        468        472        476        480        484        488        492        496        500        504        508        512        516        520        524        528        532        536        540        544        548        552        556        560        564        568        572        576        580        584        588        592        596        600        604        608        612        616        620        624        628        632        636        640        644        648        652        656        660        664        668        672        676        680        684        688        692        696        700        704        708        712        716        720        724        728        732        736        740        744        748        752        756        760        764        768        772        776        780        784        788        792        796        800        804        808        812        816        820        824        828        832        836        840        844        848        852        856        860        864        868        872        876        880        884        888        892        896        900        904        908        912        916        920        924        928        932        936        940        944        948        952        956        960        964        968        972        976        980        984        988        992        996       1000       1004       1008       1012       1016       1020       1024       1028       1032       1036       1040       1044       1048       1052       1056       1060       1064       1068       1072       1076       1080       1084       1088       1092       1096       1100       1104       1108       1112       1116       1120       1124       1128       1132       1136       1140       1144       1148       1152       1156       1160       1164       1168       1172       1176       1180       1184       1188       1192       1196       1200       1204       1208       1212       1216       1220       1224       1228       1232       1236       1240       1244       1248       1252       1256       1260       1264       1268       1272       1276       1280       1284       1288       1292       1296       1300       1304       1308       1312       1316       1320       1324       1328       1332       1336       1340       1344       1348       1352       1356       1360       1364       1368       1372       1376       1380       1384       1388       1392       1396       1400       1404       1408       1412       1416       1420       1424       1428       1432       1436       1440       1444       1448       1452       1456       1460       1464       1468       1472       1476       1480       1484       1488       1492       1496       1500       1504       1508       1512       1516       1520       1524       1528       1532       1536       1540       1544       1548       1552       1556       1560       1564       1568       1572       1576       1580       1584       1588       1592       1596       1600       1604       1608       1612       1616       1620       1624       1628       1632       1636       1640       1644       1648       1652       1656       1660       1664       1668       1672       1676       1680       1684       1688       1692       1696       1700       1704       1708       1712       1716       1720       1724       1728       1732       1736       1740       1744       1748       1752       1756       1760       1764       1768       1772       1776       1780       1784       1788       1792       1796       1800       1804       1808       1812       1816       1820       1824       1828       1832       1836       1840       1844       1848       1852       1856       1860       1864       1868       1872       1876       1880       1884       1888       1892       1896       1900       1904       1908       1912       1916       1920       1924       1928       1932       1936       1940       1944       1948       1952       1956       1960       1964       1968       1972       1976       1980       1984       1988       1992       1996       2000       2004       2008       2012       2016       2020       2024       2028       2032       2036       2040       2044       2048       2052       2056       2060       2064       2068       2072       2076       2080       2084       2088       2092       2096       2100       2104       2108       2112       2116       2120       2124       2128       2132       2136       2140       2144       2148       2152       2156       2160       2164       2168       2172       2176       2180       2184       2188       2192       2196       2200       2204       2208       2212       2216       2220       2224       2228       2232       2236       2240       2244       2248       2252       2256       2260       2264       2268       2272       2276       2280       2284       2288       2292       2296       2300       2304       2308       2312       2316       2320       2324       2328       2332       2336       2340       2344       2348       2352       2356       2360       2364       2368       2372       2376       2380       2384       2388       2392       2396       2400       2404       2408       2412       2416       2420       2424       2428       2432       2436       2440       2444       2448       2452       2456       2460       2464       2468       2472       2476       2480       2484       2488       2492       2496       2500       2504       2508       2512       2516       2520       2524       2528       2532       2536       2540       2544       2548       2552       2556       2560       2564       2568       2572       2576       2580       2584       2588       2592       2596       2600       2604       2608       2612       2616       2620       2624       2628       2632       2636       2640       2644       2648       2652       2656       2660       2664       2668       2672       2676       2680       2684       2688       2692       2696       2700       2704       2708       2712       2716       2720       2724       2728       2732       2736       2740       2744       2748       2752       2756       2760       2764       2768       2772       2776       2780       2784       2788       2792       2796       2800       2804       2808       2812       2816       2820       2824       2828       2832       2836       2840       2844       2848       2852       2856       2860       2864       2868       2872       2876       2880       2884       2888       2892       2896       2900       2904       2908       2912       2916       2920       2924       2928       2932       2936       2940       2944       2948       2952       2956       2960       2964       2968       2972       2976       2980       2984       2988       2992       2996       3000       3004       3008       3012       3016       3020       3024       3028       3032       3036       3040       3044       3048       3052       3056       3060       3064       3068       3072       3076       3080       3084       3088       3092       3096       3100       3104       3108       3112       3116       3120       3124       3128       3132       3136       3140       3144       3148       3152       3156       3160       3164       3168       3172       3176       3180       3184       3188       3192       3196       3200       3204       3208       3212       3216       3220       3224       3228       3232       3236       3240       3244       3248       3252       3256       3260       3264       3268       3272       3276       3280       3284       3288       3292       3296       3300       3304       3308       3312       3316       3320       3324       3328       3332       3336       3340       3344       3348       3352       3356       3360       3364       3368       3372       3376       3380       3384       3388       3392       3396       3400       3404       3408       3412       3416       3420       3424       3428       3432       3436       3440       3444       3448       3452       3456       3460       3464       3468       3472       3476       3480       3484       3488       3492       3496       3500       3504       3508       3512       3516       3520       3524       3528       3532       3536       3540       3544       3548       3552       3556       3560       3564       3568       3572       3576       3580       3584       3588       3592       3596       3600       3604       3608       3612       3616       3620       3624       3628       3632       3636       3640       3644       3648       3652       3656       3660       3664       3668       3672       3676       3680       3684       3688       3692       3696       3700       3704       3708       3712       3716       3720       3724       3728       3732       3736       3740       3744       3748       3752       3756       3760       3764       3768       3772       3776       3780       3784       3788       3792       3796       3800       3804       3808       3812       3816       3820       3824       3828       3832       3836       3840       3844       3848       3852       3856       3860       3864       3868       3872       3876       3880       3884       3888       3892       3896       3900       3904       3908       3912       3916       3920       3924       3928       3932       3936       3940       3944       3948       3952       3956       3960       3964       3968       3972       3976       3980       3984       3988       3992       3996       4000       4004       4008       4012       4016       4020       4024       4028       4032       4036       4040       4044       4048       4052       4056       4060       4064       4068       4072       4076       4080       4084       4088       4092       4096 </DataArray>
<DataArray type="UInt8"                                    Name="types"                                                      NumberOfComponents=" 1" format="ascii">
         9          9          9          9          9          9          9          9          9          9          9          9          9          9          9          9          9          9          9          9          9          9          9          9          9          9          9          9          9          9          9          9          9          9          9          9          9          9          9          9          9          9          9          9          9          9          9          9          9          9          9          9          9          9          9          9          9          9          9          9          9          9          9          9          9          9          9          9          9          9          9          9          9          9          9          9          9          9          9          9          9          9          9          9          9          9          9          9          9          9          9          9          9          9          9          9          9          9          9          9          9          9          9          9          9          9          9          9          9          9          9          9          9          9          9          9          9          9          9          9          9          9          9          9          9          9          9          9          9          9          9          9          9          9          9          9          9          9          9          9          9          9          9          9          9          9          9          9          9          9          9          9          9          9          9          9          9          9          9          9          9          9          9          9          9          9          9          9          9          9          9          9          9          9          9          9          9          9          9          9          9          9          9          9          9          9          9          9          9          9          9          9          9          9          9          9          9          9          9          9          9          9          9          9          9          9          9          9          9          9          9          9          9          9          9          9          9          9          9          9          9          9          9          9          9          9          9          9          9          9          9          9          9          9          9          9          9          9          9          9          9          9          9          9          9          9          9          9          9          9          9          9          9          9          9          9          9          9          9          9          9          9          9          9          9          9          9          9          9          9          9          9          9          9          9          9          9          9          9          9          9          9          9          9          9          9          9          9          9          9          9          9          9          9          9          9          9          9          9          9          9          9          9          9          9          9          9          9          9          9          9          9          9          9          9          9          9          9          9          9          9          9          9          9          9          9          9          9          9          9          9          9          9          9          9          9          9          9          9          9          9          9          9          9          9          9          9          9          9          9          9          9          9          9          9          9          9          9          9          9          9          9          9          9          9          9          9          9          9          9          9          9          9          9          9          9          9          9          9          9          9          9          9          9          9          9          9          9          9          9          9          9          9          9          9          9          9          9          9          9          9          9          9          9          9          9          9          9          9          9          9          9          9          9          9          9          9          9          9          9          9          9          9          9          9          9          9          9          9          9          9          9          9          9          9          9          9          9          9          9          9          9          9          9          9          9          9          9          9          9          9          9          9          9          9          9          9          9          9          9          9          9          9          9          9          9          9          9          9          9          9          9          9          9          9          9          9          9          9          9          9          9          9          9          9          9          9          9          9          9          9          9          9          9          9          9          9          9          9          9          9          9          9          9          9          9          9          9          9          9          9          9          9          9          9          9          9          9          9          9          9          9          9          9          9          9          9          9          9          9          9          9          9          9          9          9          9          9          9          9          9          9          9          9          9          9          9          9          9          9          9          9          9          9          9          9          9          9          9          9          9          9          9          9          9          9          9          9          9          9          9          9          9          9          9          9          9          9          9          9          9          9          9          9          9          9          9          9          9          9          9          9          9          9          9          9          9          9          9          9          9          9          9          9          9          9          9          9          9          9          9          9          9          9          9          9          9          9          9          9          9          9          9          9          9          9          9          9          9          9          9          9          9          9          9          9          9          9          9          9          9          9          9          9          9          9          9          9          9          9          9          9          9          9          9          9          9          9          9          9          9          9          9          9          9          9          9          9          9          9          9          9          9          9          9          9          9          9          9          9          9          9          9          9          9          9          9          9          9          9          9          9          9          9          9          9          9          9          9          9          9          9          9          9          9          9          9          9          9          9          9          9          9          9          9          9          9          9          9          9          9          9          9          9          9          9          9          9          9          9          9          9          9          9          9          9          9          9          9          9          9          9          9          9          9          9          9          9          9          9          9          9          9          9          9          9          9          9          9          9          9          9          9          9          9          9          9          9          9          9          9          9          9          9          9          9          9          9          9          9          9          9          9          9          9          9          9          9          9          9          9          9          9          9          9          9          9          9          9          9          9          9          9          9          9          9          9          9          9          9          9          9          9          9          9          9          9          9          9          9          9          9          9          9          9          9          9          9          9          9          9          9          9          9          9          9          9          9          9          9          9          9          9          9          9          9          9          9          9          9          9          9          9          9          9          9          9          9          9          9          9          9          9          9          9          9          9          9          9          9          9          9          9          9          9          9          9          9          9          9          9          9          9          9          9          9          9          9          9          9          9          9          9          9          9          9          9          9          9          9          9          9          9          9          9          9          9          9          9          9          9          9          9          9          9          9          9          9          9          9          9          9          9          9          9          9          9          9          9          9          9          9          9          9          9          9          9          9          9          9          9          9          9          9          9          9          9          9          9          9          9          9          9          9          9          9          9          9          9          9          9          9          9          9          9          9          9          9          9          9          9          9          9          9          9          9          9          9          9          9          9          9          9          9          9          9          9          9          9          9          9          9          9          9          9          9          9          9          9          9          9          9          9          9          9          9          9          9          9          9          9          9          9          9          9          9          9          9          9          9          9          9          9          9 </DataArray>
</Cells>
<CellData>
<DataArray type="Int32"                                    Name="material"                                                      NumberOfComponents=" 1" format="ascii">
         1          1          1          1          1          1          1          1          1          1          1          1          1          1          1          1          1          1          1          1          1          1          1          1          1          1          1          1          1          1          1          1          1          1          1          1          1          1          1          1          1          1          1          1          1          1          1          1          1          1          1          1          1          1          1          1          1          1          1          1          1          1          1          1          1          1          1          1          1          1          1          1          1          1          1          1          1          1          1          1          1          1          1          1          1          1          1          1          1          1          1          1          1          1          1          1          1          1          1          1          1          1          1          1          1          1          1          1          1          1          1          1          1          1          1          1          1          1          1          1          1          1          1          1          1          1          1          1          1          1          1          1          1          1          1          1          1          1          1          1          1          1          1          1          1          1          1          1          1          1          1          1          1          1          1          1          1          1          1          1          1          1          1          1          1          1          1          1          1          1          1          1          1          1          1          1          1          1          1          1          1          1          1          1          1          1          1          1          1          1          1          1          1          1          1          1          1          1          1          1          1          1          1          1          1          1          1          1          1          1          1          1          1          1          1          1          1          1          1          1          1          1          1          1          1          1          1          1          1          1          1          1          1          1          1          1          1          1          1          1          1          1          1          1          1          1          1          1          1          1          1          1          1          1          1          1          1          1          1          1          1          1          1          1          1          1          1          1          1          1          1          1          1          1          1          1          1          1          1          1          1          1          1          1          1          1          1          1          1          1          1          1          1          1          1          1          1          1          1          1          1          1          1          1          1          1          1          1          1          1          1          1          1          1          1          1          1          1          1          1          1          1          1          1          1          1          1          1          1          1          1          1          1          1          1          1          1          1          1          1          1          1          1          1          1          1          1          1          1          1          1          1          1          1          1          1          1          1          1          1          1          1          1          1          1          1          1          1          1          1          1          1          1          1          1          1          1          1          1          1          1          1          1          1          1          1          1          1          1          1          1          1          1          1          1          1          1          1          1          1          1          1          1          1          1          1          1          1          1          1          1          1          1          1          1          1          1          1          1          1          1          1          1          1          1          1          1          1          1          1          1          1          1          1          1          1          1          1          1          1          1          1          1          1          1          1          1          1          1          1          1          1          1          1          1          1          1          1          1          1          1          1          1          1          1          1          1          1          1          1          1          1          1          1          1          1          1          1          1          1          1          1          1          1          1          1          1          1          1          1          1          1          1          1          1          1          1          1          1          1          1          1          1          1          1          1          1          1          1          1          1          1          1          1          1          1          1          1          1          1          1          1          1          1          1          1          1          1          1          1          1          1          1          1          1          1          1          1          1          1          1          1          1          1          1          1          1          1          1          1          1          1          1          1          1          1          1          1          1          1          1          1          1          1          1          1          1          1          1          1          1          1          1          1          1          1          1          1          1          1          1          1          1          1          1          1          1          1          1          1          1          1          1          1          1          1          1          1          1          1          1          1          1          1          1          1          1          1          1          1          1          1          1          1          1          1          1          1          1          1          1          1          1          1          1          1          1          1          1          1          1          1          1          1          1          1          1          1          1          1          1          1          1          1          1          1          1          1          1          1          1          1          1          1          1          1          1          1          1          1          1          1          1          1          1          1          1          1          1          1          1          1          1          1          1          1          1          1          1          1          1          1          1          1          1          1          1          1          1          1          1          1          1          1          1          1          1          1          1          1          1          1          1          1          1          1          1          1          1          1          1          1          1          1          1          1          1          1          1          1          1          1          1          1          1          1          1          1          1          1          1          1          1          1          1          1          1          1          1          1          1          1          1          1          1          1          1          1          1          1          1          1          1          1          1          1          1          1          1          1          1          1          1          1          1          1          1          1          1          1          1          1          1          1          1          1          1          1          1          1          1          1          1          1          1          1          1          1          1          1          1          1          1          1          1          1          1          1          1          1          1          1          1          1          1          1          1          1          1          1          1          1          1          1          1          1          1          1          1          1          1          1          1          1          1          1          1          1          1          1          1          1          1          1          1          1          1          1          1          1          1          1          1          1          1          1          1          1          1          1          1          1          1          1          1          1          1          1          1          1          1          1          1          1          1          1          1          1          1          1          1          1          1          1          1          1          1          1          1          1          1          1          1          1          1          1          1          1          1          1          1          1          1          1          1          1          1          1          1          1          1          1          1          1          1          1          1          1          1          1          1          1          1          1          1          1          1          1          1          1          1          1          1          1          1          1          1          1          1          1          1          1          1          1          1          1          1          1          1          1          1          1          1          1          1          1          1          1          1          1          1          1          1          1          1          1          1          1          1          1          1          1          1          1          1          1          1          1          1          1          1          1          1          1          1          1          1          1          1          1          1          1          1          1          1          1          1          1          1          1          1          1          1          1          1          1          1          1          1          1          1          1          1          1          1          1          1          1          1          1          1          1          1          1          1          1          1          1          1          1          1          1          1          1 </DataArray>
</CellData>
<PointData>
<DataArray type="Float64"                                    Name="u"                                                      NumberOfComponents=" 3" format="ascii">
             -0.000056576               0.000000000               0.999999995              -0.000075701               0.000000000               0.999999995              -0.000084760               0.000000000               0.999999995              -0.000090068               0.000000000               0.999999995              -0.000094157               0.000000000               0.999999995              -0.000098061              -0.000000000               0.999999995              -0.000102339               0.000000000               0.999999995              -0.000107272               0.000000000               0.999999995              -0.000112911              -0.000000000               0.999999995              -0.000119340               0.000000000               0.999999995              -0.000126624              -0.000000000               0.999999995              -0.000134785               0.000000000               0.999999995              -0.000143744               0.000000000               0.999999995              -0.000153440               0.000000000               0.999999995              -0.000163802               0.000000000               0.999999995              -0.000174726               0.000000000               0.999999995              -0.000186056               0.000000000               0.999999995              -0.000056136               0.000047944               0.999999995              -0.000074396               0.000042017               0.999999995              -0.000082986               0.000040398               0.999999995              -0.000088004               0.000041108               0.999999995              -0.000091937               0.000043154               0.999999995              -0.000095825               0.000046013               0.999999995              -0.000100135               0.000049392               0.999999995              -0.000105130               0.000053250               0.999999995              -0.000110912               0.000057460               0.999999995              -0.000117509               0.000061938               0.999999995              -0.000124915               0.000066616               0.999999995              -0.000133145               0.000071443               0.999999995              -0.000142120               0.000076304               0.999999995              -0.000151782               0.000081151               0.999999995              -0.000162092               0.000085835               0.999999995              -0.000172924               0.000090172               0.999999995              -0.000184194               0.000093984               0.999999995              -0.000054975               0.000095379               0.999999995              -0.000070650               0.000083632               0.999999995              -0.000077772               0.000080616               0.999999995              -0.000082059               0.000082239               0.999999995              -0.000085782               0.000086611               0.999999995              -0.000089754               0.000092444               0.999999995              -0.000094320               0.000099347               0.999999995              -0.000099655               0.000107155               0.999999995              -0.000105785               0.000115610               0.999999995              -0.000112749               0.000124610               0.999999995              -0.000120478               0.000133970               0.999999995              -0.000128944               0.000143561               0.999999995              -0.000138060               0.000153300               0.999999995              -0.000147752               0.000163020               0.999999995              -0.000158010               0.000172600               0.999999995              -0.000168819               0.000181787               0.999999995              -0.000180216               0.000190386               0.999999995              -0.000053098               0.000141811               0.999999995              -0.000064621               0.000124419               0.999999995              -0.000069722               0.000120483               0.999999995              -0.000073329               0.000123447               0.999999995              -0.000077018               0.000130363               0.999999995              -0.000081233               0.000139424               0.999999995              -0.000086263               0.000150024               0.999999995              -0.000092145               0.000161883               0.999999995              -0.000098843               0.000174681               0.999999995              -0.000106348               0.000188245               0.999999995              -0.000114540               0.000202336               0.999999995              -0.000123387               0.000216705               0.999999995              -0.000132846               0.000231377               0.999999995              -0.000142882               0.000246165               0.999999995              -0.000153530               0.000261095               0.999999995              -0.000164857               0.000276019               0.999999995              -0.000176915               0.000290774               0.999999995              -0.000050475               0.000186699               0.999999995              -0.000056704               0.000164083               0.999999995              -0.000059722               0.000159857               0.999999995              -0.000062801               0.000164649               0.999999995              -0.000066670               0.000174351               0.999999995              -0.000071496               0.000186864               0.999999995              -0.000077294               0.000201280               0.999999995              -0.000084055               0.000217241               0.999999995              -0.000091701               0.000234405               0.999999995              -0.000100066               0.000252527               0.999999995              -0.000109097               0.000271248               0.999999995              -0.000118850               0.000290477               0.999999995              -0.000129300               0.000310157               0.999999995              -0.000140435               0.000330282               0.999999995              -0.000152266               0.000350814               0.999999995              -0.000164777               0.000371814               0.999999995              -0.000177941               0.000393198               0.999999995              -0.000047330               0.000229460               0.999999995              -0.000047540               0.000202386               0.999999995              -0.000048673               0.000198480               0.999999995              -0.000051613               0.000205438               0.999999995              -0.000056123               0.000218139               0.999999995              -0.000061963               0.000234274               0.999999995              -0.000069032               0.000252625               0.999999995              -0.000077155               0.000272688               0.999999995              -0.000086064               0.000294066               0.999999995              -0.000095717               0.000316570               0.999999995              -0.000106135               0.000339961               0.999999995              -0.000117360               0.000364056               0.999999995              -0.000129334               0.000388741               0.999999995              -0.000142017               0.000414038               0.999999995              -0.000155310               0.000440011               0.999999995              -0.000169091               0.000466608               0.999999995              -0.000183154               0.000493587               0.999999995              -0.000043741               0.000269670               0.999999995              -0.000037655               0.000239201               0.999999995              -0.000037489               0.000236094               0.999999995              -0.000040923               0.000245430               0.999999995              -0.000046609               0.000261266               0.999999995              -0.000053936               0.000281041               0.999999995              -0.000062593               0.000303407               0.999999995              -0.000072224               0.000327500               0.999999995              -0.000082667               0.000353014               0.999999995              -0.000093921               0.000379870               0.999999995              -0.000105948               0.000407846               0.999999995              -0.000118782               0.000436641               0.999999995              -0.000132296               0.000466127               0.999999995              -0.000146372               0.000496310               0.999999995              -0.000160863               0.000527153               0.999999995              -0.000175501               0.000558535               0.999999995              -0.000190076               0.000589908               0.999999995              -0.000039802               0.000306969               0.999999995              -0.000027791               0.000274313               0.999999995              -0.000027050               0.000272421               0.999999995              -0.000031581               0.000284278               0.999999995              -0.000038841               0.000303279               0.999999995              -0.000047855               0.000326602               0.999999995              -0.000058124               0.000352938               0.999999995              -0.000069391               0.000381043               0.999999995              -0.000081430               0.000410631               0.999999995              -0.000094306               0.000441731               0.999999995              -0.000107960               0.000474067               0.999999995              -0.000122293               0.000507311               0.999999995              -0.000137142               0.000541239               0.999999995              -0.000152392               0.000575827               0.999999995              -0.000167844               0.000610996               0.999999995              -0.000183182               0.000646302               0.999999995              -0.000198155               0.000681442               0.999999995              -0.000035876               0.000340725               0.999999995              -0.000018255               0.000307741               0.999999995              -0.000017941               0.000307185               0.999999995              -0.000024031               0.000321455               0.999999995              -0.000033030               0.000343598               0.999999995              -0.000043707               0.000370519               0.999999995              -0.000055598               0.000400600               0.999999995              -0.000068340               0.000432698               0.999999995              -0.000081941               0.000466402               0.999999995              -0.000096355               0.000501724               0.999999995              -0.000111392               0.000538189               0.999999995              -0.000126982               0.000575552               0.999999995              -0.000142949               0.000613581               0.999999995              -0.000159179               0.000652093               0.999999995              -0.000175408               0.000690861               0.999999995              -0.000191468               0.000729503               0.999999995              -0.000207191               0.000767824               0.999999995              -0.000032430               0.000372090               0.999999995              -0.000011286               0.000342502               0.999999995              -0.000009262               0.000338949               0.999999995              -0.000014274               0.000349580               0.999999995              -0.000022412               0.000368309               0.999999995              -0.000031995               0.000392048               0.999999995              -0.000042607               0.000419198               0.999999995              -0.000053954               0.000448638               0.999999995              -0.000066000               0.000479667               0.999999995              -0.000078723               0.000511984               0.999999995              -0.000091940               0.000545538               0.999999995              -0.000105467               0.000579983               0.999999995              -0.000119316               0.000615099               0.999999995              -0.000133371               0.000650732               0.999999995              -0.000147602               0.000686765               0.999999995              -0.000161962               0.000723032               0.999999995              -0.000176291               0.000759220               0.999999995              -0.000028465               0.000400244               0.999999995              -0.000005954               0.000375414               0.999999995              -0.000002210               0.000370785               0.999999995              -0.000005843               0.000378472               0.999999995              -0.000012713               0.000394196               0.999999995              -0.000021001               0.000415051               0.999999995              -0.000030197               0.000439410               0.999999995              -0.000040216               0.000466198               0.999999995              -0.000050850               0.000494712               0.999999995              -0.000061806               0.000524626               0.999999995              -0.000073081               0.000555578               0.999999995              -0.000084652               0.000587442               0.999999995              -0.000096312               0.000619862               0.999999995              -0.000107878               0.000652856               0.999999995              -0.000119388               0.000686269               0.999999995              -0.000130931               0.000720144               0.999999995              -0.000142464               0.000754205               0.999999995              -0.000024234               0.000424597               0.999999995              -0.000002189               0.000405683               0.999999995               0.000002817               0.000401312               0.999999995               0.000000685               0.000407239               0.999999995              -0.000004636               0.000420503               0.999999995              -0.000011539               0.000438885               0.999999995              -0.000019364               0.000460756               0.999999995              -0.000027838               0.000485157               0.999999995              -0.000036833               0.000511507               0.999999995              -0.000046136               0.000539285               0.999999995              -0.000055661               0.000568105               0.999999995              -0.000065198               0.000597695               0.999999995              -0.000074506               0.000627978               0.999999995              -0.000083450               0.000658828               0.999999995              -0.000091976               0.000690062               0.999999995              -0.000100114               0.000721704               0.999999995              -0.000107955               0.000753684               0.999999995              -0.000019790               0.000444792               0.999999995               0.000000081               0.000432218               0.999999995               0.000005711               0.000429189               0.999999995               0.000004959               0.000434453               0.999999995               0.000001159               0.000446103               0.999999995              -0.000004338               0.000462441               0.999999995              -0.000010619               0.000482316               0.999999995              -0.000017375               0.000504725               0.999999995              -0.000024665               0.000529232               0.999999995              -0.000032366               0.000555212               0.999999995              -0.000040052               0.000582259               0.999999995              -0.000047565               0.000610205               0.999999995              -0.000054675               0.000638922               0.999999995              -0.000061116               0.000668134               0.999999995              -0.000066824               0.000697716               0.999999995              -0.000071744               0.000727605               0.999999995              -0.000075763               0.000757848               0.999999995              -0.000015080               0.000460706               0.999999995               0.000001115               0.000453983               0.999999995               0.000006515               0.000452959               0.999999995               0.000006702               0.000458303               0.999999995               0.000004152               0.000469076               0.999999995               0.000000150               0.000484178               0.999999995              -0.000004382               0.000502603               0.999999995              -0.000009420               0.000523613               0.999999995              -0.000015006               0.000546631               0.999999995              -0.000020944               0.000571188               0.999999995              -0.000026728               0.000596972               0.999999995              -0.000032209               0.000623802               0.999999995              -0.000037244               0.000651464               0.999999995              -0.000041585               0.000679690               0.999999995              -0.000045097               0.000708277               0.999999995              -0.000047503               0.000737095               0.999999995              -0.000048319               0.000766116               0.999999995              -0.000010167               0.000472130               0.999999995               0.000001251               0.000470130               0.999999995               0.000005496               0.000471157               0.999999995               0.000006069               0.000477025               0.999999995               0.000004562               0.000487540               0.999999995               0.000001956               0.000502030               0.999999995              -0.000000969               0.000519664               0.999999995              -0.000004247               0.000539771               0.999999995              -0.000007938               0.000561879               0.999999995              -0.000011915               0.000585625               0.999999995              -0.000015765               0.000610663               0.999999995              -0.000019303               0.000636818               0.999999995              -0.000022405               0.000663869               0.999999995              -0.000025012               0.000691616               0.999999995              -0.000026967               0.000719842               0.999999995              -0.000027801               0.000748335               0.999999995              -0.000026822               0.000776907               0.999999995              -0.000005121               0.000479011               0.999999995               0.000000798               0.000480066               0.999999995               0.000003119               0.000482609               0.999999995               0.000003579               0.000488952               0.999999995               0.000002855               0.000499523               0.999999995               0.000001574               0.000513883               0.999999995               0.000000159               0.000531209               0.999999995              -0.000001404               0.000550894               0.999999995              -0.000003193               0.000572558               0.999999995              -0.000005170               0.000595914               0.999999995              -0.000007105               0.000620631               0.999999995              -0.000008778               0.000646477               0.999999995              -0.000010254               0.000673220               0.999999995              -0.000011448               0.000700687               0.999999995              -0.000012229               0.000728730               0.999999995              -0.000012402               0.000757170               0.999999995              -0.000011444               0.000785731               0.999999995              -0.000000000               0.000481351               0.999999995               0.000000000               0.000483431               0.999999995              -0.000000000               0.000486536               0.999999995              -0.000000000               0.000493134               0.999999995              -0.000000000               0.000503698               0.999999995              -0.000000000               0.000517959               0.999999995               0.000000000               0.000535252               0.999999995               0.000000000               0.000554866               0.999999995               0.000000000               0.000576372               0.999999995               0.000000000               0.000599620               0.999999995               0.000000000               0.000624288               0.999999995               0.000000000               0.000650030               0.999999995               0.000000000               0.000676656               0.999999995               0.000000000               0.000703968               0.999999995              -0.000000000               0.000731849               0.999999995              -0.000000000               0.000760179               0.999999995              -0.000000000               0.000788688               0.999999995              -0.000056576               0.000000000               0.999999995              -0.000075701               0.000000000               0.999999995              -0.000084760               0.000000000               0.999999995              -0.000090068               0.000000000               0.999999995              -0.000094157               0.000000000               0.999999995              -0.000098061              -0.000000000               0.999999995              -0.000102339               0.000000000               0.999999995              -0.000107272               0.000000000               0.999999995              -0.000112911              -0.000000000               0.999999995              -0.000119340               0.000000000               0.999999995              -0.000126624              -0.000000000               0.999999995              -0.000134785               0.000000000               0.999999995              -0.000143744               0.000000000               0.999999995              -0.000153440               0.000000000               0.999999995              -0.000163802               0.000000000               0.999999995              -0.000174726               0.000000000               0.999999995              -0.000186056               0.000000000               0.999999995              -0.000056136              -0.000047944               0.999999995              -0.000074396              -0.000042017               0.999999995              -0.000082986              -0.000040398               0.999999995              -0.000088004              -0.000041108               0.999999995              -0.000091937              -0.000043154               0.999999995              -0.000095825              -0.000046013               0.999999995              -0.000100135              -0.000049392               0.999999995              -0.000105130              -0.000053250               0.999999995              -0.000110912              -0.000057460               0.999999995              -0.000117509              -0.000061938               0.999999995              -0.000124915              -0.000066616               0.999999995              -0.000133145              -0.000071443               0.999999995              -0.000142120              -0.000076304               0.999999995              -0.000151782              -0.000081151               0.999999995              -0.000162092              -0.000085835               0.999999995              -0.000172924              -0.000090172               0.999999995              -0.000184194              -0.000093984               0.999999995              -0.000054975              -0.000095379               0.999999995              -0.000070650              -0.000083632               0.999999995              -0.000077772              -0.000080616               0.999999995              -0.000082059              -0.000082239               0.999999995              -0.000085782              -0.000086611               0.999999995              -0.000089754              -0.000092444               0.999999995              -0.000094320              -0.000099347               0.999999995              -0.000099655              -0.000107155               0.999999995              -0.000105785              -0.000115610               0.999999995              -0.000112749              -0.000124610               0.999999995              -0.000120478              -0.000133970               0.999999995              -0.000128944              -0.000143561               0.999999995              -0.000138060              -0.000153300               0.999999995              -0.000147752              -0.000163020               0.999999995              -0.000158010              -0.000172600               0.999999995              -0.000168819              -0.000181787               0.999999995              -0.000180216              -0.000190386               0.999999995              -0.000053098              -0.000141811               0.999999995              -0.000064621              -0.000124419               0.999999995              -0.000069722              -0.000120483               0.999999995              -0.000073329              -0.000123447               0.999999995              -0.000077018              -0.000130363               0.999999995              -0.000081233              -0.000139424               0.999999995              -0.000086263              -0.000150024               0.999999995              -0.000092145              -0.000161883               0.999999995              -0.000098843              -0.000174681               0.999999995              -0.000106348              -0.000188245               0.999999995              -0.000114540              -0.000202336               0.999999995              -0.000123387              -0.000216705               0.999999995              -0.000132846              -0.000231377               0.999999995              -0.000142882              -0.000246165               0.999999995              -0.000153530              -0.000261095               0.999999995              -0.000164857              -0.000276019               0.999999995              -0.000176915              -0.000290774               0.999999995              -0.000050475              -0.000186699               0.999999995              -0.000056704              -0.000164083               0.999999995              -0.000059722              -0.000159857               0.999999995              -0.000062801              -0.000164649               0.999999995              -0.000066670              -0.000174351               0.999999995              -0.000071496              -0.000186864               0.999999995              -0.000077294              -0.000201280               0.999999995              -0.000084055              -0.000217241               0.999999995              -0.000091701              -0.000234405               0.999999995              -0.000100066              -0.000252527               0.999999995              -0.000109097              -0.000271248               0.999999995              -0.000118850              -0.000290477               0.999999995              -0.000129300              -0.000310157               0.999999995              -0.000140435              -0.000330282               0.999999995              -0.000152266              -0.000350814               0.999999995              -0.000164777              -0.000371814               0.999999995              -0.000177941              -0.000393198               0.999999995              -0.000047330              -0.000229460               0.999999995              -0.000047540              -0.000202386               0.999999995              -0.000048673              -0.000198480               0.999999995              -0.000051613              -0.000205438               0.999999995              -0.000056123              -0.000218139               0.999999995              -0.000061963              -0.000234274               0.999999995              -0.000069032              -0.000252625               0.999999995              -0.000077155              -0.000272688               0.999999995              -0.000086064              -0.000294066               0.999999995              -0.000095717              -0.000316570               0.999999995              -0.000106135              -0.000339961               0.999999995              -0.000117360              -0.000364056               0.999999995              -0.000129334              -0.000388741               0.999999995              -0.000142017              -0.000414038               0.999999995              -0.000155310              -0.000440011               0.999999995              -0.000169091              -0.000466608               0.999999995              -0.000183154              -0.000493587               0.999999995              -0.000043741              -0.000269670               0.999999995              -0.000037655              -0.000239201               0.999999995              -0.000037489              -0.000236094               0.999999995              -0.000040923              -0.000245430               0.999999995              -0.000046609              -0.000261266               0.999999995              -0.000053936              -0.000281041               0.999999995              -0.000062593              -0.000303407               0.999999995              -0.000072224              -0.000327500               0.999999995              -0.000082667              -0.000353014               0.999999995              -0.000093921              -0.000379870               0.999999995              -0.000105948              -0.000407846               0.999999995              -0.000118782              -0.000436641               0.999999995              -0.000132296              -0.000466127               0.999999995              -0.000146372              -0.000496310               0.999999995              -0.000160863              -0.000527153               0.999999995              -0.000175501              -0.000558535               0.999999995              -0.000190076              -0.000589908               0.999999995              -0.000039802              -0.000306969               0.999999995              -0.000027791              -0.000274313               0.999999995              -0.000027050              -0.000272421               0.999999995              -0.000031581              -0.000284278               0.999999995              -0.000038841              -0.000303279               0.999999995              -0.000047855              -0.000326602               0.999999995              -0.000058124              -0.000352938               0.999999995              -0.000069391              -0.000381043               0.999999995              -0.000081430              -0.000410631               0.999999995              -0.000094306              -0.000441731               0.999999995              -0.000107960              -0.000474067               0.999999995              -0.000122293              -0.000507311               0.999999995              -0.000137142              -0.000541239               0.999999995              -0.000152392              -0.000575827               0.999999995              -0.000167844              -0.000610996               0.999999995              -0.000183182              -0.000646302               0.999999995              -0.000198155              -0.000681442               0.999999995              -0.000035876              -0.000340725               0.999999995              -0.000018255              -0.000307741               0.999999995              -0.000017941              -0.000307185               0.999999995              -0.000024031              -0.000321455               0.999999995              -0.000033030              -0.000343598               0.999999995              -0.000043707              -0.000370519               0.999999995              -0.000055598              -0.000400600               0.999999995              -0.000068340              -0.000432698               0.999999995              -0.000081941              -0.000466402               0.999999995              -0.000096355              -0.000501724               0.999999995              -0.000111392              -0.000538189               0.999999995              -0.000126982              -0.000575552               0.999999995              -0.000142949              -0.000613581               0.999999995              -0.000159179              -0.000652093               0.999999995              -0.000175408              -0.000690861               0.999999995              -0.000191468              -0.000729503               0.999999995              -0.000207191              -0.000767824               0.999999995              -0.000032430              -0.000372090               0.999999995              -0.000011286              -0.000342502               0.999999995              -0.000009262              -0.000338949               0.999999995              -0.000014274              -0.000349580               0.999999995              -0.000022412              -0.000368309               0.999999995              -0.000031995              -0.000392048               0.999999995              -0.000042607              -0.000419198               0.999999995              -0.000053954              -0.000448638               0.999999995              -0.000066000              -0.000479667               0.999999995              -0.000078723              -0.000511984               0.999999995              -0.000091940              -0.000545538               0.999999995              -0.000105467              -0.000579983               0.999999995              -0.000119316              -0.000615099               0.999999995              -0.000133371              -0.000650732               0.999999995              -0.000147602              -0.000686765               0.999999995              -0.000161962              -0.000723032               0.999999995              -0.000176291              -0.000759220               0.999999995              -0.000028465              -0.000400244               0.999999995              -0.000005954              -0.000375414               0.999999995              -0.000002210              -0.000370785               0.999999995              -0.000005843              -0.000378472               0.999999995              -0.000012713              -0.000394196               0.999999995              -0.000021001              -0.000415051               0.999999995              -0.000030197              -0.000439410               0.999999995              -0.000040216              -0.000466198               0.999999995              -0.000050850              -0.000494712               0.999999995              -0.000061806              -0.000524626               0.999999995              -0.000073081              -0.000555578               0.999999995              -0.000084652              -0.000587442               0.999999995              -0.000096312              -0.000619862               0.999999995              -0.000107878              -0.000652856               0.999999995              -0.000119388              -0.000686269               0.999999995              -0.000130931              -0.000720144               0.999999995              -0.000142464              -0.000754205               0.999999995              -0.000024234              -0.000424597               0.999999995              -0.000002189              -0.000405683               0.999999995               0.000002817              -0.000401312               0.999999995               0.000000685              -0.000407239               0.999999995              -0.000004636              -0.000420503               0.999999995              -0.000011539              -0.000438885               0.999999995              -0.000019364              -0.000460756               0.999999995              -0.000027838              -0.000485157               0.999999995              -0.000036833              -0.000511507               0.999999995              -0.000046136              -0.000539285               0.999999995              -0.000055661              -0.000568105               0.999999995              -0.000065198              -0.000597695               0.999999995              -0.000074506              -0.000627978               0.999999995              -0.000083450              -0.000658828               0.999999995              -0.000091976              -0.000690062               0.999999995              -0.000100114              -0.000721704               0.999999995              -0.000107955              -0.000753684               0.999999995              -0.000019790              -0.000444792               0.999999995               0.000000081              -0.000432218               0.999999995               0.000005711              -0.000429189               0.999999995               0.000004959              -0.000434453               0.999999995               0.000001159              -0.000446103               0.999999995              -0.000004338              -0.000462441               0.999999995              -0.000010619              -0.000482316               0.999999995              -0.000017375              -0.000504725               0.999999995              -0.000024665              -0.000529232               0.999999995              -0.000032366              -0.000555212               0.999999995              -0.000040052              -0.000582259               0.999999995              -0.000047565              -0.000610205               0.999999995              -0.000054675              -0.000638922               0.999999995              -0.000061116              -0.000668134               0.999999995              -0.000066824              -0.000697716               0.999999995              -0.000071744              -0.000727605               0.999999995              -0.000075763              -0.000757848               0.999999995              -0.000015080              -0.000460706               0.999999995               0.000001115              -0.000453983               0.999999995               0.000006515              -0.000452959               0.999999995               0.000006702              -0.000458303               0.999999995               0.000004152              -0.000469076               0.999999995               0.000000150              -0.000484178               0.999999995              -0.000004382              -0.000502603               0.999999995              -0.000009420              -0.000523613               0.999999995              -0.000015006              -0.000546631               0.999999995              -0.000020944              -0.000571188               0.999999995              -0.000026728              -0.000596972               0.999999995              -0.000032209              -0.000623802               0.999999995              -0.000037244              -0.000651464               0.999999995              -0.000041585              -0.000679690               0.999999995              -0.000045097              -0.000708277               0.999999995              -0.000047503              -0.000737095               0.999999995              -0.000048319              -0.000766116               0.999999995              -0.000010167              -0.000472130               0.999999995               0.000001251              -0.000470130               0.999999995               0.000005496              -0.000471157               0.999999995               0.000006069              -0.000477025               0.999999995               0.000004562              -0.000487540               0.999999995               0.000001956              -0.000502030               0.999999995              -0.000000969              -0.000519664               0.999999995              -0.000004247              -0.000539771               0.999999995              -0.000007938              -0.000561879               0.999999995              -0.000011915              -0.000585625               0.999999995              -0.000015765              -0.000610663               0.999999995              -0.000019303              -0.000636818               0.999999995              -0.000022405              -0.000663869               0.999999995              -0.000025012              -0.000691616               0.999999995              -0.000026967              -0.000719842               0.999999995              -0.000027801              -0.000748335               0.999999995              -0.000026822              -0.000776907               0.999999995              -0.000005121              -0.000479011               0.999999995               0.000000798              -0.000480066               0.999999995               0.000003119              -0.000482609               0.999999995               0.000003579              -0.000488952               0.999999995               0.000002855              -0.000499523               0.999999995               0.000001574              -0.000513883               0.999999995               0.000000159              -0.000531209               0.999999995              -0.000001404              -0.000550894               0.999999995              -0.000003193              -0.000572558               0.999999995              -0.000005170              -0.000595914               0.999999995              -0.000007105              -0.000620631               0.999999995              -0.000008778              -0.000646477               0.999999995              -0.000010254              -0.000673220               0.999999995              -0.000011448              -0.000700687               0.999999995              -0.000012229              -0.000728730               0.999999995              -0.000012402              -0.000757170               0.999999995              -0.000011444              -0.000785731               0.999999995              -0.000000000              -0.000481351               0.999999995              -0.000000000              -0.000483431               0.999999995               0.000000000              -0.000486536               0.999999995              -0.000000000              -0.000493134               0.999999995              -0.000000000              -0.000503698               0.999999995              -0.000000000              -0.000517959               0.999999995              -0.000000000              -0.000535252               0.999999995              -0.000000000              -0.000554866               0.999999995              -0.000000000              -0.000576372               0.999999995               0.000000000              -0.000599620               0.999999995               0.000000000              -0.000624288               0.999999995              -0.000000000              -0.000650030               0.999999995              -0.000000000              -0.000676656               0.999999995               0.000000000              -0.000703968               0.999999995               0.000000000              -0.000731849               0.999999995               0.000000000              -0.000760179               0.999999995               0.000000000              -0.000788688               0.999999995               0.000056576              -0.000000000               0.999999995               0.000075701               0.000000000               0.999999995               0.000084760               0.000000000               0.999999995               0.000090068              -0.000000000               0.999999995               0.000094157               0.000000000               0.999999995               0.000098061              -0.000000000               0.999999995               0.000102339              -0.000000000               0.999999995               0.000107272               0.000000000               0.999999995               0.000112911              -0.000000000               0.999999995               0.000119340               0.000000000               0.999999995               0.000126624               0.000000000               0.999999995               0.000134785               0.000000000               0.999999995               0.000143744               0.000000000               0.999999995               0.000153440               0.000000000               0.999999995               0.000163802               0.000000000               0.999999995               0.000174726               0.000000000               0.999999995               0.000186056               0.000000000               0.999999995               0.000056136              -0.000047944               0.999999995               0.000074396              -0.000042017               0.999999995               0.000082986              -0.000040398               0.999999995               0.000088004              -0.000041108               0.999999995               0.000091937              -0.000043154               0.999999995               0.000095825              -0.000046013               0.999999995               0.000100135              -0.000049392               0.999999995               0.000105130              -0.000053250               0.999999995               0.000110912              -0.000057460               0.999999995               0.000117509              -0.000061938               0.999999995               0.000124915              -0.000066616               0.999999995               0.000133145              -0.000071443               0.999999995               0.000142120              -0.000076304               0.999999995               0.000151782              -0.000081151               0.999999995               0.000162092              -0.000085835               0.999999995               0.000172924              -0.000090172               0.999999995               0.000184194              -0.000093984               0.999999995               0.000054975              -0.000095379               0.999999995               0.000070650              -0.000083632               0.999999995               0.000077772              -0.000080616               0.999999995               0.000082059              -0.000082239               0.999999995               0.000085782              -0.000086611               0.999999995               0.000089754              -0.000092444               0.999999995               0.000094320              -0.000099347               0.999999995               0.000099655              -0.000107155               0.999999995               0.000105785              -0.000115610               0.999999995               0.000112749              -0.000124610               0.999999995               0.000120478              -0.000133970               0.999999995               0.000128944              -0.000143561               0.999999995               0.000138060              -0.000153300               0.999999995               0.000147752              -0.000163020               0.999999995               0.000158010              -0.000172600               0.999999995               0.000168819              -0.000181787               0.999999995               0.000180216              -0.000190386               0.999999995               0.000053098              -0.000141811               0.999999995               0.000064621              -0.000124419               0.999999995               0.000069722              -0.000120483               0.999999995               0.000073329              -0.000123447               0.999999995               0.000077018              -0.000130363               0.999999995               0.000081233              -0.000139424               0.999999995               0.000086263              -0.000150024               0.999999995               0.000092145              -0.000161883               0.999999995               0.000098843              -0.000174681               0.999999995               0.000106348              -0.000188245               0.999999995               0.000114540              -0.000202336               0.999999995               0.000123387              -0.000216705               0.999999995               0.000132846              -0.000231377               0.999999995               0.000142882              -0.000246165               0.999999995               0.000153530              -0.000261095               0.999999995               0.000164857              -0.000276019               0.999999995               0.000176915              -0.000290774               0.999999995               0.000050475              -0.000186699               0.999999995               0.000056704              -0.000164083               0.999999995               0.000059722              -0.000159857               0.999999995               0.000062801              -0.000164649               0.999999995               0.000066670              -0.000174351               0.999999995               0.000071496              -0.000186864               0.999999995               0.000077294              -0.000201280               0.999999995               0.000084055              -0.000217241               0.999999995               0.000091701              -0.000234405               0.999999995               0.000100066              -0.000252527               0.999999995               0.000109097              -0.000271248               0.999999995               0.000118850              -0.000290477               0.999999995               0.000129300              -0.000310157               0.999999995               0.000140435              -0.000330282               0.999999995               0.000152266              -0.000350814               0.999999995               0.000164777              -0.000371814               0.999999995               0.000177941              -0.000393198               0.999999995               0.000047330              -0.000229460               0.999999995               0.000047540              -0.000202386               0.999999995               0.000048673              -0.000198480               0.999999995               0.000051613              -0.000205438               0.999999995               0.000056123              -0.000218139               0.999999995               0.000061963              -0.000234274               0.999999995               0.000069032              -0.000252625               0.999999995               0.000077155              -0.000272688               0.999999995               0.000086064              -0.000294066               0.999999995               0.000095717              -0.000316570               0.999999995               0.000106135              -0.000339961               0.999999995               0.000117360              -0.000364056               0.999999995               0.000129334              -0.000388741               0.999999995               0.000142017              -0.000414038               0.999999995               0.000155310              -0.000440011               0.999999995               0.000169091              -0.000466608               0.999999995               0.000183154              -0.000493587               0.999999995               0.000043741              -0.000269670               0.999999995               0.000037655              -0.000239201               0.999999995               0.000037489              -0.000236094               0.999999995               0.000040923              -0.000245430               0.999999995               0.000046609              -0.000261266               0.999999995               0.000053936              -0.000281041               0.999999995               0.000062593              -0.000303407               0.999999995               0.000072224              -0.000327500               0.999999995               0.000082667              -0.000353014               0.999999995               0.000093921              -0.000379870               0.999999995               0.000105948              -0.000407846               0.999999995               0.000118782              -0.000436641               0.999999995               0.000132296              -0.000466127               0.999999995               0.000146372              -0.000496310               0.999999995               0.000160863              -0.000527153               0.999999995               0.000175501              -0.000558535               0.999999995               0.000190076              -0.000589908               0.999999995               0.000039802              -0.000306969               0.999999995               0.000027791              -0.000274313               0.999999995               0.000027050              -0.000272421               0.999999995               0.000031581              -0.000284278               0.999999995               0.000038841              -0.000303279               0.999999995               0.000047855              -0.000326602               0.999999995               0.000058124              -0.000352938               0.999999995               0.000069391              -0.000381043               0.999999995               0.000081430              -0.000410631               0.999999995               0.000094306              -0.000441731               0.999999995               0.000107960              -0.000474067               0.999999995               0.000122293              -0.000507311               0.999999995               0.000137142              -0.000541239               0.999999995               0.000152392              -0.000575827               0.999999995               0.000167844              -0.000610996               0.999999995               0.000183182              -0.000646302               0.999999995               0.000198155              -0.000681442               0.999999995               0.000035876              -0.000340725               0.999999995               0.000018255              -0.000307741               0.999999995               0.000017941              -0.000307185               0.999999995               0.000024031              -0.000321455               0.999999995               0.000033030              -0.000343598               0.999999995               0.000043707              -0.000370519               0.999999995               0.000055598              -0.000400600               0.999999995               0.000068340              -0.000432698               0.999999995               0.000081941              -0.000466402               0.999999995               0.000096355              -0.000501724               0.999999995               0.000111392              -0.000538189               0.999999995               0.000126982              -0.000575552               0.999999995               0.000142949              -0.000613581               0.999999995               0.000159179              -0.000652093               0.999999995               0.000175408              -0.000690861               0.999999995               0.000191468              -0.000729503               0.999999995               0.000207191              -0.000767824               0.999999995               0.000032430              -0.000372090               0.999999995               0.000011286              -0.000342502               0.999999995               0.000009262              -0.000338949               0.999999995               0.000014274              -0.000349580               0.999999995               0.000022412              -0.000368309               0.999999995               0.000031995              -0.000392048               0.999999995               0.000042607              -0.000419198               0.999999995               0.000053954              -0.000448638               0.999999995               0.000066000              -0.000479667               0.999999995               0.000078723              -0.000511984               0.999999995               0.000091940              -0.000545538               0.999999995               0.000105467              -0.000579983               0.999999995               0.000119316              -0.000615099               0.999999995               0.000133371              -0.000650732               0.999999995               0.000147602              -0.000686765               0.999999995               0.000161962              -0.000723032               0.999999995               0.000176291              -0.000759220               0.999999995               0.000028465              -0.000400244               0.999999995               0.000005954              -0.000375414               0.999999995               0.000002210              -0.000370785               0.999999995               0.000005843              -0.000378472               0.999999995               0.000012713              -0.000394196               0.999999995               0.000021001              -0.000415051               0.999999995               0.000030197              -0.000439410               0.999999995               0.000040216              -0.000466198               0.999999995               0.000050850              -0.000494712               0.999999995               0.000061806              -0.000524626               0.999999995               0.000073081              -0.000555578               0.999999995               0.000084652              -0.000587442               0.999999995               0.000096312              -0.000619862               0.999999995               0.000107878              -0.000652856               0.999999995               0.000119388              -0.000686269               0.999999995               0.000130931              -0.000720144               0.999999995               0.000142464              -0.000754205               0.999999995               0.000024234              -0.000424597               0.999999995               0.000002189              -0.000405683               0.999999995              -0.000002817              -0.000401312               0.999999995              -0.000000685              -0.000407239               0.999999995               0.000004636              -0.000420503               0.999999995               0.000011539              -0.000438885               0.999999995               0.000019364              -0.000460756               0.999999995               0.000027838              -0.000485157               0.999999995               0.000036833              -0.000511507               0.999999995               0.000046136              -0.000539285               0.999999995               0.000055661              -0.000568105               0.999999995               0.000065198              -0.000597695               0.999999995               0.000074506              -0.000627978               0.999999995               0.000083450              -0.000658828               0.999999995               0.000091976              -0.000690062               0.999999995               0.000100114              -0.000721704               0.999999995               0.000107955              -0.000753684               0.999999995               0.000019790              -0.000444792               0.999999995              -0.000000081              -0.000432218               0.999999995              -0.000005711              -0.000429189               0.999999995              -0.000004959              -0.000434453               0.999999995              -0.000001159              -0.000446103               0.999999995               0.000004338              -0.000462441               0.999999995               0.000010619              -0.000482316               0.999999995               0.000017375              -0.000504725               0.999999995               0.000024665              -0.000529232               0.999999995               0.000032366              -0.000555212               0.999999995               0.000040052              -0.000582259               0.999999995               0.000047565              -0.000610205               0.999999995               0.000054675              -0.000638922               0.999999995               0.000061116              -0.000668134               0.999999995               0.000066824              -0.000697716               0.999999995               0.000071744              -0.000727605               0.999999995               0.000075763              -0.000757848               0.999999995               0.000015080              -0.000460706               0.999999995              -0.000001115              -0.000453983               0.999999995              -0.000006515              -0.000452959               0.999999995              -0.000006702              -0.000458303               0.999999995              -0.000004152              -0.000469076               0.999999995              -0.000000150              -0.000484178               0.999999995               0.000004382              -0.000502603               0.999999995               0.000009420              -0.000523613               0.999999995               0.000015006              -0.000546631               0.999999995               0.000020944              -0.000571188               0.999999995               0.000026728              -0.000596972               0.999999995               0.000032209              -0.000623802               0.999999995               0.000037244              -0.000651464               0.999999995               0.000041585              -0.000679690               0.999999995               0.000045097              -0.000708277               0.999999995               0.000047503              -0.000737095               0.999999995               0.000048319              -0.000766116               0.999999995               0.000010167              -0.000472130               0.999999995              -0.000001251              -0.000470130               0.999999995              -0.000005496              -0.000471157               0.999999995              -0.000006069              -0.000477025               0.999999995              -0.000004562              -0.000487540               0.999999995              -0.000001956              -0.000502030               0.999999995               0.000000969              -0.000519664               0.999999995               0.000004247              -0.000539771               0.999999995               0.000007938              -0.000561879               0.999999995               0.000011915              -0.000585625               0.999999995               0.000015765              -0.000610663               0.999999995               0.000019303              -0.000636818               0.999999995               0.000022405              -0.000663869               0.999999995               0.000025012              -0.000691616               0.999999995               0.000026967              -0.000719842               0.999999995               0.000027801              -0.000748335               0.999999995               0.000026822              -0.000776907               0.999999995               0.000005121              -0.000479011               0.999999995              -0.000000798              -0.000480066               0.999999995              -0.000003119              -0.000482609               0.999999995              -0.000003579              -0.000488952               0.999999995              -0.000002855              -0.000499523               0.999999995              -0.000001574              -0.000513883               0.999999995              -0.000000159              -0.000531209               0.999999995               0.000001404              -0.000550894               0.999999995               0.000003193              -0.000572558               0.999999995               0.000005170              -0.000595914               0.999999995               0.000007105              -0.000620631               0.999999995               0.000008778              -0.000646477               0.999999995               0.000010254              -0.000673220               0.999999995               0.000011448              -0.000700687               0.999999995               0.000012229              -0.000728730               0.999999995               0.000012402              -0.000757170               0.999999995               0.000011444              -0.000785731               0.999999995              -0.000000000              -0.000481351               0.999999995              -0.000000000              -0.000483431               0.999999995               0.000000000              -0.000486536               0.999999995              -0.000000000              -0.000493134               0.999999995              -0.000000000              -0.000503698               0.999999995              -0.000000000              -0.000517959               0.999999995              -0.000000000              -0.000535252               0.999999995              -0.000000000              -0.000554866               0.999999995              -0.000000000              -0.000576372               0.999999995               0.000000000              -0.000599620               0.999999995               0.000000000              -0.000624288               0.999999995              -0.000000000              -0.000650030               0.999999995              -0.000000000              -0.000676656               0.999999995               0.000000000              -0.000703968               0.999999995               0.000000000              -0.000731849               0.999999995               0.000000000              -0.000760179               0.999999995               0.000000000              -0.000788688               0.999999995               0.000056576              -0.000000000               0.999999995               0.000075701               0.000000000               0.999999995               0.000084760               0.000000000               0.999999995               0.000090068              -0.000000000               0.999999995               0.000094157               0.000000000               0.999999995               0.000098061              -0.000000000               0.999999995               0.000102339              -0.000000000               0.999999995               0.000107272               0.000000000               0.999999995               0.000112911              -0.000000000               0.999999995               0.000119340               0.000000000               0.999999995               0.000126624               0.000000000               0.999999995               0.000134785               0.000000000               0.999999995               0.000143744               0.000000000               0.999999995               0.000153440               0.000000000               0.999999995               0.000163802               0.000000000               0.999999995               0.000174726               0.000000000               0.999999995               0.000186056               0.000000000               0.999999995               0.000056136               0.000047944               0.999999995               0.000074396               0.000042017               0.999999995               0.000082986               0.000040398               0.999999995               0.000088004               0.000041108               0.999999995               0.000091937               0.000043154               0.999999995               0.000095825               0.000046013               0.999999995               0.000100135               0.000049392               0.999999995               0.000105130               0.000053250               0.999999995               0.000110912               0.000057460               0.999999995               0.000117509               0.000061938               0.999999995               0.000124915               0.000066616               0.999999995               0.000133145               0.000071443               0.999999995               0.000142120               0.000076304               0.999999995               0.000151782               0.000081151               0.999999995               0.000162092               0.000085835               0.999999995               0.000172924               0.000090172               0.999999995               0.000184194               0.000093984               0.999999995               0.000054975               0.000095379               0.999999995               0.000070650               0.000083632               0.999999995               0.000077772               0.000080616               0.999999995               0.000082059               0.000082239               0.999999995               0.000085782               0.000086611               0.999999995               0.000089754               0.000092444               0.999999995               0.000094320               0.000099347               0.999999995               0.000099655               0.000107155               0.999999995               0.000105785               0.000115610               0.999999995               0.000112749               0.000124610               0.999999995               0.000120478               0.000133970               0.999999995               0.000128944               0.000143561               0.999999995               0.000138060               0.000153300               0.999999995               0.000147752               0.000163020               0.999999995               0.000158010               0.000172600               0.999999995               0.000168819               0.000181787               0.999999995               0.000180216               0.000190386               0.999999995               0.000053098               0.000141811               0.999999995               0.000064621               0.000124419               0.999999995               0.000069722               0.000120483               0.999999995               0.000073329               0.000123447               0.999999995               0.000077018               0.000130363               0.999999995               0.000081233               0.000139424               0.999999995               0.000086263               0.000150024               0.999999995               0.000092145               0.000161883               0.999999995               0.000098843               0.000174681               0.999999995               0.000106348               0.000188245               0.999999995               0.000114540               0.000202336               0.999999995               0.000123387               0.000216705               0.999999995               0.000132846               0.000231377               0.999999995               0.000142882               0.000246165               0.999999995               0.000153530               0.000261095               0.999999995               0.000164857               0.000276019               0.999999995               0.000176915               0.000290774               0.999999995               0.000050475               0.000186699               0.999999995               0.000056704               0.000164083               0.999999995               0.000059722               0.000159857               0.999999995               0.000062801               0.000164649               0.999999995               0.000066670               0.000174351               0.999999995               0.000071496               0.000186864               0.999999995               0.000077294               0.000201280               0.999999995               0.000084055               0.000217241               0.999999995               0.000091701               0.000234405               0.999999995               0.000100066               0.000252527               0.999999995               0.000109097               0.000271248               0.999999995               0.000118850               0.000290477               0.999999995               0.000129300               0.000310157               0.999999995               0.000140435               0.000330282               0.999999995               0.000152266               0.000350814               0.999999995               0.000164777               0.000371814               0.999999995               0.000177941               0.000393198               0.999999995               0.000047330               0.000229460               0.999999995               0.000047540               0.000202386               0.999999995               0.000048673               0.000198480               0.999999995               0.000051613               0.000205438               0.999999995               0.000056123               0.000218139               0.999999995               0.000061963               0.000234274               0.999999995               0.000069032               0.000252625               0.999999995               0.000077155               0.000272688               0.999999995               0.000086064               0.000294066               0.999999995               0.000095717               0.000316570               0.999999995               0.000106135               0.000339961               0.999999995               0.000117360               0.000364056               0.999999995               0.000129334               0.000388741               0.999999995               0.000142017               0.000414038               0.999999995               0.000155310               0.000440011               0.999999995               0.000169091               0.000466608               0.999999995               0.000183154               0.000493587               0.999999995               0.000043741               0.000269670               0.999999995               0.000037655               0.000239201               0.999999995               0.000037489               0.000236094               0.999999995               0.000040923               0.000245430               0.999999995               0.000046609               0.000261266               0.999999995               0.000053936               0.000281041               0.999999995               0.000062593               0.000303407               0.999999995               0.000072224               0.000327500               0.999999995               0.000082667               0.000353014               0.999999995               0.000093921               0.000379870               0.999999995               0.000105948               0.000407846               0.999999995               0.000118782               0.000436641               0.999999995               0.000132296               0.000466127               0.999999995               0.000146372               0.000496310               0.999999995               0.000160863               0.000527153               0.999999995               0.000175501               0.000558535               0.999999995               0.000190076               0.000589908               0.999999995               0.000039802               0.000306969               0.999999995               0.000027791               0.000274313               0.999999995               0.000027050               0.000272421               0.999999995               0.000031581               0.000284278               0.999999995               0.000038841               0.000303279               0.999999995               0.000047855               0.000326602               0.999999995               0.000058124               0.000352938               0.999999995               0.000069391               0.000381043               0.999999995               0.000081430               0.000410631               0.999999995               0.000094306               0.000441731               0.999999995               0.000107960               0.000474067               0.999999995               0.000122293               0.000507311               0.999999995               0.000137142               0.000541239               0.999999995               0.000152392               0.000575827               0.999999995               0.000167844               0.000610996               0.999999995               0.000183182               0.000646302               0.999999995               0.000198155               0.000681442               0.999999995               0.000035876               0.000340725               0.999999995               0.000018255               0.000307741               0.999999995               0.000017941               0.000307185               0.999999995               0.000024031               0.000321455               0.999999995               0.000033030               0.000343598               0.999999995               0.000043707               0.000370519               0.999999995               0.000055598               0.000400600               0.999999995               0.000068340               0.000432698               0.999999995               0.000081941               0.000466402               0.999999995               0.000096355               0.000501724               0.999999995               0.000111392               0.000538189               0.999999995               0.000126982               0.000575552               0.999999995               0.000142949               0.000613581               0.999999995               0.000159179               0.000652093               0.999999995               0.000175408               0.000690861               0.999999995               0.000191468               0.000729503               0.999999995               0.000207191               0.000767824               0.999999995               0.000032430               0.000372090               0.999999995               0.000011286               0.000342502               0.999999995               0.000009262               0.000338949               0.999999995               0.000014274               0.000349580               0.999999995               0.000022412               0.000368309               0.999999995               0.000031995               0.000392048               0.999999995               0.000042607               0.000419198               0.999999995               0.000053954               0.000448638               0.999999995               0.000066000               0.000479667               0.999999995               0.000078723               0.000511984               0.999999995               0.000091940               0.000545538               0.999999995               0.000105467               0.000579983               0.999999995               0.000119316               0.000615099               0.999999995               0.000133371               0.000650732               0.999999995               0.000147602               0.000686765               0.999999995               0.000161962               0.000723032               0.999999995               0.000176291               0.000759220               0.999999995               0.000028465               0.000400244               0.999999995               0.000005954               0.000375414               0.999999995               0.000002210               0.000370785               0.999999995               0.000005843               0.000378472               0.999999995               0.000012713               0.000394196               0.999999995               0.000021001               0.000415051               0.999999995               0.000030197               0.000439410               0.999999995               0.000040216               0.000466198               0.999999995               0.000050850               0.000494712               0.999999995               0.000061806               0.000524626               0.999999995               0.000073081               0.000555578               0.999999995               0.000084652               0.000587442               0.999999995               0.000096312               0.000619862               0.999999995               0.000107878               0.000652856               0.999999995               0.000119388               0.000686269               0.999999995               0.000130931               0.000720144               0.999999995               0.000142464               0.000754205               0.999999995               0.000024234               0.000424597               0.999999995               0.000002189               0.000405683               0.999999995              -0.000002817               0.000401312               0.999999995              -0.000000685               0.000407239               0.999999995               0.000004636               0.000420503               0.999999995               0.000011539               0.000438885               0.999999995               0.000019364               0.000460756               0.999999995               0.000027838               0.000485157               0.999999995               0.000036833               0.000511507               0.999999995               0.000046136               0.000539285               0.999999995               0.000055661               0.000568105               0.999999995               0.000065198               0.000597695               0.999999995               0.000074506               0.000627978               0.999999995               0.000083450               0.000658828               0.999999995               0.000091976               0.000690062               0.999999995               0.000100114               0.000721704               0.999999995               0.000107955               0.000753684               0.999999995               0.000019790               0.000444792               0.999999995              -0.000000081               0.000432218               0.999999995              -0.000005711               0.000429189               0.999999995              -0.000004959               0.000434453               0.999999995              -0.000001159               0.000446103               0.999999995               0.000004338               0.000462441               0.999999995               0.000010619               0.000482316               0.999999995               0.000017375               0.000504725               0.999999995               0.000024665               0.000529232               0.999999995               0.000032366               0.000555212               0.999999995               0.000040052               0.000582259               0.999999995               0.000047565               0.000610205               0.999999995               0.000054675               0.000638922               0.999999995               0.000061116               0.000668134               0.999999995               0.000066824               0.000697716               0.999999995               0.000071744               0.000727605               0.999999995               0.000075763               0.000757848               0.999999995               0.000015080               0.000460706               0.999999995              -0.000001115               0.000453983               0.999999995              -0.000006515               0.000452959               0.999999995              -0.000006702               0.000458303               0.999999995              -0.000004152               0.000469076               0.999999995              -0.000000150               0.000484178               0.999999995               0.000004382               0.000502603               0.999999995               0.000009420               0.000523613               0.999999995               0.000015006               0.000546631               0.999999995               0.000020944               0.000571188               0.999999995               0.000026728               0.000596972               0.999999995               0.000032209               0.000623802               0.999999995               0.000037244               0.000651464               0.999999995               0.000041585               0.000679690               0.999999995               0.000045097               0.000708277               0.999999995               0.000047503               0.000737095               0.999999995               0.000048319               0.000766116               0.999999995               0.000010167               0.000472130               0.999999995              -0.000001251               0.000470130               0.999999995              -0.000005496               0.000471157               0.999999995              -0.000006069               0.000477025               0.999999995              -0.000004562               0.000487540               0.999999995              -0.000001956               0.000502030               0.999999995               0.000000969               0.000519664               0.999999995               0.000004247               0.000539771               0.999999995               0.000007938               0.000561879               0.999999995               0.000011915               0.000585625               0.999999995               0.000015765               0.000610663               0.999999995               0.000019303               0.000636818               0.999999995               0.000022405               0.000663869               0.999999995               0.000025012               0.000691616               0.999999995               0.000026967               0.000719842               0.999999995               0.000027801               0.000748335               0.999999995               0.000026822               0.000776907               0.999999995               0.000005121               0.000479011               0.999999995              -0.000000798               0.000480066               0.999999995              -0.000003119               0.000482609               0.999999995              -0.000003579               0.000488952               0.999999995              -0.000002855               0.000499523               0.999999995              -0.000001574               0.000513883               0.999999995              -0.000000159               0.000531209               0.999999995               0.000001404               0.000550894               0.999999995               0.000003193               0.000572558               0.999999995               0.000005170               0.000595914               0.999999995               0.000007105               0.000620631               0.999999995               0.000008778               0.000646477               0.999999995               0.000010254               0.000673220               0.999999995               0.000011448               0.000700687               0.999999995               0.000012229               0.000728730               0.999999995               0.000012402               0.000757170               0.999999995               0.000011444               0.000785731               0.999999995              -0.000000000               0.000481351               0.999999995               0.000000000               0.000483431               0.999999995              -0.000000000               0.000486536               0.999999995              -0.000000000               0.000493134               0.999999995              -0.000000000               0.000503698               0.999999995              -0.000000000               0.000517959               0.999999995               0.000000000               0.000535252               0.999999995               0.000000000               0.000554866               0.999999995               0.000000000               0.000576372               0.999999995               0.000000000               0.000599620               0.999999995               0.000000000               0.000624288               0.999999995               0.000000000               0.000650030               0.999999995               0.000000000               0.000676656               0.999999995               0.000000000               0.000703968               0.999999995              -0.000000000               0.000731849               0.999999995              -0.000000000               0.000760179               0.999999995              -0.000000000               0.000788688               0.999999995 </DataArray>
<DataArray type="Float64"                                    Name="defo"                                                      NumberOfComponents=" 3" format="ascii">
             -0.000056576               0.000000000               0.999999995              -0.000075701               0.000000000               0.999999995              -0.000084760               0.000000000               0.999999995              -0.000090068               0.000000000               0.999999995              -0.000094157               0.000000000               0.999999995              -0.000098061              -0.000000000               0.999999995              -0.000102339               0.000000000               0.999999995              -0.000107272               0.000000000               0.999999995              -0.000112911              -0.000000000               0.999999995              -0.000119340               0.000000000               0.999999995              -0.000126624              -0.000000000               0.999999995              -0.000134785               0.000000000               0.999999995              -0.000143744               0.000000000               0.999999995              -0.000153440               0.000000000               0.999999995              -0.000163802               0.000000000               0.999999995              -0.000174726               0.000000000               0.999999995              -0.000186056               0.000000000               0.999999995              -0.000056136               0.000047944               0.999999995              -0.000074396               0.000042017               0.999999995              -0.000082986               0.000040398               0.999999995              -0.000088004               0.000041108               0.999999995              -0.000091937               0.000043154               0.999999995              -0.000095825               0.000046013               0.999999995              -0.000100135               0.000049392               0.999999995              -0.000105130               0.000053250               0.999999995              -0.000110912               0.000057460               0.999999995              -0.000117509               0.000061938               0.999999995              -0.000124915               0.000066616               0.999999995              -0.000133145               0.000071443               0.999999995              -0.000142120               0.000076304               0.999999995              -0.000151782               0.000081151               0.999999995              -0.000162092               0.000085835               0.999999995              -0.000172924               0.000090172               0.999999995              -0.000184194               0.000093984               0.999999995              -0.000054975               0.000095379               0.999999995              -0.000070650               0.000083632               0.999999995              -0.000077772               0.000080616               0.999999995              -0.000082059               0.000082239               0.999999995              -0.000085782               0.000086611               0.999999995              -0.000089754               0.000092444               0.999999995              -0.000094320               0.000099347               0.999999995              -0.000099655               0.000107155               0.999999995              -0.000105785               0.000115610               0.999999995              -0.000112749               0.000124610               0.999999995              -0.000120478               0.000133970               0.999999995              -0.000128944               0.000143561               0.999999995              -0.000138060               0.000153300               0.999999995              -0.000147752               0.000163020               0.999999995              -0.000158010               0.000172600               0.999999995              -0.000168819               0.000181787               0.999999995              -0.000180216               0.000190386               0.999999995              -0.000053098               0.000141811               0.999999995              -0.000064621               0.000124419               0.999999995              -0.000069722               0.000120483               0.999999995              -0.000073329               0.000123447               0.999999995              -0.000077018               0.000130363               0.999999995              -0.000081233               0.000139424               0.999999995              -0.000086263               0.000150024               0.999999995              -0.000092145               0.000161883               0.999999995              -0.000098843               0.000174681               0.999999995              -0.000106348               0.000188245               0.999999995              -0.000114540               0.000202336               0.999999995              -0.000123387               0.000216705               0.999999995              -0.000132846               0.000231377               0.999999995              -0.000142882               0.000246165               0.999999995              -0.000153530               0.000261095               0.999999995              -0.000164857               0.000276019               0.999999995              -0.000176915               0.000290774               0.999999995              -0.000050475               0.000186699               0.999999995              -0.000056704               0.000164083               0.999999995              -0.000059722               0.000159857               0.999999995              -0.000062801               0.000164649               0.999999995              -0.000066670               0.000174351               0.999999995              -0.000071496               0.000186864               0.999999995              -0.000077294               0.000201280               0.999999995              -0.000084055               0.000217241               0.999999995              -0.000091701               0.000234405               0.999999995              -0.000100066               0.000252527               0.999999995              -0.000109097               0.000271248               0.999999995              -0.000118850               0.000290477               0.999999995              -0.000129300               0.000310157               0.999999995              -0.000140435               0.000330282               0.999999995              -0.000152266               0.000350814               0.999999995              -0.000164777               0.000371814               0.999999995              -0.000177941               0.000393198               0.999999995              -0.000047330               0.000229460               0.999999995              -0.000047540               0.000202386               0.999999995              -0.000048673               0.000198480               0.999999995              -0.000051613               0.000205438               0.999999995              -0.000056123               0.000218139               0.999999995              -0.000061963               0.000234274               0.999999995              -0.000069032               0.000252625               0.999999995              -0.000077155               0.000272688               0.999999995              -0.000086064               0.000294066               0.999999995              -0.000095717               0.000316570               0.999999995              -0.000106135               0.000339961               0.999999995              -0.000117360               0.000364056               0.999999995              -0.000129334               0.000388741               0.999999995              -0.000142017               0.000414038               0.999999995              -0.000155310               0.000440011               0.999999995              -0.000169091               0.000466608               0.999999995              -0.000183154               0.000493587               0.999999995              -0.000043741               0.000269670               0.999999995              -0.000037655               0.000239201               0.999999995              -0.000037489               0.000236094               0.999999995              -0.000040923               0.000245430               0.999999995              -0.000046609               0.000261266               0.999999995              -0.000053936               0.000281041               0.999999995              -0.000062593               0.000303407               0.999999995              -0.000072224               0.000327500               0.999999995              -0.000082667               0.000353014               0.999999995              -0.000093921               0.000379870               0.999999995              -0.000105948               0.000407846               0.999999995              -0.000118782               0.000436641               0.999999995              -0.000132296               0.000466127               0.999999995              -0.000146372               0.000496310               0.999999995              -0.000160863               0.000527153               0.999999995              -0.000175501               0.000558535               0.999999995              -0.000190076               0.000589908               0.999999995              -0.000039802               0.000306969               0.999999995              -0.000027791               0.000274313               0.999999995              -0.000027050               0.000272421               0.999999995              -0.000031581               0.000284278               0.999999995              -0.000038841               0.000303279               0.999999995              -0.000047855               0.000326602               0.999999995              -0.000058124               0.000352938               0.999999995              -0.000069391               0.000381043               0.999999995              -0.000081430               0.000410631               0.999999995              -0.000094306               0.000441731               0.999999995              -0.000107960               0.000474067               0.999999995              -0.000122293               0.000507311               0.999999995              -0.000137142               0.000541239               0.999999995              -0.000152392               0.000575827               0.999999995              -0.000167844               0.000610996               0.999999995              -0.000183182               0.000646302               0.999999995              -0.000198155               0.000681442               0.999999995              -0.000035876               0.000340725               0.999999995              -0.000018255               0.000307741               0.999999995              -0.000017941               0.000307185               0.999999995              -0.000024031               0.000321455               0.999999995              -0.000033030               0.000343598               0.999999995              -0.000043707               0.000370519               0.999999995              -0.000055598               0.000400600               0.999999995              -0.000068340               0.000432698               0.999999995              -0.000081941               0.000466402               0.999999995              -0.000096355               0.000501724               0.999999995              -0.000111392               0.000538189               0.999999995              -0.000126982               0.000575552               0.999999995              -0.000142949               0.000613581               0.999999995              -0.000159179               0.000652093               0.999999995              -0.000175408               0.000690861               0.999999995              -0.000191468               0.000729503               0.999999995              -0.000207191               0.000767824               0.999999995              -0.000032430               0.000372090               0.999999995              -0.000011286               0.000342502               0.999999995              -0.000009262               0.000338949               0.999999995              -0.000014274               0.000349580               0.999999995              -0.000022412               0.000368309               0.999999995              -0.000031995               0.000392048               0.999999995              -0.000042607               0.000419198               0.999999995              -0.000053954               0.000448638               0.999999995              -0.000066000               0.000479667               0.999999995              -0.000078723               0.000511984               0.999999995              -0.000091940               0.000545538               0.999999995              -0.000105467               0.000579983               0.999999995              -0.000119316               0.000615099               0.999999995              -0.000133371               0.000650732               0.999999995              -0.000147602               0.000686765               0.999999995              -0.000161962               0.000723032               0.999999995              -0.000176291               0.000759220               0.999999995              -0.000028465               0.000400244               0.999999995              -0.000005954               0.000375414               0.999999995              -0.000002210               0.000370785               0.999999995              -0.000005843               0.000378472               0.999999995              -0.000012713               0.000394196               0.999999995              -0.000021001               0.000415051               0.999999995              -0.000030197               0.000439410               0.999999995              -0.000040216               0.000466198               0.999999995              -0.000050850               0.000494712               0.999999995              -0.000061806               0.000524626               0.999999995              -0.000073081               0.000555578               0.999999995              -0.000084652               0.000587442               0.999999995              -0.000096312               0.000619862               0.999999995              -0.000107878               0.000652856               0.999999995              -0.000119388               0.000686269               0.999999995              -0.000130931               0.000720144               0.999999995              -0.000142464               0.000754205               0.999999995              -0.000024234               0.000424597               0.999999995              -0.000002189               0.000405683               0.999999995               0.000002817               0.000401312               0.999999995               0.000000685               0.000407239               0.999999995              -0.000004636               0.000420503               0.999999995              -0.000011539               0.000438885               0.999999995              -0.000019364               0.000460756               0.999999995              -0.000027838               0.000485157               0.999999995              -0.000036833               0.000511507               0.999999995              -0.000046136               0.000539285               0.999999995              -0.000055661               0.000568105               0.999999995              -0.000065198               0.000597695               0.999999995              -0.000074506               0.000627978               0.999999995              -0.000083450               0.000658828               0.999999995              -0.000091976               0.000690062               0.999999995              -0.000100114               0.000721704               0.999999995              -0.000107955               0.000753684               0.999999995              -0.000019790               0.000444792               0.999999995               0.000000081               0.000432218               0.999999995               0.000005711               0.000429189               0.999999995               0.000004959               0.000434453               0.999999995               0.000001159               0.000446103               0.999999995              -0.000004338               0.000462441               0.999999995              -0.000010619               0.000482316               0.999999995              -0.000017375               0.000504725               0.999999995              -0.000024665               0.000529232               0.999999995              -0.000032366               0.000555212               0.999999995              -0.000040052               0.000582259               0.999999995              -0.000047565               0.000610205               0.999999995              -0.000054675               0.000638922               0.999999995              -0.000061116               0.000668134               0.999999995              -0.000066824               0.000697716               0.999999995              -0.000071744               0.000727605               0.999999995              -0.000075763               0.000757848               0.999999995              -0.000015080               0.000460706               0.999999995               0.000001115               0.000453983               0.999999995               0.000006515               0.000452959               0.999999995               0.000006702               0.000458303               0.999999995               0.000004152               0.000469076               0.999999995               0.000000150               0.000484178               0.999999995              -0.000004382               0.000502603               0.999999995              -0.000009420               0.000523613               0.999999995              -0.000015006               0.000546631               0.999999995              -0.000020944               0.000571188               0.999999995              -0.000026728               0.000596972               0.999999995              -0.000032209               0.000623802               0.999999995              -0.000037244               0.000651464               0.999999995              -0.000041585               0.000679690               0.999999995              -0.000045097               0.000708277               0.999999995              -0.000047503               0.000737095               0.999999995              -0.000048319               0.000766116               0.999999995              -0.000010167               0.000472130               0.999999995               0.000001251               0.000470130               0.999999995               0.000005496               0.000471157               0.999999995               0.000006069               0.000477025               0.999999995               0.000004562               0.000487540               0.999999995               0.000001956               0.000502030               0.999999995              -0.000000969               0.000519664               0.999999995              -0.000004247               0.000539771               0.999999995              -0.000007938               0.000561879               0.999999995              -0.000011915               0.000585625               0.999999995              -0.000015765               0.000610663               0.999999995              -0.000019303               0.000636818               0.999999995              -0.000022405               0.000663869               0.999999995              -0.000025012               0.000691616               0.999999995              -0.000026967               0.000719842               0.999999995              -0.000027801               0.000748335               0.999999995              -0.000026822               0.000776907               0.999999995              -0.000005121               0.000479011               0.999999995               0.000000798               0.000480066               0.999999995               0.000003119               0.000482609               0.999999995               0.000003579               0.000488952               0.999999995               0.000002855               0.000499523               0.999999995               0.000001574               0.000513883               0.999999995               0.000000159               0.000531209               0.999999995              -0.000001404               0.000550894               0.999999995              -0.000003193               0.000572558               0.999999995              -0.000005170               0.000595914               0.999999995              -0.000007105               0.000620631               0.999999995              -0.000008778               0.000646477               0.999999995              -0.000010254               0.000673220               0.999999995              -0.000011448               0.000700687               0.999999995              -0.000012229               0.000728730               0.999999995              -0.000012402               0.000757170               0.999999995              -0.000011444               0.000785731               0.999999995              -0.000000000               0.000481351               0.999999995               0.000000000               0.000483431               0.999999995              -0.000000000               0.000486536               0.999999995              -0.000000000               0.000493134               0.999999995              -0.000000000               0.000503698               0.999999995              -0.000000000               0.000517959               0.999999995               0.000000000               0.000535252               0.999999995               0.000000000               0.000554866               0.999999995               0.000000000               0.000576372               0.999999995               0.000000000               0.000599620               0.999999995               0.000000000               0.000624288               0.999999995               0.000000000               0.000650030               0.999999995               0.000000000               0.000676656               0.999999995               0.000000000               0.000703968               0.999999995              -0.000000000               0.000731849               0.999999995              -0.000000000               0.000760179               0.999999995              -0.000000000               0.000788688               0.999999995              -0.000056576               0.000000000               0.999999995              -0.000075701               0.000000000               0.999999995              -0.000084760               0.000000000               0.999999995              -0.000090068               0.000000000               0.999999995              -0.000094157               0.000000000               0.999999995              -0.000098061              -0.000000000               0.999999995              -0.000102339               0.000000000               0.999999995              -0.000107272               0.000000000               0.999999995              -0.000112911              -0.000000000               0.999999995              -0.000119340               0.000000000               0.999999995              -0.000126624              -0.000000000               0.999999995              -0.000134785               0.000000000               0.999999995              -0.000143744               0.000000000               0.999999995              -0.000153440               0.000000000               0.999999995              -0.000163802               0.000000000               0.999999995              -0.000174726               0.000000000               0.999999995              -0.000186056               0.000000000               0.999999995              -0.000056136              -0.000047944               0.999999995              -0.000074396              -0.000042017               0.999999995              -0.000082986              -0.000040398               0.999999995              -0.000088004              -0.000041108               0.999999995              -0.000091937              -0.000043154               0.999999995              -0.000095825              -0.000046013               0.999999995              -0.000100135              -0.000049392               0.999999995              -0.000105130              -0.000053250               0.999999995              -0.000110912              -0.000057460               0.999999995              -0.000117509              -0.000061938               0.999999995              -0.000124915              -0.000066616               0.999999995              -0.000133145              -0.000071443               0.999999995              -0.000142120              -0.000076304               0.999999995              -0.000151782              -0.000081151               0.999999995              -0.000162092              -0.000085835               0.999999995              -0.000172924              -0.000090172               0.999999995              -0.000184194              -0.000093984               0.999999995              -0.000054975              -0.000095379               0.999999995              -0.000070650              -0.000083632               0.999999995              -0.000077772              -0.000080616               0.999999995              -0.000082059              -0.000082239               0.999999995              -0.000085782              -0.000086611               0.999999995              -0.000089754              -0.000092444               0.999999995              -0.000094320              -0.000099347               0.999999995              -0.000099655              -0.000107155               0.999999995              -0.000105785              -0.000115610               0.999999995              -0.000112749              -0.000124610               0.999999995              -0.000120478              -0.000133970               0.999999995              -0.000128944              -0.000143561               0.999999995              -0.000138060              -0.000153300               0.999999995              -0.000147752              -0.000163020               0.999999995              -0.000158010              -0.000172600               0.999999995              -0.000168819              -0.000181787               0.999999995              -0.000180216              -0.000190386               0.999999995              -0.000053098              -0.000141811               0.999999995              -0.000064621              -0.000124419               0.999999995              -0.000069722              -0.000120483               0.999999995              -0.000073329              -0.000123447               0.999999995              -0.000077018              -0.000130363               0.999999995              -0.000081233              -0.000139424               0.999999995              -0.000086263              -0.000150024               0.999999995              -0.000092145              -0.000161883               0.999999995              -0.000098843              -0.000174681               0.999999995              -0.000106348              -0.000188245               0.999999995              -0.000114540              -0.000202336               0.999999995              -0.000123387              -0.000216705               0.999999995              -0.000132846              -0.000231377               0.999999995              -0.000142882              -0.000246165               0.999999995              -0.000153530              -0.000261095               0.999999995              -0.000164857              -0.000276019               0.999999995              -0.000176915              -0.000290774               0.999999995              -0.000050475              -0.000186699               0.999999995              -0.000056704              -0.000164083               0.999999995              -0.000059722              -0.000159857               0.999999995              -0.000062801              -0.000164649               0.999999995              -0.000066670              -0.000174351               0.999999995              -0.000071496              -0.000186864               0.999999995              -0.000077294              -0.000201280               0.999999995              -0.000084055              -0.000217241               0.999999995              -0.000091701              -0.000234405               0.999999995              -0.000100066              -0.000252527               0.999999995              -0.000109097              -0.000271248               0.999999995              -0.000118850              -0.000290477               0.999999995              -0.000129300              -0.000310157               0.999999995              -0.000140435              -0.000330282               0.999999995              -0.000152266              -0.000350814               0.999999995              -0.000164777              -0.000371814               0.999999995              -0.000177941              -0.000393198               0.999999995              -0.000047330              -0.000229460               0.999999995              -0.000047540              -0.000202386               0.999999995              -0.000048673              -0.000198480               0.999999995              -0.000051613              -0.000205438               0.999999995              -0.000056123              -0.000218139               0.999999995              -0.000061963              -0.000234274               0.999999995              -0.000069032              -0.000252625               0.999999995              -0.000077155              -0.000272688               0.999999995              -0.000086064              -0.000294066               0.999999995              -0.000095717              -0.000316570               0.999999995              -0.000106135              -0.000339961               0.999999995              -0.000117360              -0.000364056               0.999999995              -0.000129334              -0.000388741               0.999999995              -0.000142017              -0.000414038               0.999999995              -0.000155310              -0.000440011               0.999999995              -0.000169091              -0.000466608               0.999999995              -0.000183154              -0.000493587               0.999999995              -0.000043741              -0.000269670               0.999999995              -0.000037655              -0.000239201               0.999999995              -0.000037489              -0.000236094               0.999999995              -0.000040923              -0.000245430               0.999999995              -0.000046609              -0.000261266               0.999999995              -0.000053936              -0.000281041               0.999999995              -0.000062593              -0.000303407               0.999999995              -0.000072224              -0.000327500               0.999999995              -0.000082667              -0.000353014               0.999999995              -0.000093921              -0.000379870               0.999999995              -0.000105948              -0.000407846               0.999999995              -0.000118782              -0.000436641               0.999999995              -0.000132296              -0.000466127               0.999999995              -0.000146372              -0.000496310               0.999999995              -0.000160863              -0.000527153               0.999999995              -0.000175501              -0.000558535               0.999999995              -0.000190076              -0.000589908               0.999999995              -0.000039802              -0.000306969               0.999999995              -0.000027791              -0.000274313               0.999999995              -0.000027050              -0.000272421               0.999999995              -0.000031581              -0.000284278               0.999999995              -0.000038841              -0.000303279               0.999999995              -0.000047855              -0.000326602               0.999999995              -0.000058124              -0.000352938               0.999999995              -0.000069391              -0.000381043               0.999999995              -0.000081430              -0.000410631               0.999999995              -0.000094306              -0.000441731               0.999999995              -0.000107960              -0.000474067               0.999999995              -0.000122293              -0.000507311               0.999999995              -0.000137142              -0.000541239               0.999999995              -0.000152392              -0.000575827               0.999999995              -0.000167844              -0.000610996               0.999999995              -0.000183182              -0.000646302               0.999999995              -0.000198155              -0.000681442               0.999999995              -0.000035876              -0.000340725               0.999999995              -0.000018255              -0.000307741               0.999999995              -0.000017941              -0.000307185               0.999999995              -0.000024031              -0.000321455               0.999999995              -0.000033030              -0.000343598               0.999999995              -0.000043707              -0.000370519               0.999999995              -0.000055598              -0.000400600               0.999999995              -0.000068340              -0.000432698               0.999999995              -0.000081941              -0.000466402               0.999999995              -0.000096355              -0.000501724               0.999999995              -0.000111392              -0.000538189               0.999999995              -0.000126982              -0.000575552               0.999999995              -0.000142949              -0.000613581               0.999999995              -0.000159179              -0.000652093               0.999999995              -0.000175408              -0.000690861               0.999999995              -0.000191468              -0.000729503               0.999999995              -0.000207191              -0.000767824               0.999999995              -0.000032430              -0.000372090               0.999999995              -0.000011286              -0.000342502               0.999999995              -0.000009262              -0.000338949               0.999999995              -0.000014274              -0.000349580               0.999999995              -0.000022412              -0.000368309               0.999999995              -0.000031995              -0.000392048               0.999999995              -0.000042607              -0.000419198               0.999999995              -0.000053954              -0.000448638               0.999999995              -0.000066000              -0.000479667               0.999999995              -0.000078723              -0.000511984               0.999999995              -0.000091940              -0.000545538               0.999999995              -0.000105467              -0.000579983               0.999999995              -0.000119316              -0.000615099               0.999999995              -0.000133371              -0.000650732               0.999999995              -0.000147602              -0.000686765               0.999999995              -0.000161962              -0.000723032               0.999999995              -0.000176291              -0.000759220               0.999999995              -0.000028465              -0.000400244               0.999999995              -0.000005954              -0.000375414               0.999999995              -0.000002210              -0.000370785               0.999999995              -0.000005843              -0.000378472               0.999999995              -0.000012713              -0.000394196               0.999999995              -0.000021001              -0.000415051               0.999999995              -0.000030197              -0.000439410               0.999999995              -0.000040216              -0.000466198               0.999999995              -0.000050850              -0.000494712               0.999999995              -0.000061806              -0.000524626               0.999999995              -0.000073081              -0.000555578               0.999999995              -0.000084652              -0.000587442               0.999999995              -0.000096312              -0.000619862               0.999999995              -0.000107878              -0.000652856               0.999999995              -0.000119388              -0.000686269               0.999999995              -0.000130931              -0.000720144               0.999999995              -0.000142464              -0.000754205               0.999999995              -0.000024234              -0.000424597               0.999999995              -0.000002189              -0.000405683               0.999999995               0.000002817              -0.000401312               0.999999995               0.000000685              -0.000407239               0.999999995              -0.000004636              -0.000420503               0.999999995              -0.000011539              -0.000438885               0.999999995              -0.000019364              -0.000460756               0.999999995              -0.000027838              -0.000485157               0.999999995              -0.000036833              -0.000511507               0.999999995              -0.000046136              -0.000539285               0.999999995              -0.000055661              -0.000568105               0.999999995              -0.000065198              -0.000597695               0.999999995              -0.000074506              -0.000627978               0.999999995              -0.000083450              -0.000658828               0.999999995              -0.000091976              -0.000690062               0.999999995              -0.000100114              -0.000721704               0.999999995              -0.000107955              -0.000753684               0.999999995              -0.000019790              -0.000444792               0.999999995               0.000000081              -0.000432218               0.999999995               0.000005711              -0.000429189               0.999999995               0.000004959              -0.000434453               0.999999995               0.000001159              -0.000446103               0.999999995              -0.000004338              -0.000462441               0.999999995              -0.000010619              -0.000482316               0.999999995              -0.000017375              -0.000504725               0.999999995              -0.000024665              -0.000529232               0.999999995              -0.000032366              -0.000555212               0.999999995              -0.000040052              -0.000582259               0.999999995              -0.000047565              -0.000610205               0.999999995              -0.000054675              -0.000638922               0.999999995              -0.000061116              -0.000668134               0.999999995              -0.000066824              -0.000697716               0.999999995              -0.000071744              -0.000727605               0.999999995              -0.000075763              -0.000757848               0.999999995              -0.000015080              -0.000460706               0.999999995               0.000001115              -0.000453983               0.999999995               0.000006515              -0.000452959               0.999999995               0.000006702              -0.000458303               0.999999995               0.000004152              -0.000469076               0.999999995               0.000000150              -0.000484178               0.999999995              -0.000004382              -0.000502603               0.999999995              -0.000009420              -0.000523613               0.999999995              -0.000015006              -0.000546631               0.999999995              -0.000020944              -0.000571188               0.999999995              -0.000026728              -0.000596972               0.999999995              -0.000032209              -0.000623802               0.999999995              -0.000037244              -0.000651464               0.999999995              -0.000041585              -0.000679690               0.999999995              -0.000045097              -0.000708277               0.999999995              -0.000047503              -0.000737095               0.999999995              -0.000048319              -0.000766116               0.999999995              -0.000010167              -0.000472130               0.999999995               0.000001251              -0.000470130               0.999999995               0.000005496              -0.000471157               0.999999995               0.000006069              -0.000477025               0.999999995               0.000004562              -0.000487540               0.999999995               0.000001956              -0.000502030               0.999999995              -0.000000969              -0.000519664               0.999999995              -0.000004247              -0.000539771               0.999999995              -0.000007938              -0.000561879               0.999999995              -0.000011915              -0.000585625               0.999999995              -0.000015765              -0.000610663               0.999999995              -0.000019303              -0.000636818               0.999999995              -0.000022405              -0.000663869               0.999999995              -0.000025012              -0.000691616               0.999999995              -0.000026967              -0.000719842               0.999999995              -0.000027801              -0.000748335               0.999999995              -0.000026822              -0.000776907               0.999999995              -0.000005121              -0.000479011               0.999999995               0.000000798              -0.000480066               0.999999995               0.000003119              -0.000482609               0.999999995               0.000003579              -0.000488952               0.999999995               0.000002855              -0.000499523               0.999999995               0.000001574              -0.000513883               0.999999995               0.000000159              -0.000531209               0.999999995              -0.000001404              -0.000550894               0.999999995              -0.000003193              -0.000572558               0.999999995              -0.000005170              -0.000595914               0.999999995              -0.000007105              -0.000620631               0.999999995              -0.000008778              -0.000646477               0.999999995              -0.000010254              -0.000673220               0.999999995              -0.000011448              -0.000700687               0.999999995              -0.000012229              -0.000728730               0.999999995              -0.000012402              -0.000757170               0.999999995              -0.000011444              -0.000785731               0.999999995              -0.000000000              -0.000481351               0.999999995              -0.000000000              -0.000483431               0.999999995               0.000000000              -0.000486536               0.999999995              -0.000000000              -0.000493134               0.999999995              -0.000000000              -0.000503698               0.999999995              -0.000000000              -0.000517959               0.999999995              -0.000000000              -0.000535252               0.999999995              -0.000000000              -0.000554866               0.999999995              -0.000000000              -0.000576372               0.999999995               0.000000000              -0.000599620               0.999999995               0.000000000              -0.000624288               0.999999995              -0.000000000              -0.000650030               0.999999995              -0.000000000              -0.000676656               0.999999995               0.000000000              -0.000703968               0.999999995               0.000000000              -0.000731849               0.999999995               0.000000000              -0.000760179               0.999999995               0.000000000              -0.000788688               0.999999995               0.000056576              -0.000000000               0.999999995               0.000075701               0.000000000               0.999999995               0.000084760               0.000000000               0.999999995               0.000090068              -0.000000000               0.999999995               0.000094157               0.000000000               0.999999995               0.000098061              -0.000000000               0.999999995               0.000102339              -0.000000000               0.999999995               0.000107272               0.000000000               0.999999995               0.000112911              -0.000000000               0.999999995               0.000119340               0.000000000               0.999999995               0.000126624               0.000000000               0.999999995               0.000134785               0.000000000               0.999999995               0.000143744               0.000000000               0.999999995               0.000153440               0.000000000               0.999999995               0.000163802               0.000000000               0.999999995               0.000174726               0.000000000               0.999999995               0.000186056               0.000000000               0.999999995               0.000056136              -0.000047944               0.999999995               0.000074396              -0.000042017               0.999999995               0.000082986              -0.000040398               0.999999995               0.000088004              -0.000041108               0.999999995               0.000091937              -0.000043154               0.999999995               0.000095825              -0.000046013               0.999999995               0.000100135              -0.000049392               0.999999995               0.000105130              -0.000053250               0.999999995               0.000110912              -0.000057460               0.999999995               0.000117509              -0.000061938               0.999999995               0.000124915              -0.000066616               0.999999995               0.000133145              -0.000071443               0.999999995               0.000142120              -0.000076304               0.999999995               0.000151782              -0.000081151               0.999999995               0.000162092              -0.000085835               0.999999995               0.000172924              -0.000090172               0.999999995               0.000184194              -0.000093984               0.999999995               0.000054975              -0.000095379               0.999999995               0.000070650              -0.000083632               0.999999995               0.000077772              -0.000080616               0.999999995               0.000082059              -0.000082239               0.999999995               0.000085782              -0.000086611               0.999999995               0.000089754              -0.000092444               0.999999995               0.000094320              -0.000099347               0.999999995               0.000099655              -0.000107155               0.999999995               0.000105785              -0.000115610               0.999999995               0.000112749              -0.000124610               0.999999995               0.000120478              -0.000133970               0.999999995               0.000128944              -0.000143561               0.999999995               0.000138060              -0.000153300               0.999999995               0.000147752              -0.000163020               0.999999995               0.000158010              -0.000172600               0.999999995               0.000168819              -0.000181787               0.999999995               0.000180216              -0.000190386               0.999999995               0.000053098              -0.000141811               0.999999995               0.000064621              -0.000124419               0.999999995               0.000069722              -0.000120483               0.999999995               0.000073329              -0.000123447               0.999999995               0.000077018              -0.000130363               0.999999995               0.000081233              -0.000139424               0.999999995               0.000086263              -0.000150024               0.999999995               0.000092145              -0.000161883               0.999999995               0.000098843              -0.000174681               0.999999995               0.000106348              -0.000188245               0.999999995               0.000114540              -0.000202336               0.999999995               0.000123387              -0.000216705               0.999999995               0.000132846              -0.000231377               0.999999995               0.000142882              -0.000246165               0.999999995               0.000153530              -0.000261095               0.999999995               0.000164857              -0.000276019               0.999999995               0.000176915              -0.000290774               0.999999995               0.000050475              -0.000186699               0.999999995               0.000056704              -0.000164083               0.999999995               0.000059722              -0.000159857               0.999999995               0.000062801              -0.000164649               0.999999995               0.000066670              -0.000174351               0.999999995               0.000071496              -0.000186864               0.999999995               0.000077294              -0.000201280               0.999999995               0.000084055              -0.000217241               0.999999995               0.000091701              -0.000234405               0.999999995               0.000100066              -0.000252527               0.999999995               0.000109097              -0.000271248               0.999999995               0.000118850              -0.000290477               0.999999995               0.000129300              -0.000310157               0.999999995               0.000140435              -0.000330282               0.999999995               0.000152266              -0.000350814               0.999999995               0.000164777              -0.000371814               0.999999995               0.000177941              -0.000393198               0.999999995               0.000047330              -0.000229460               0.999999995               0.000047540              -0.000202386               0.999999995               0.000048673              -0.000198480               0.999999995               0.000051613              -0.000205438               0.999999995               0.000056123              -0.000218139               0.999999995               0.000061963              -0.000234274               0.999999995               0.000069032              -0.000252625               0.999999995               0.000077155              -0.000272688               0.999999995               0.000086064              -0.000294066               0.999999995               0.000095717              -0.000316570               0.999999995               0.000106135              -0.000339961               0.999999995               0.000117360              -0.000364056               0.999999995               0.000129334              -0.000388741               0.999999995               0.000142017              -0.000414038               0.999999995               0.000155310              -0.000440011               0.999999995               0.000169091              -0.000466608               0.999999995               0.000183154              -0.000493587               0.999999995               0.000043741              -0.000269670               0.999999995               0.000037655              -0.000239201               0.999999995               0.000037489              -0.000236094               0.999999995               0.000040923              -0.000245430               0.999999995               0.000046609              -0.000261266               0.999999995               0.000053936              -0.000281041               0.999999995               0.000062593              -0.000303407               0.999999995               0.000072224              -0.000327500               0.999999995               0.000082667              -0.000353014               0.999999995               0.000093921              -0.000379870               0.999999995               0.000105948              -0.000407846               0.999999995               0.000118782              -0.000436641               0.999999995               0.000132296              -0.000466127               0.999999995               0.000146372              -0.000496310               0.999999995               0.000160863              -0.000527153               0.999999995               0.000175501              -0.000558535               0.999999995               0.000190076              -0.000589908               0.999999995               0.000039802              -0.000306969               0.999999995               0.000027791              -0.000274313               0.999999995               0.000027050              -0.000272421               0.999999995               0.000031581              -0.000284278               0.999999995               0.000038841              -0.000303279               0.999999995               0.000047855              -0.000326602               0.999999995               0.000058124              -0.000352938               0.999999995               0.000069391              -0.000381043               0.999999995               0.000081430              -0.000410631               0.999999995               0.000094306              -0.000441731               0.999999995               0.000107960              -0.000474067               0.999999995               0.000122293              -0.000507311               0.999999995               0.000137142              -0.000541239               0.999999995               0.000152392              -0.000575827               0.999999995               0.000167844              -0.000610996               0.999999995               0.000183182              -0.000646302               0.999999995               0.000198155              -0.000681442               0.999999995               0.000035876              -0.000340725               0.999999995               0.000018255              -0.000307741               0.999999995               0.000017941              -0.000307185               0.999999995               0.000024031              -0.000321455               0.999999995               0.000033030              -0.000343598               0.999999995               0.000043707              -0.000370519               0.999999995               0.000055598              -0.000400600               0.999999995               0.000068340              -0.000432698               0.999999995               0.000081941              -0.000466402               0.999999995               0.000096355              -0.000501724               0.999999995               0.000111392              -0.000538189               0.999999995               0.000126982              -0.000575552               0.999999995               0.000142949              -0.000613581               0.999999995               0.000159179              -0.000652093               0.999999995               0.000175408              -0.000690861               0.999999995               0.000191468              -0.000729503               0.999999995               0.000207191              -0.000767824               0.999999995               0.000032430              -0.000372090               0.999999995               0.000011286              -0.000342502               0.999999995               0.000009262              -0.000338949               0.999999995               0.000014274              -0.000349580               0.999999995               0.000022412              -0.000368309               0.999999995               0.000031995              -0.000392048               0.999999995               0.000042607              -0.000419198               0.999999995               0.000053954              -0.000448638               0.999999995               0.000066000              -0.000479667               0.999999995               0.000078723              -0.000511984               0.999999995               0.000091940              -0.000545538               0.999999995               0.000105467              -0.000579983               0.999999995               0.000119316              -0.000615099               0.999999995               0.000133371              -0.000650732               0.999999995               0.000147602              -0.000686765               0.999999995               0.000161962              -0.000723032               0.999999995               0.000176291              -0.000759220               0.999999995               0.000028465              -0.000400244               0.999999995               0.000005954              -0.000375414               0.999999995               0.000002210              -0.000370785               0.999999995               0.000005843              -0.000378472               0.999999995               0.000012713              -0.000394196               0.999999995               0.000021001              -0.000415051               0.999999995               0.000030197              -0.000439410               0.999999995               0.000040216              -0.000466198               0.999999995               0.000050850              -0.000494712               0.999999995               0.000061806              -0.000524626               0.999999995               0.000073081              -0.000555578               0.999999995               0.000084652              -0.000587442               0.999999995               0.000096312              -0.000619862               0.999999995               0.000107878              -0.000652856               0.999999995               0.000119388              -0.000686269               0.999999995               0.000130931              -0.000720144               0.999999995               0.000142464              -0.000754205               0.999999995               0.000024234              -0.000424597               0.999999995               0.000002189              -0.000405683               0.999999995              -0.000002817              -0.000401312               0.999999995              -0.000000685              -0.000407239               0.999999995               0.000004636              -0.000420503               0.999999995               0.000011539              -0.000438885               0.999999995               0.000019364              -0.000460756               0.999999995               0.000027838              -0.000485157               0.999999995               0.000036833              -0.000511507               0.999999995               0.000046136              -0.000539285               0.999999995               0.000055661              -0.000568105               0.999999995               0.000065198              -0.000597695               0.999999995               0.000074506              -0.000627978               0.999999995               0.000083450              -0.000658828               0.999999995               0.000091976              -0.000690062               0.999999995               0.000100114              -0.000721704               0.999999995               0.000107955              -0.000753684               0.999999995               0.000019790              -0.000444792               0.999999995              -0.000000081              -0.000432218               0.999999995              -0.000005711              -0.000429189               0.999999995              -0.000004959              -0.000434453               0.999999995              -0.000001159              -0.000446103               0.999999995               0.000004338              -0.000462441               0.999999995               0.000010619              -0.000482316               0.999999995               0.000017375              -0.000504725               0.999999995               0.000024665              -0.000529232               0.999999995               0.000032366              -0.000555212               0.999999995               0.000040052              -0.000582259               0.999999995               0.000047565              -0.000610205               0.999999995               0.000054675              -0.000638922               0.999999995               0.000061116              -0.000668134               0.999999995               0.000066824              -0.000697716               0.999999995               0.000071744              -0.000727605               0.999999995               0.000075763              -0.000757848               0.999999995               0.000015080              -0.000460706               0.999999995              -0.000001115              -0.000453983               0.999999995              -0.000006515              -0.000452959               0.999999995              -0.000006702              -0.000458303               0.999999995              -0.000004152              -0.000469076               0.999999995              -0.000000150              -0.000484178               0.999999995               0.000004382              -0.000502603               0.999999995               0.000009420              -0.000523613               0.999999995               0.000015006              -0.000546631               0.999999995               0.000020944              -0.000571188               0.999999995               0.000026728              -0.000596972               0.999999995               0.000032209              -0.000623802               0.999999995               0.000037244              -0.000651464               0.999999995               0.000041585              -0.000679690               0.999999995               0.000045097              -0.000708277               0.999999995               0.000047503              -0.000737095               0.999999995               0.000048319              -0.000766116               0.999999995               0.000010167              -0.000472130               0.999999995              -0.000001251              -0.000470130               0.999999995              -0.000005496              -0.000471157               0.999999995              -0.000006069              -0.000477025               0.999999995              -0.000004562              -0.000487540               0.999999995              -0.000001956              -0.000502030               0.999999995               0.000000969              -0.000519664               0.999999995               0.000004247              -0.000539771               0.999999995               0.000007938              -0.000561879               0.999999995               0.000011915              -0.000585625               0.999999995               0.000015765              -0.000610663               0.999999995               0.000019303              -0.000636818               0.999999995               0.000022405              -0.000663869               0.999999995               0.000025012              -0.000691616               0.999999995               0.000026967              -0.000719842               0.999999995               0.000027801              -0.000748335               0.999999995               0.000026822              -0.000776907               0.999999995               0.000005121              -0.000479011               0.999999995              -0.000000798              -0.000480066               0.999999995              -0.000003119              -0.000482609               0.999999995              -0.000003579              -0.000488952               0.999999995              -0.000002855              -0.000499523               0.999999995              -0.000001574              -0.000513883               0.999999995              -0.000000159              -0.000531209               0.999999995               0.000001404              -0.000550894               0.999999995               0.000003193              -0.000572558               0.999999995               0.000005170              -0.000595914               0.999999995               0.000007105              -0.000620631               0.999999995               0.000008778              -0.000646477               0.999999995               0.000010254              -0.000673220               0.999999995               0.000011448              -0.000700687               0.999999995               0.000012229              -0.000728730               0.999999995               0.000012402              -0.000757170               0.999999995               0.000011444              -0.000785731               0.999999995              -0.000000000              -0.000481351               0.999999995              -0.000000000              -0.000483431               0.999999995               0.000000000              -0.000486536               0.999999995              -0.000000000              -0.000493134               0.999999995              -0.000000000              -0.000503698               0.999999995              -0.000000000              -0.000517959               0.999999995              -0.000000000              -0.000535252               0.999999995              -0.000000000              -0.000554866               0.999999995              -0.000000000              -0.000576372               0.999999995               0.000000000              -0.000599620               0.999999995               0.000000000              -0.000624288               0.999999995              -0.000000000              -0.000650030               0.999999995              -0.000000000              -0.000676656               0.999999995               0.000000000              -0.000703968               0.999999995               0.000000000              -0.000731849               0.999999995               0.000000000              -0.000760179               0.999999995               0.000000000              -0.000788688               0.999999995               0.000056576              -0.000000000               0.999999995               0.000075701               0.000000000               0.999999995               0.000084760               0.000000000               0.999999995               0.000090068              -0.000000000               0.999999995               0.000094157               0.000000000               0.999999995               0.000098061              -0.000000000               0.999999995               0.000102339              -0.000000000               0.999999995               0.000107272               0.000000000               0.999999995               0.000112911              -0.000000000               0.999999995               0.000119340               0.000000000               0.999999995               0.000126624               0.000000000               0.999999995               0.000134785               0.000000000               0.999999995               0.000143744               0.000000000               0.999999995               0.000153440               0.000000000               0.999999995               0.000163802               0.000000000               0.999999995               0.000174726               0.000000000               0.999999995               0.000186056               0.000000000               0.999999995               0.000056136               0.000047944               0.999999995               0.000074396               0.000042017               0.999999995               0.000082986               0.000040398               0.999999995               0.000088004               0.000041108               0.999999995               0.000091937               0.000043154               0.999999995               0.000095825               0.000046013               0.999999995               0.000100135               0.000049392               0.999999995               0.000105130               0.000053250               0.999999995               0.000110912               0.000057460               0.999999995               0.000117509               0.000061938               0.999999995               0.000124915               0.000066616               0.999999995               0.000133145               0.000071443               0.999999995               0.000142120               0.000076304               0.999999995               0.000151782               0.000081151               0.999999995               0.000162092               0.000085835               0.999999995               0.000172924               0.000090172               0.999999995               0.000184194               0.000093984               0.999999995               0.000054975               0.000095379               0.999999995               0.000070650               0.000083632               0.999999995               0.000077772               0.000080616               0.999999995               0.000082059               0.000082239               0.999999995               0.000085782               0.000086611               0.999999995               0.000089754               0.000092444               0.999999995               0.000094320               0.000099347               0.999999995               0.000099655               0.000107155               0.999999995               0.000105785               0.000115610               0.999999995               0.000112749               0.000124610               0.999999995               0.000120478               0.000133970               0.999999995               0.000128944               0.000143561               0.999999995               0.000138060               0.000153300               0.999999995               0.000147752               0.000163020               0.999999995               0.000158010               0.000172600               0.999999995               0.000168819               0.000181787               0.999999995               0.000180216               0.000190386               0.999999995               0.000053098               0.000141811               0.999999995               0.000064621               0.000124419               0.999999995               0.000069722               0.000120483               0.999999995               0.000073329               0.000123447               0.999999995               0.000077018               0.000130363               0.999999995               0.000081233               0.000139424               0.999999995               0.000086263               0.000150024               0.999999995               0.000092145               0.000161883               0.999999995               0.000098843               0.000174681               0.999999995               0.000106348               0.000188245               0.999999995               0.000114540               0.000202336               0.999999995               0.000123387               0.000216705               0.999999995               0.000132846               0.000231377               0.999999995               0.000142882               0.000246165               0.999999995               0.000153530               0.000261095               0.999999995               0.000164857               0.000276019               0.999999995               0.000176915               0.000290774               0.999999995               0.000050475               0.000186699               0.999999995               0.000056704               0.000164083               0.999999995               0.000059722               0.000159857               0.999999995               0.000062801               0.000164649               0.999999995               0.000066670               0.000174351               0.999999995               0.000071496               0.000186864               0.999999995               0.000077294               0.000201280               0.999999995               0.000084055               0.000217241               0.999999995               0.000091701               0.000234405               0.999999995               0.000100066               0.000252527               0.999999995               0.000109097               0.000271248               0.999999995               0.000118850               0.000290477               0.999999995               0.000129300               0.000310157               0.999999995               0.000140435               0.000330282               0.999999995               0.000152266               0.000350814               0.999999995               0.000164777               0.000371814               0.999999995               0.000177941               0.000393198               0.999999995               0.000047330               0.000229460               0.999999995               0.000047540               0.000202386               0.999999995               0.000048673               0.000198480               0.999999995               0.000051613               0.000205438               0.999999995               0.000056123               0.000218139               0.999999995               0.000061963               0.000234274               0.999999995               0.000069032               0.000252625               0.999999995               0.000077155               0.000272688               0.999999995               0.000086064               0.000294066               0.999999995               0.000095717               0.000316570               0.999999995               0.000106135               0.000339961               0.999999995               0.000117360               0.000364056               0.999999995               0.000129334               0.000388741               0.999999995               0.000142017               0.000414038               0.999999995               0.000155310               0.000440011               0.999999995               0.000169091               0.000466608               0.999999995               0.000183154               0.000493587               0.999999995               0.000043741               0.000269670               0.999999995               0.000037655               0.000239201               0.999999995               0.000037489               0.000236094               0.999999995               0.000040923               0.000245430               0.999999995               0.000046609               0.000261266               0.999999995               0.000053936               0.000281041               0.999999995               0.000062593               0.000303407               0.999999995               0.000072224               0.000327500               0.999999995               0.000082667               0.000353014               0.999999995               0.000093921               0.000379870               0.999999995               0.000105948               0.000407846               0.999999995               0.000118782               0.000436641               0.999999995               0.000132296               0.000466127               0.999999995               0.000146372               0.000496310               0.999999995               0.000160863               0.000527153               0.999999995               0.000175501               0.000558535               0.999999995               0.000190076               0.000589908               0.999999995               0.000039802               0.000306969               0.999999995               0.000027791               0.000274313               0.999999995               0.000027050               0.000272421               0.999999995               0.000031581               0.000284278               0.999999995               0.000038841               0.000303279               0.999999995               0.000047855               0.000326602               0.999999995               0.000058124               0.000352938               0.999999995               0.000069391               0.000381043               0.999999995               0.000081430               0.000410631               0.999999995               0.000094306               0.000441731               0.999999995               0.000107960               0.000474067               0.999999995               0.000122293               0.000507311               0.999999995               0.000137142               0.000541239               0.999999995               0.000152392               0.000575827               0.999999995               0.000167844               0.000610996               0.999999995               0.000183182               0.000646302               0.999999995               0.000198155               0.000681442               0.999999995               0.000035876               0.000340725               0.999999995               0.000018255               0.000307741               0.999999995               0.000017941               0.000307185               0.999999995               0.000024031               0.000321455               0.999999995               0.000033030               0.000343598               0.999999995               0.000043707               0.000370519               0.999999995               0.000055598               0.000400600               0.999999995               0.000068340               0.000432698               0.999999995               0.000081941               0.000466402               0.999999995               0.000096355               0.000501724               0.999999995               0.000111392               0.000538189               0.999999995               0.000126982               0.000575552               0.999999995               0.000142949               0.000613581               0.999999995               0.000159179               0.000652093               0.999999995               0.000175408               0.000690861               0.999999995               0.000191468               0.000729503               0.999999995               0.000207191               0.000767824               0.999999995               0.000032430               0.000372090               0.999999995               0.000011286               0.000342502               0.999999995               0.000009262               0.000338949               0.999999995               0.000014274               0.000349580               0.999999995               0.000022412               0.000368309               0.999999995               0.000031995               0.000392048               0.999999995               0.000042607               0.000419198               0.999999995               0.000053954               0.000448638               0.999999995               0.000066000               0.000479667               0.999999995               0.000078723               0.000511984               0.999999995               0.000091940               0.000545538               0.999999995               0.000105467               0.000579983               0.999999995               0.000119316               0.000615099               0.999999995               0.000133371               0.000650732               0.999999995               0.000147602               0.000686765               0.999999995               0.000161962               0.000723032               0.999999995               0.000176291               0.000759220               0.999999995               0.000028465               0.000400244               0.999999995               0.000005954               0.000375414               0.999999995               0.000002210               0.000370785               0.999999995               0.000005843               0.000378472               0.999999995               0.000012713               0.000394196               0.999999995               0.000021001               0.000415051               0.999999995               0.000030197               0.000439410               0.999999995               0.000040216               0.000466198               0.999999995               0.000050850               0.000494712               0.999999995               0.000061806               0.000524626               0.999999995               0.000073081               0.000555578               0.999999995               0.000084652               0.000587442               0.999999995               0.000096312               0.000619862               0.999999995               0.000107878               0.000652856               0.999999995               0.000119388               0.000686269               0.999999995               0.000130931               0.000720144               0.999999995               0.000142464               0.000754205               0.999999995               0.000024234               0.000424597               0.999999995               0.000002189               0.000405683               0.999999995              -0.000002817               0.000401312               0.999999995              -0.000000685               0.000407239               0.999999995               0.000004636               0.000420503               0.999999995               0.000011539               0.000438885               0.999999995               0.000019364               0.000460756               0.999999995               0.000027838               0.000485157               0.999999995               0.000036833               0.000511507               0.999999995               0.000046136               0.000539285               0.999999995               0.000055661               0.000568105               0.999999995               0.000065198               0.000597695               0.999999995               0.000074506               0.000627978               0.999999995               0.000083450               0.000658828               0.999999995               0.000091976               0.000690062               0.999999995               0.000100114               0.000721704               0.999999995               0.000107955               0.000753684               0.999999995               0.000019790               0.000444792               0.999999995              -0.000000081               0.000432218               0.999999995              -0.000005711               0.000429189               0.999999995              -0.000004959               0.000434453               0.999999995              -0.000001159               0.000446103               0.999999995               0.000004338               0.000462441               0.999999995               0.000010619               0.000482316               0.999999995               0.000017375               0.000504725               0.999999995               0.000024665               0.000529232               0.999999995               0.000032366               0.000555212               0.999999995               0.000040052               0.000582259               0.999999995               0.000047565               0.000610205               0.999999995               0.000054675               0.000638922               0.999999995               0.000061116               0.000668134               0.999999995               0.000066824               0.000697716               0.999999995               0.000071744               0.000727605               0.999999995               0.000075763               0.000757848               0.999999995               0.000015080               0.000460706               0.999999995              -0.000001115               0.000453983               0.999999995              -0.000006515               0.000452959               0.999999995              -0.000006702               0.000458303               0.999999995              -0.000004152               0.000469076               0.999999995              -0.000000150               0.000484178               0.999999995               0.000004382               0.000502603               0.999999995               0.000009420               0.000523613               0.999999995               0.000015006               0.000546631               0.999999995               0.000020944               0.000571188               0.999999995               0.000026728               0.000596972               0.999999995               0.000032209               0.000623802               0.999999995               0.000037244               0.000651464               0.999999995               0.000041585               0.000679690               0.999999995               0.000045097               0.000708277               0.999999995               0.000047503               0.000737095               0.999999995               0.000048319               0.000766116               0.999999995               0.000010167               0.000472130               0.999999995              -0.000001251               0.000470130               0.999999995              -0.000005496               0.000471157               0.999999995              -0.000006069               0.000477025               0.999999995              -0.000004562               0.000487540               0.999999995              -0.000001956               0.000502030               0.999999995               0.000000969               0.000519664               0.999999995               0.000004247               0.000539771               0.999999995               0.000007938               0.000561879               0.999999995               0.000011915               0.000585625               0.999999995               0.000015765               0.000610663               0.999999995               0.000019303               0.000636818               0.999999995               0.000022405               0.000663869               0.999999995               0.000025012               0.000691616               0.999999995               0.000026967               0.000719842               0.999999995               0.000027801               0.000748335               0.999999995               0.000026822               0.000776907               0.999999995               0.000005121               0.000479011               0.999999995              -0.000000798               0.000480066               0.999999995              -0.000003119               0.000482609               0.999999995              -0.000003579               0.000488952               0.999999995              -0.000002855               0.000499523               0.999999995              -0.000001574               0.000513883               0.999999995              -0.000000159               0.000531209               0.999999995               0.000001404               0.000550894               0.999999995               0.000003193               0.000572558               0.999999995               0.000005170               0.000595914               0.999999995               0.000007105               0.000620631               0.999999995               0.000008778               0.000646477               0.999999995               0.000010254               0.000673220               0.999999995               0.000011448               0.000700687               0.999999995               0.000012229               0.000728730               0.999999995               0.000012402               0.000757170               0.999999995               0.000011444               0.000785731               0.999999995              -0.000000000               0.000481351               0.999999995               0.000000000               0.000483431               0.999999995              -0.000000000               0.000486536               0.999999995              -0.000000000               0.000493134               0.999999995              -0.000000000               0.000503698               0.999999995              -0.000000000               0.000517959               0.999999995               0.000000000               0.000535252               0.999999995               0.000000000               0.000554866               0.999999995               0.000000000               0.000576372               0.999999995               0.000000000               0.000599620               0.999999995               0.000000000               0.000624288               0.999999995               0.000000000               0.000650030               0.999999995               0.000000000               0.000676656               0.999999995               0.000000000               0.000703968               0.999999995              -0.000000000               0.000731849               0.999999995              -0.000000000               0.000760179               0.999999995              -0.000000000               0.000788688               0.999999995 </DataArray>
<DataArray type="Float64"                                    Name="stress"                                                      NumberOfComponents="10" format="ascii">
              0.000793242               0.008951196               0.000000000              -0.000821432               0.003257513               0.002436081               0.000000000               0.000000000               0.000000000               0.000000000               0.000864448               0.007336969               0.000000000              -0.000592952               0.002643282               0.002050331               0.000000000               0.000000000               0.000000000               0.000000000               0.001198651               0.006050714               0.000000000              -0.000306845               0.002119166               0.001812322               0.000000000               0.000000000               0.000000000               0.000000000               0.001238451               0.005348905              -0.000000000              -0.000204193               0.001851015               0.001646822               0.000000000               0.000000000               0.000000000               0.000000000               0.001173910               0.004933722               0.000000000              -0.000176499               0.001703391               0.001526892               0.000000000               0.000000000               0.000000000               0.000000000               0.001071326               0.004670416              -0.000000000              -0.000182054               0.001617475               0.001435420               0.000000000               0.000000000               0.000000000               0.000000000               0.000951613               0.004493439              -0.000000000              -0.000204824               0.001566073               0.001361248               0.000000000               0.000000000               0.000000000               0.000000000               0.000832433               0.004376705              -0.000000000              -0.000234925               0.001537196               0.001302270               0.000000000               0.000000000               0.000000000               0.000000000               0.000718808               0.004299717              -0.000000000              -0.000267911               0.001522528               0.001254617               0.000000000               0.000000000               0.000000000               0.000000000               0.000606941               0.004246812               0.000000000              -0.000303248               0.001516672               0.001213425               0.000000000               0.000000000               0.000000000               0.000000000               0.000496314               0.004208813              -0.000000000              -0.000339983               0.001516251               0.001176268               0.000000000               0.000000000               0.000000000               0.000000000               0.000392446               0.004181024              -0.000000000              -0.000375460               0.001518814               0.001143354               0.000000000               0.000000000               0.000000000               0.000000000               0.000297971               0.004157925               0.000000000              -0.000408001               0.001521961               0.001113961               0.000000000               0.000000000               0.000000000               0.000000000               0.000210164               0.004134499               0.000000000              -0.000438000               0.001524153               0.001086153               0.000000000               0.000000000               0.000000000               0.000000000               0.000130379               0.004105124              -0.000000000              -0.000464247               0.001523110               0.001058863               0.000000000               0.000000000               0.000000000               0.000000000               0.000060717               0.004063886              -0.000000000              -0.000485216               0.001516354               0.001031138               0.000000000               0.000000000               0.000000000               0.000000000               0.000025842               0.004030727               0.000000000              -0.000494149               0.001508279               0.001014130               0.000000000               0.000000000               0.000000000               0.000000000               0.000835319               0.008795245              -0.000656436              -0.000786159               0.003193772               0.002407613               0.000000000               0.000000000               0.000000000               0.000000000               0.000870664               0.007231089              -0.000400629              -0.000577386               0.002602801               0.002025415               0.000000000               0.000000000               0.000000000               0.000000000               0.001167713               0.005997081              -0.000137982              -0.000311742               0.002102921               0.001791179               0.000000000               0.000000000               0.000000000               0.000000000               0.001193463               0.005324222              -0.000018141              -0.000217979               0.001847383               0.001629404               0.000000000               0.000000000               0.000000000               0.000000000               0.001123716               0.004927722               0.000035289              -0.000194571               0.001707415               0.001512843               0.000000000               0.000000000               0.000000000               0.000000000               0.001020657               0.004673168               0.000057234              -0.000201399               0.001624840               0.001423441               0.000000000               0.000000000               0.000000000               0.000000000               0.000905253               0.004503006               0.000067369              -0.000223405               0.001575456               0.001352050               0.000000000               0.000000000               0.000000000               0.000000000               0.000789256               0.004389578               0.000072028              -0.000252726               0.001547420               0.001294694               0.000000000               0.000000000               0.000000000               0.000000000               0.000677831               0.004313107               0.000072267              -0.000284951               0.001532672               0.001247721               0.000000000               0.000000000               0.000000000               0.000000000               0.000571819               0.004261378               0.000070164              -0.000318239               0.001526525               0.001208286               0.000000000               0.000000000               0.000000000               0.000000000               0.000469250               0.004224076               0.000067387              -0.000352040               0.001525358               0.001173318               0.000000000               0.000000000               0.000000000               0.000000000               0.000372794               0.004195827               0.000063947              -0.000384680               0.001526821               0.001142142               0.000000000               0.000000000               0.000000000               0.000000000               0.000285483               0.004173593               0.000059572              -0.000414642               0.001529398               0.001114756               0.000000000               0.000000000               0.000000000               0.000000000               0.000203268               0.004151921               0.000053367              -0.000442763               0.001531548               0.001088784               0.000000000               0.000000000               0.000000000               0.000000000               0.000128282               0.004128184               0.000042366              -0.000467916               0.001532020               0.001064104               0.000000000               0.000000000               0.000000000               0.000000000               0.000061693               0.004098564               0.000024985              -0.000489185               0.001529236               0.001040051               0.000000000               0.000000000               0.000000000               0.000000000               0.000029144               0.004077333               0.000014399              -0.000498736               0.001525343               0.001026607               0.000000000               0.000000000               0.000000000               0.000000000               0.000952564               0.008346907              -0.001242115              -0.000686151               0.003010991               0.002324841               0.000000000               0.000000000               0.000000000               0.000000000               0.000888521               0.006926152              -0.000760413              -0.000532573               0.002486218               0.001953646               0.000000000               0.000000000               0.000000000               0.000000000               0.001080135               0.005845114              -0.000270570              -0.000325588               0.002056881               0.001731293               0.000000000               0.000000000               0.000000000               0.000000000               0.001064683               0.005253675              -0.000054192              -0.000257452               0.001837025               0.001579573               0.000000000               0.000000000               0.000000000               0.000000000               0.000983513               0.004901442               0.000039313              -0.000243862               0.001715085               0.001471223               0.000000000               0.000000000               0.000000000               0.000000000               0.000883194               0.004672198               0.000078279              -0.000252826               0.001641659               0.001388833               0.000000000               0.000000000               0.000000000               0.000000000               0.000778309               0.004519006               0.000097655              -0.000273009               0.001597323               0.001324314               0.000000000               0.000000000               0.000000000               0.000000000               0.000676283               0.004415462               0.000106845              -0.000298326               0.001571248               0.001272922               0.000000000               0.000000000               0.000000000               0.000000000               0.000578220               0.004344136               0.000109948              -0.000326184               0.001556759               0.001230575               0.000000000               0.000000000               0.000000000               0.000000000               0.000486790               0.004295541               0.000109301              -0.000354396               0.001549965               0.001195569               0.000000000               0.000000000               0.000000000               0.000000000               0.000401450               0.004260436               0.000105399              -0.000382010               0.001547468               0.001165458               0.000000000               0.000000000               0.000000000               0.000000000               0.000321373               0.004232730               0.000100620              -0.000408575               0.001547088               0.001138512               0.000000000               0.000000000               0.000000000               0.000000000               0.000250205               0.004213707               0.000093604              -0.000432885               0.001548850               0.001115965               0.000000000               0.000000000               0.000000000               0.000000000               0.000183333               0.004199981               0.000083009              -0.000456246               0.001552062               0.001095815               0.000000000               0.000000000               0.000000000               0.000000000               0.000119581               0.004192954               0.000065778              -0.000479275               0.001557396               0.001078121               0.000000000               0.000000000               0.000000000               0.000000000               0.000058465               0.004192993               0.000038479              -0.000502199               0.001565050               0.001062851               0.000000000               0.000000000               0.000000000               0.000000000               0.000031706               0.004200492               0.000020509              -0.000513171               0.001571207               0.001058036               0.000000000               0.000000000               0.000000000               0.000000000               0.001107284               0.007654887              -0.001693947              -0.000541629               0.002732146               0.002190517               0.000000000               0.000000000               0.000000000               0.000000000               0.000899927               0.006460050              -0.001046469              -0.000470033               0.002310006               0.001839973               0.000000000               0.000000000               0.000000000               0.000000000               0.000938651               0.005616055              -0.000395898              -0.000350012               0.001988670               0.001638658               0.000000000               0.000000000               0.000000000               0.000000000               0.000873238               0.005144779              -0.000117775              -0.000315632               0.001820120               0.001504488               0.000000000               0.000000000               0.000000000               0.000000000               0.000787990               0.004851832               0.000003240              -0.000310982               0.001720922               0.001409940               0.000000000               0.000000000               0.000000000               0.000000000               0.000700816               0.004658925               0.000054813              -0.000319559               0.001659479               0.001339920               0.000000000               0.000000000               0.000000000               0.000000000               0.000613072               0.004526389               0.000081850              -0.000335896               0.001620747               0.001284851               0.000000000               0.000000000               0.000000000               0.000000000               0.000531676               0.004434401               0.000096280              -0.000354921               0.001596426               0.001241505               0.000000000               0.000000000               0.000000000               0.000000000               0.000456435               0.004370819               0.000102706              -0.000375188               0.001581988               0.001206800               0.000000000               0.000000000               0.000000000               0.000000000               0.000387634               0.004326087               0.000104243              -0.000395397               0.001573814               0.001178417               0.000000000               0.000000000               0.000000000               0.000000000               0.000323330               0.004292446               0.000100028              -0.000415306               0.001569236               0.001153930               0.000000000               0.000000000               0.000000000               0.000000000               0.000262255               0.004268394               0.000093614              -0.000435203               0.001567851               0.001132649               0.000000000               0.000000000               0.000000000               0.000000000               0.000207280               0.004254966               0.000084670              -0.000454140               0.001569688               0.001115548               0.000000000               0.000000000               0.000000000               0.000000000               0.000155414               0.004252928               0.000072000              -0.000473334               0.001575407               0.001102072               0.000000000               0.000000000               0.000000000               0.000000000               0.000102937               0.004262671               0.000055319              -0.000494231               0.001585620               0.001091389               0.000000000               0.000000000               0.000000000               0.000000000               0.000050255               0.004287969               0.000030966              -0.000517149               0.001601692               0.001084542               0.000000000               0.000000000               0.000000000               0.000000000               0.000031294               0.004318159               0.000013049              -0.000528033               0.001615383               0.001087350               0.000000000               0.000000000               0.000000000               0.000000000               0.001253120               0.006789281              -0.001984891              -0.000378741               0.002389318               0.002010577               0.000000000               0.000000000               0.000000000               0.000000000               0.000891755               0.005888538              -0.001248549              -0.000401659               0.002096713               0.001695053               0.000000000               0.000000000               0.000000000               0.000000000               0.000765719               0.005334099              -0.000511554              -0.000379617               0.001904554               0.001524937               0.000000000               0.000000000               0.000000000               0.000000000               0.000659605               0.004998104              -0.000204112              -0.000377410               0.001791821               0.001414411               0.000000000               0.000000000               0.000000000               0.000000000               0.000577904               0.004772811              -0.000069055              -0.000379886               0.001717550               0.001337663               0.000000000               0.000000000               0.000000000               0.000000000               0.000511167               0.004620397              -0.000010450              -0.000385861               0.001668737               0.001282876               0.000000000               0.000000000               0.000000000               0.000000000               0.000449856               0.004511664               0.000019358              -0.000395261               0.001635627               0.001240365               0.000000000               0.000000000               0.000000000               0.000000000               0.000393681               0.004430702               0.000037171              -0.000406206               0.001612288               0.001206081               0.000000000               0.000000000               0.000000000               0.000000000               0.000344105               0.004370322               0.000048315              -0.000417250               0.001595843               0.001178593               0.000000000               0.000000000               0.000000000               0.000000000               0.000299249               0.004326010               0.000052271              -0.000428532               0.001584833               0.001156301               0.000000000               0.000000000               0.000000000               0.000000000               0.000252848               0.004293862               0.000048604              -0.000441914               0.001578578               0.001136664               0.000000000               0.000000000               0.000000000               0.000000000               0.000206166               0.004273507               0.000041540              -0.000456875               0.001576780               0.001119905               0.000000000               0.000000000               0.000000000               0.000000000               0.000162416               0.004263003               0.000033330              -0.000471968               0.001578310               0.001106341               0.000000000               0.000000000               0.000000000               0.000000000               0.000120396               0.004263607               0.000024398              -0.000487801               0.001583789               0.001095987               0.000000000               0.000000000               0.000000000               0.000000000               0.000079072               0.004275204               0.000016205              -0.000504747               0.001593303               0.001088555               0.000000000               0.000000000               0.000000000               0.000000000               0.000039020               0.004297578               0.000007647              -0.000522564               0.001606700               0.001084136               0.000000000               0.000000000               0.000000000               0.000000000               0.000024755               0.004320624              -0.000000000              -0.000530794               0.001617125               0.001086331               0.000000000               0.000000000               0.000000000               0.000000000               0.001356598               0.005843394              -0.002110637              -0.000221702               0.002021679               0.001799977               0.000000000               0.000000000               0.000000000               0.000000000               0.000862709               0.005273789              -0.001367035              -0.000335708               0.001869814               0.001534106               0.000000000               0.000000000               0.000000000               0.000000000               0.000589695               0.005023172              -0.000620165              -0.000406760               0.001809961               0.001403200               0.000000000               0.000000000               0.000000000               0.000000000               0.000461887               0.004819378              -0.000312983              -0.000429213               0.001749514               0.001320301               0.000000000               0.000000000               0.000000000               0.000000000               0.000396585               0.004663087              -0.000174807              -0.000434165               0.001699069               0.001264903               0.000000000               0.000000000               0.000000000               0.000000000               0.000353416               0.004549566              -0.000110885              -0.000436164               0.001661895               0.001225731               0.000000000               0.000000000               0.000000000               0.000000000               0.000317930               0.004464702              -0.000078552              -0.000438863               0.001634507               0.001195644               0.000000000               0.000000000               0.000000000               0.000000000               0.000288349               0.004394135              -0.000056135              -0.000441135               0.001611742               0.001170607               0.000000000               0.000000000               0.000000000               0.000000000               0.000260693               0.004335791              -0.000038067              -0.000444213               0.001593320               0.001149107               0.000000000               0.000000000               0.000000000               0.000000000               0.000230006               0.004291314              -0.000026625              -0.000450161               0.001580477               0.001130317               0.000000000               0.000000000               0.000000000               0.000000000               0.000193485               0.004259930              -0.000023599              -0.000459933               0.001573274               0.001113340               0.000000000               0.000000000               0.000000000               0.000000000               0.000154034               0.004237135              -0.000024973              -0.000471878               0.001569657               0.001097779               0.000000000               0.000000000               0.000000000               0.000000000               0.000115507               0.004221161              -0.000025556              -0.000484329               0.001568483               0.001084154               0.000000000               0.000000000               0.000000000               0.000000000               0.000078650               0.004211386              -0.000021963              -0.000496928               0.001569424               0.001072496               0.000000000               0.000000000               0.000000000               0.000000000               0.000046514               0.004207195              -0.000014325              -0.000508455               0.001571869               0.001063414               0.000000000               0.000000000               0.000000000               0.000000000               0.000020670               0.004204012              -0.000006622              -0.000517749               0.001573906               0.001056157               0.000000000               0.000000000               0.000000000               0.000000000               0.000008950               0.004199901              -0.000003082              -0.000521630               0.001573830               0.001052200               0.000000000               0.000000000               0.000000000               0.000000000               0.001393135               0.004900997              -0.002088963              -0.000090201               0.001663716               0.001573515               0.000000000               0.000000000               0.000000000               0.000000000               0.000815612               0.004664851              -0.001415333              -0.000277253               0.001647352               0.001370099               0.000000000               0.000000000               0.000000000               0.000000000               0.000436013               0.004707023              -0.000727041              -0.000424872               0.001710616               0.001285744               0.000000000               0.000000000               0.000000000               0.000000000               0.000309906               0.004627846              -0.000438234              -0.000462265               0.001696688               0.001234423               0.000000000               0.000000000               0.000000000               0.000000000               0.000267838               0.004533789              -0.000299341              -0.000466283               0.001666676               0.001200392               0.000000000               0.000000000               0.000000000               0.000000000               0.000246821               0.004451637              -0.000224736              -0.000463896               0.001638496               0.001174600               0.000000000               0.000000000               0.000000000               0.000000000               0.000231983               0.004385728              -0.000182908              -0.000461221               0.001615635               0.001154414               0.000000000               0.000000000               0.000000000               0.000000000               0.000219153               0.004324042              -0.000153154              -0.000458322               0.001594107               0.001135785               0.000000000               0.000000000               0.000000000               0.000000000               0.000200499               0.004269087              -0.000125187              -0.000458447               0.001575830               0.001117383               0.000000000               0.000000000               0.000000000               0.000000000               0.000174971               0.004224774              -0.000101628              -0.000462481               0.001562404               0.001099923               0.000000000               0.000000000               0.000000000               0.000000000               0.000141907               0.004187867              -0.000086249              -0.000470267               0.001552698               0.001082430               0.000000000               0.000000000               0.000000000               0.000000000               0.000104514               0.004155302              -0.000075529              -0.000480219               0.001545160               0.001064941               0.000000000               0.000000000               0.000000000               0.000000000               0.000068538               0.004126454              -0.000062645              -0.000490104               0.001538839               0.001048735               0.000000000               0.000000000               0.000000000               0.000000000               0.000035714               0.004099960              -0.000045034              -0.000499101               0.001533007               0.001033906               0.000000000               0.000000000               0.000000000               0.000000000               0.000013534               0.004074049              -0.000024876              -0.000504179               0.001526062               0.001021883               0.000000000               0.000000000               0.000000000               0.000000000               0.000003020               0.004042985              -0.000008948              -0.000504239               0.001515728               0.001011488               0.000000000               0.000000000               0.000000000               0.000000000              -0.000004598               0.004017420              -0.000000602              -0.000503901               0.001507093               0.001003193               0.000000000               0.000000000               0.000000000               0.000000000               0.001358444               0.004012248              -0.001952343               0.000007883               0.001334774               0.001342657               0.000000000               0.000000000               0.000000000               0.000000000               0.000752017               0.004098269              -0.001409620              -0.000230278               0.001442835               0.001212557               0.000000000               0.000000000               0.000000000               0.000000000               0.000320886               0.004399764              -0.000829723              -0.000429638               0.001609786               0.001180148               0.000000000               0.000000000               0.000000000               0.000000000               0.000214650               0.004425770              -0.000562990              -0.000472726               0.001632817               0.001160091               0.000000000               0.000000000               0.000000000               0.000000000               0.000196126               0.004385903              -0.000419447              -0.000474689               0.001620183               0.001145493               0.000000000               0.000000000               0.000000000               0.000000000               0.000192008               0.004332853              -0.000329324              -0.000469603               0.001600804               0.001131201               0.000000000               0.000000000               0.000000000               0.000000000               0.000185664               0.004277109              -0.000271718              -0.000465014               0.001580693               0.001115680               0.000000000               0.000000000               0.000000000               0.000000000               0.000175687               0.004222490              -0.000231916              -0.000461927               0.001561459               0.001099531               0.000000000               0.000000000               0.000000000               0.000000000               0.000157875               0.004173427              -0.000193557              -0.000462474               0.001545286               0.001082812               0.000000000               0.000000000               0.000000000               0.000000000               0.000130003               0.004128349              -0.000157815              -0.000467292               0.001531866               0.001064575               0.000000000               0.000000000               0.000000000               0.000000000               0.000094693               0.004081807              -0.000128335              -0.000474715               0.001518827               0.001044112               0.000000000               0.000000000               0.000000000               0.000000000               0.000057539               0.004036208              -0.000103548              -0.000482948               0.001506372               0.001023424               0.000000000               0.000000000               0.000000000               0.000000000               0.000022264               0.003991575              -0.000078371              -0.000490597               0.001494044               0.001003447               0.000000000               0.000000000               0.000000000               0.000000000              -0.000007827               0.003945221              -0.000050097              -0.000496087               0.001480423               0.000984336               0.000000000               0.000000000               0.000000000               0.000000000              -0.000023408               0.003895963              -0.000024401              -0.000495772               0.001463899               0.000968126               0.000000000               0.000000000               0.000000000               0.000000000              -0.000019692               0.003843740              -0.000006638              -0.000487851               0.001443851               0.000956000               0.000000000               0.000000000               0.000000000               0.000000000              -0.000017952               0.003807103               0.000003676              -0.000482619               0.001429895               0.000947276               0.000000000               0.000000000               0.000000000               0.000000000               0.001285097               0.003238940              -0.001737710               0.000077041               0.001053955               0.001130996               0.000000000               0.000000000               0.000000000               0.000000000               0.000700731               0.003590234              -0.001374547              -0.000186006               0.001258734               0.001072728               0.000000000               0.000000000               0.000000000               0.000000000               0.000260471               0.004105643              -0.000941753              -0.000415528               0.001507043               0.001091515               0.000000000               0.000000000               0.000000000               0.000000000               0.000174272               0.004228896              -0.000689846              -0.000463259               0.001564038               0.001100778               0.000000000               0.000000000               0.000000000               0.000000000               0.000173170               0.004244281              -0.000534165              -0.000465596               0.001569945               0.001104349               0.000000000               0.000000000               0.000000000               0.000000000               0.000176303               0.004222001              -0.000427781              -0.000461635               0.001561198               0.001099563               0.000000000               0.000000000               0.000000000               0.000000000               0.000170512               0.004179729              -0.000352782              -0.000458523               0.001546070               0.001087547               0.000000000               0.000000000               0.000000000               0.000000000               0.000156170               0.004133667              -0.000299018              -0.000458143               0.001530590               0.001072446               0.000000000               0.000000000               0.000000000               0.000000000               0.000135383               0.004093733              -0.000253322              -0.000460947               0.001518213               0.001057266               0.000000000               0.000000000               0.000000000               0.000000000               0.000108334               0.004051261              -0.000209884              -0.000465781               0.001505667               0.001039886               0.000000000               0.000000000               0.000000000               0.000000000               0.000073663               0.004001248              -0.000170420              -0.000472531               0.001491246               0.001018715               0.000000000               0.000000000               0.000000000               0.000000000               0.000033279               0.003946154              -0.000133612              -0.000480788               0.001475634               0.000994846               0.000000000               0.000000000               0.000000000               0.000000000              -0.000006718               0.003888629              -0.000098755              -0.000488597               0.001459062               0.000970466               0.000000000               0.000000000               0.000000000               0.000000000              -0.000042333               0.003827400              -0.000064224              -0.000494299               0.001440554               0.000946255               0.000000000               0.000000000               0.000000000               0.000000000              -0.000067573               0.003759930              -0.000033937              -0.000495330               0.001418407               0.000923077               0.000000000               0.000000000               0.000000000               0.000000000              -0.000077338               0.003690266              -0.000011678              -0.000490284               0.001393504               0.000903221               0.000000000               0.000000000               0.000000000               0.000000000              -0.000078969               0.003647481               0.000000103              -0.000485547               0.001377664               0.000892117               0.000000000               0.000000000               0.000000000               0.000000000               0.001156451               0.002494671              -0.001487187               0.000121832               0.000790937               0.000912770               0.000000000               0.000000000               0.000000000               0.000000000               0.000679558               0.002994250              -0.001327004              -0.000119449               0.001037889               0.000918440               0.000000000               0.000000000               0.000000000               0.000000000               0.000272656               0.003660971              -0.001070384              -0.000355375               0.001338770               0.000983394               0.000000000               0.000000000               0.000000000               0.000000000               0.000187519               0.003908186              -0.000839159              -0.000418203               0.001442116               0.001023913               0.000000000               0.000000000               0.000000000               0.000000000               0.000185073               0.004005929              -0.000668330              -0.000431338               0.001479076               0.001047738               0.000000000               0.000000000               0.000000000               0.000000000               0.000188249               0.004038222              -0.000541388              -0.000434183               0.001490788               0.001056605               0.000000000               0.000000000               0.000000000               0.000000000               0.000180704               0.004034390              -0.000447925              -0.000436534               0.001490295               0.001053761               0.000000000               0.000000000               0.000000000               0.000000000               0.000168338               0.004010357              -0.000380329              -0.000438167               0.001482828               0.001044661               0.000000000               0.000000000               0.000000000               0.000000000               0.000149088               0.003980520              -0.000327293              -0.000441656               0.001474045               0.001032389               0.000000000               0.000000000               0.000000000               0.000000000               0.000120467               0.003949685              -0.000277376              -0.000448534               0.001466060               0.001017526               0.000000000               0.000000000               0.000000000               0.000000000               0.000084932               0.003912643              -0.000228858              -0.000457230               0.001456611               0.000999381               0.000000000               0.000000000               0.000000000               0.000000000               0.000042057               0.003863243              -0.000183226              -0.000467133               0.001443446               0.000976313               0.000000000               0.000000000               0.000000000               0.000000000              -0.000007200               0.003805715              -0.000138601              -0.000478413               0.001428030               0.000949617               0.000000000               0.000000000               0.000000000               0.000000000              -0.000060475               0.003746054              -0.000095096              -0.000490934               0.001412317               0.000921383               0.000000000               0.000000000               0.000000000               0.000000000              -0.000111882               0.003685128              -0.000056558              -0.000502595               0.001395896               0.000893300               0.000000000               0.000000000               0.000000000               0.000000000              -0.000157611               0.003619530              -0.000024279              -0.000511544               0.001377013               0.000865468               0.000000000               0.000000000               0.000000000               0.000000000              -0.000183262               0.003576790              -0.000006386              -0.000515821               0.001364192               0.000848371               0.000000000               0.000000000               0.000000000               0.000000000               0.000939364               0.001800963              -0.001211056               0.000127139               0.000557935               0.000685073               0.000000000               0.000000000               0.000000000               0.000000000               0.000651995               0.002397694              -0.001242177              -0.000055215               0.000817628               0.000762413               0.000000000               0.000000000               0.000000000               0.000000000               0.000330399               0.003157782              -0.001164432              -0.000270823               0.001142858               0.000872034               0.000000000               0.000000000               0.000000000               0.000000000               0.000246375               0.003525427              -0.000978606              -0.000348288               0.001291226               0.000942938               0.000000000               0.000000000               0.000000000               0.000000000               0.000232162               0.003719325              -0.000804375              -0.000377854               0.001365714               0.000987860               0.000000000               0.000000000               0.000000000               0.000000000               0.000232832               0.003819038              -0.000665685              -0.000390067               0.001403022               0.001012955               0.000000000               0.000000000               0.000000000               0.000000000               0.000226228               0.003862240              -0.000560972              -0.000397944               0.001420048               0.001022105               0.000000000               0.000000000               0.000000000               0.000000000               0.000212544               0.003872953              -0.000482179              -0.000404414               0.001425776               0.001021362               0.000000000               0.000000000               0.000000000               0.000000000               0.000194996               0.003873046              -0.000417713              -0.000411006               0.001428004               0.001016998               0.000000000               0.000000000               0.000000000               0.000000000               0.000169030               0.003864122              -0.000360529              -0.000419628               0.001427904               0.001008276               0.000000000               0.000000000               0.000000000               0.000000000               0.000134328               0.003842506              -0.000307889              -0.000429939               0.001424136               0.000994196               0.000000000               0.000000000               0.000000000               0.000000000               0.000089862               0.003805787              -0.000255465              -0.000442024               0.001415924               0.000973900               0.000000000               0.000000000               0.000000000               0.000000000               0.000034009               0.003761147              -0.000200009              -0.000457389               0.001406166               0.000948777               0.000000000               0.000000000               0.000000000               0.000000000              -0.000032262               0.003713860              -0.000144176              -0.000476330               0.001396718               0.000920388               0.000000000               0.000000000               0.000000000               0.000000000              -0.000107693               0.003664848              -0.000091746              -0.000498490               0.001387767               0.000889277               0.000000000               0.000000000               0.000000000               0.000000000              -0.000190120               0.003610645              -0.000043226              -0.000522624               0.001377744               0.000855120               0.000000000               0.000000000               0.000000000               0.000000000              -0.000247384               0.003568010              -0.000013835              -0.000538769               0.001368915               0.000830146               0.000000000               0.000000000               0.000000000               0.000000000               0.000656824               0.001203535              -0.000917380               0.000095865               0.000369219               0.000465084               0.000000000               0.000000000               0.000000000               0.000000000               0.000589286               0.001829672              -0.001099921              -0.000007728               0.000612460               0.000604732               0.000000000               0.000000000               0.000000000               0.000000000               0.000404402               0.002607310              -0.001173994              -0.000174264               0.000927182               0.000752918               0.000000000               0.000000000               0.000000000               0.000000000               0.000342937               0.003068050              -0.001051910              -0.000254905               0.001107641               0.000852736               0.000000000               0.000000000               0.000000000               0.000000000               0.000325488               0.003352510              -0.000898790              -0.000297006               0.001216494               0.000919488               0.000000000               0.000000000               0.000000000               0.000000000               0.000322927               0.003524414              -0.000763834              -0.000319454               0.001281277               0.000961823               0.000000000               0.000000000               0.000000000               0.000000000               0.000312453               0.003624432              -0.000654098              -0.000335884               0.001320093               0.000984209               0.000000000               0.000000000               0.000000000               0.000000000               0.000289995               0.003685312              -0.000566359              -0.000351915               0.001345730               0.000993815               0.000000000               0.000000000               0.000000000               0.000000000               0.000266361               0.003725200              -0.000495767              -0.000365764               0.001363642               0.000997878               0.000000000               0.000000000               0.000000000               0.000000000               0.000241881               0.003741633              -0.000434781              -0.000376998               0.001372865               0.000995866               0.000000000               0.000000000               0.000000000               0.000000000               0.000207712               0.003738757              -0.000377102              -0.000389452               0.001376057               0.000986606               0.000000000               0.000000000               0.000000000               0.000000000               0.000162832               0.003725914              -0.000317046              -0.000404676               0.001376851               0.000972175               0.000000000               0.000000000               0.000000000               0.000000000               0.000108378               0.003708199              -0.000253973              -0.000422882               0.001377015               0.000954133               0.000000000               0.000000000               0.000000000               0.000000000               0.000040325               0.003677447              -0.000188953              -0.000444558               0.001373989               0.000929432               0.000000000               0.000000000               0.000000000               0.000000000              -0.000040759               0.003639596              -0.000124307              -0.000470233               0.001369931               0.000899698               0.000000000               0.000000000               0.000000000               0.000000000              -0.000135090               0.003597807              -0.000060605              -0.000500384               0.001366052               0.000865668               0.000000000               0.000000000               0.000000000               0.000000000              -0.000206256               0.003561505              -0.000021886              -0.000522533               0.001361334               0.000838801               0.000000000               0.000000000               0.000000000               0.000000000               0.000328209               0.000737221              -0.000635451               0.000030924               0.000235429               0.000266354               0.000000000               0.000000000               0.000000000               0.000000000               0.000494283               0.001321448              -0.000908816               0.000020174               0.000433753               0.000453927               0.000000000               0.000000000               0.000000000               0.000000000               0.000482535               0.002056446              -0.001089065              -0.000076106               0.000710843               0.000634737               0.000000000               0.000000000               0.000000000               0.000000000               0.000467684               0.002571182              -0.001032937              -0.000146017               0.000905724               0.000759707               0.000000000               0.000000000               0.000000000               0.000000000               0.000459387               0.002925882              -0.000919631              -0.000193465               0.001039772               0.000846307               0.000000000               0.000000000               0.000000000               0.000000000               0.000449395               0.003168296              -0.000801364              -0.000227514               0.001131926               0.000904412               0.000000000               0.000000000               0.000000000               0.000000000               0.000425619               0.003330607              -0.000694115              -0.000256718               0.001195764               0.000939046               0.000000000               0.000000000               0.000000000               0.000000000               0.000395900               0.003446329              -0.000608846              -0.000282328               0.001242874               0.000960546               0.000000000               0.000000000               0.000000000               0.000000000               0.000367009               0.003528524              -0.000541660              -0.000303437               0.001277308               0.000973872               0.000000000               0.000000000               0.000000000               0.000000000               0.000336095               0.003576150              -0.000479424              -0.000320982               0.001299032               0.000978050               0.000000000               0.000000000               0.000000000               0.000000000               0.000298126               0.003605558              -0.000417023              -0.000338897               0.001314806               0.000975909               0.000000000               0.000000000               0.000000000               0.000000000               0.000256083               0.003628938              -0.000355554              -0.000357585               0.001328829               0.000971244               0.000000000               0.000000000               0.000000000               0.000000000               0.000208845               0.003638286              -0.000290912              -0.000376468               0.001338239               0.000961771               0.000000000               0.000000000               0.000000000               0.000000000               0.000152356               0.003628314              -0.000223362              -0.000396405               0.001341561               0.000945156               0.000000000               0.000000000               0.000000000               0.000000000               0.000086642               0.003607825              -0.000154302              -0.000418486               0.001342092               0.000923605               0.000000000               0.000000000               0.000000000               0.000000000               0.000007356               0.003582572              -0.000079750              -0.000445062               0.001342533               0.000897471               0.000000000               0.000000000               0.000000000               0.000000000              -0.000057668               0.003556994              -0.000033882              -0.000466248               0.001341069               0.000874821               0.000000000               0.000000000               0.000000000               0.000000000              -0.000012351               0.000400297              -0.000395840              -0.000054669               0.000151654               0.000096985               0.000000000               0.000000000               0.000000000               0.000000000               0.000375910               0.000901897              -0.000687061               0.000028228               0.000291219               0.000319447               0.000000000               0.000000000               0.000000000               0.000000000               0.000553233               0.001553271              -0.000911417               0.000013302               0.000513318               0.000526620               0.000000000               0.000000000               0.000000000               0.000000000               0.000601683               0.002084081              -0.000909030              -0.000034880               0.000706313               0.000671433               0.000000000               0.000000000               0.000000000               0.000000000               0.000609663               0.002491353              -0.000837675              -0.000082796               0.000858041               0.000775245               0.000000000               0.000000000               0.000000000               0.000000000               0.000595422               0.002794899              -0.000745119              -0.000126080               0.000973650               0.000847571               0.000000000               0.000000000               0.000000000               0.000000000               0.000563204               0.003015150              -0.000655358              -0.000165692               0.001060271               0.000894578               0.000000000               0.000000000               0.000000000               0.000000000               0.000524495               0.003179043              -0.000585427              -0.000200694               0.001126569               0.000925874               0.000000000               0.000000000               0.000000000               0.000000000               0.000482860               0.003299397              -0.000528477              -0.000231352               0.001176905               0.000945553               0.000000000               0.000000000               0.000000000               0.000000000               0.000440366               0.003386906              -0.000471436              -0.000258226               0.001215032               0.000956807               0.000000000               0.000000000               0.000000000               0.000000000               0.000399734               0.003457364              -0.000412406              -0.000282270               0.001246533               0.000964263               0.000000000               0.000000000               0.000000000               0.000000000               0.000360054               0.003515237              -0.000355467              -0.000304384               0.001273195               0.000968811               0.000000000               0.000000000               0.000000000               0.000000000               0.000320466               0.003553354              -0.000297442              -0.000323994               0.001292437               0.000968444               0.000000000               0.000000000               0.000000000               0.000000000               0.000283083               0.003571911              -0.000238305              -0.000340332               0.001304069               0.000963737               0.000000000               0.000000000               0.000000000               0.000000000               0.000245477               0.003575500              -0.000174598              -0.000354883               0.001310116               0.000955233               0.000000000               0.000000000               0.000000000               0.000000000               0.000199322               0.003567919              -0.000095899              -0.000371243               0.001313042               0.000941799               0.000000000               0.000000000               0.000000000               0.000000000               0.000158979               0.003553998              -0.000047358              -0.000384632               0.001312865               0.000928233               0.000000000               0.000000000               0.000000000               0.000000000              -0.000306780               0.000184108              -0.000214191              -0.000138056               0.000107387              -0.000030669               0.000000000               0.000000000               0.000000000               0.000000000               0.000261035               0.000594621              -0.000454730               0.000023560               0.000190352               0.000213911               0.000000000               0.000000000               0.000000000               0.000000000               0.000607427               0.001149960              -0.000654695               0.000084039               0.000355303               0.000439342               0.000000000               0.000000000               0.000000000               0.000000000               0.000720287               0.001673640              -0.000678912               0.000060902               0.000537574               0.000598475               0.000000000               0.000000000               0.000000000               0.000000000               0.000745541               0.002114423              -0.000643013               0.000015274               0.000699709               0.000714983               0.000000000               0.000000000               0.000000000               0.000000000               0.000731028               0.002461430              -0.000582190              -0.000033544               0.000831650               0.000798106               0.000000000               0.000000000               0.000000000               0.000000000               0.000696570               0.002723698              -0.000519542              -0.000079249               0.000934306               0.000855058               0.000000000               0.000000000               0.000000000               0.000000000               0.000649408               0.002924208              -0.000469933              -0.000121998               0.001015392               0.000893394               0.000000000               0.000000000               0.000000000               0.000000000               0.000596250               0.003081855              -0.000429502              -0.000161638               0.001081154               0.000919516               0.000000000               0.000000000               0.000000000               0.000000000               0.000544149               0.003206026              -0.000388002              -0.000196697               0.001134230               0.000937533               0.000000000               0.000000000               0.000000000               0.000000000               0.000500177               0.003308258              -0.000342629              -0.000225965               0.001178063               0.000952098               0.000000000               0.000000000               0.000000000               0.000000000               0.000463155               0.003393241              -0.000297624              -0.000250471               0.001214559               0.000964088               0.000000000               0.000000000               0.000000000               0.000000000               0.000434089               0.003459255              -0.000253908              -0.000269623               0.001242948               0.000973325               0.000000000               0.000000000               0.000000000               0.000000000               0.000414514               0.003507762              -0.000210337              -0.000283027               0.001263585               0.000980558               0.000000000               0.000000000               0.000000000               0.000000000               0.000402923               0.003538836              -0.000159941              -0.000291258               0.001276686               0.000985429               0.000000000               0.000000000               0.000000000               0.000000000               0.000398106               0.003552528              -0.000090926              -0.000294776               0.001282423               0.000987647               0.000000000               0.000000000               0.000000000               0.000000000               0.000397536               0.003553948              -0.000049404              -0.000295167               0.001283026               0.000987860               0.000000000               0.000000000               0.000000000               0.000000000              -0.000504460               0.000069810              -0.000090535              -0.000197898               0.000089235              -0.000108663               0.000000000               0.000000000               0.000000000               0.000000000               0.000182270               0.000411444              -0.000225697               0.000016920               0.000131506               0.000148427               0.000000000               0.000000000               0.000000000               0.000000000               0.000643633               0.000889641              -0.000342590               0.000130156               0.000253159               0.000383314               0.000000000               0.000000000               0.000000000               0.000000000               0.000805752               0.001399637              -0.000364507               0.000127201               0.000424141               0.000551342               0.000000000               0.000000000               0.000000000               0.000000000               0.000843276               0.001858644              -0.000350451               0.000083897               0.000591576               0.000675473               0.000000000               0.000000000               0.000000000               0.000000000               0.000826131               0.002229359              -0.000319722               0.000031129               0.000732736               0.000763865               0.000000000               0.000000000               0.000000000               0.000000000               0.000789456               0.002513898              -0.000287859              -0.000018191               0.000844021               0.000825830               0.000000000               0.000000000               0.000000000               0.000000000               0.000742018               0.002737268              -0.000262825              -0.000063902               0.000933714               0.000869812               0.000000000               0.000000000               0.000000000               0.000000000               0.000687911               0.002921113              -0.000242429              -0.000107172               0.001009419               0.000902246               0.000000000               0.000000000               0.000000000               0.000000000               0.000632504               0.003071204              -0.000221499              -0.000146711               0.001072628               0.000925917               0.000000000               0.000000000               0.000000000               0.000000000               0.000585370               0.003192700              -0.000196812              -0.000179573               0.001124080               0.000944507               0.000000000               0.000000000               0.000000000               0.000000000               0.000551062               0.003292565              -0.000171857              -0.000204922               0.001165818               0.000960896               0.000000000               0.000000000               0.000000000               0.000000000               0.000530191               0.003374156              -0.000148427              -0.000222947               0.001199023               0.000976076               0.000000000               0.000000000               0.000000000               0.000000000               0.000522915               0.003441532              -0.000123377              -0.000234098               0.001225199               0.000991101               0.000000000               0.000000000               0.000000000               0.000000000               0.000531147               0.003495867              -0.000094129              -0.000237803               0.001244545               0.001006742               0.000000000               0.000000000               0.000000000               0.000000000               0.000560431               0.003532715              -0.000053605              -0.000231427               0.001254702               0.001023275               0.000000000               0.000000000               0.000000000               0.000000000               0.000594432               0.003549968              -0.000029613              -0.000220834               0.001256922               0.001036089               0.000000000               0.000000000               0.000000000               0.000000000              -0.000574347               0.000032943               0.000000000              -0.000219498               0.000084146              -0.000135352               0.000000000               0.000000000               0.000000000               0.000000000               0.000155631               0.000350655              -0.000000000               0.000014529               0.000112041               0.000126570               0.000000000               0.000000000               0.000000000               0.000000000               0.000658121               0.000801860              -0.000000000               0.000146562               0.000218430               0.000364992               0.000000000               0.000000000               0.000000000               0.000000000               0.000838198               0.001303676               0.000000000               0.000151363               0.000384100               0.000535463               0.000000000               0.000000000               0.000000000               0.000000000               0.000876897               0.001763724               0.000000000               0.000108370               0.000551779               0.000660149               0.000000000               0.000000000               0.000000000               0.000000000               0.000859052               0.002144242               0.000000000               0.000054114               0.000696702               0.000750816               0.000000000               0.000000000               0.000000000               0.000000000               0.000823635               0.002439172               0.000000000               0.000003967               0.000811727               0.000815694               0.000000000               0.000000000               0.000000000               0.000000000               0.000778015               0.002668561               0.000000000              -0.000041814               0.000903450               0.000861635               0.000000000               0.000000000               0.000000000               0.000000000               0.000725420               0.002860858              -0.000000000              -0.000085574               0.000982135               0.000896560               0.000000000               0.000000000               0.000000000               0.000000000               0.000669989               0.003022128              -0.000000000              -0.000126520               0.001049539               0.000923020               0.000000000               0.000000000               0.000000000               0.000000000               0.000621023               0.003149252               0.000000000              -0.000160772               0.001103331               0.000942558               0.000000000               0.000000000               0.000000000               0.000000000               0.000588223               0.003252321               0.000000000              -0.000185956               0.001146081               0.000960126               0.000000000               0.000000000               0.000000000               0.000000000               0.000569415               0.003337231               0.000000000              -0.000203623               0.001180274               0.000976651               0.000000000               0.000000000               0.000000000               0.000000000               0.000566189               0.003409038               0.000000000              -0.000213808               0.001207604               0.000993796               0.000000000               0.000000000               0.000000000               0.000000000               0.000583123               0.003472176               0.000000000              -0.000215350               0.001229164               0.001013814               0.000000000               0.000000000               0.000000000               0.000000000               0.000625031               0.003519731               0.000000000              -0.000205579               0.001241759               0.001036179               0.000000000               0.000000000               0.000000000               0.000000000               0.000670997               0.003543904              -0.000000000              -0.000191364               0.001245077               0.001053714               0.000000000               0.000000000               0.000000000               0.000000000               0.000000000               0.000000000               0.000000000               0.000000000               0.000000000               0.000000000               0.000000000               0.000000000               0.000000000               0.000000000               0.000000000               0.000000000               0.000000000               0.000000000               0.000000000               0.000000000               0.000000000               0.000000000               0.000000000               0.000000000               0.000000000               0.000000000               0.000000000               0.000000000               0.000000000               0.000000000               0.000000000               0.000000000               0.000000000               0.000000000               0.000000000               0.000000000               0.000000000               0.000000000               0.000000000               0.000000000               0.000000000               0.000000000               0.000000000               0.000000000               0.000000000               0.000000000               0.000000000               0.000000000               0.000000000               0.000000000               0.000000000               0.000000000               0.000000000               0.000000000               0.000000000               0.000000000               0.000000000               0.000000000               0.000000000               0.000000000               0.000000000               0.000000000               0.000000000               0.000000000               0.000000000               0.000000000               0.000000000               0.000000000               0.000000000               0.000000000               0.000000000               0.000000000               0.000000000               0.000000000               0.000000000               0.000000000               0.000000000               0.000000000               0.000000000               0.000000000               0.000000000               0.000000000               0.000000000               0.000000000               0.000000000               0.000000000               0.000000000               0.000000000               0.000000000               0.000000000               0.000000000               0.000000000               0.000000000               0.000000000               0.000000000               0.000000000               0.000000000               0.000000000               0.000000000               0.000000000               0.000000000               0.000000000               0.000000000               0.000000000               0.000000000               0.000000000               0.000000000               0.000000000               0.000000000               0.000000000               0.000000000               0.000000000               0.000000000               0.000000000               0.000000000               0.000000000               0.000000000               0.000000000               0.000000000               0.000000000               0.000000000               0.000000000               0.000000000               0.000000000               0.000000000               0.000000000               0.000000000               0.000000000               0.000000000               0.000000000               0.000000000               0.000000000               0.000000000               0.000000000               0.000000000               0.000000000               0.000000000               0.000000000               0.000000000               0.000000000               0.000000000               0.000000000               0.000000000               0.000000000               0.000000000               0.000000000               0.000000000               0.000000000               0.000000000               0.000000000               0.000000000               0.000000000               0.000000000               0.000000000               0.000000000               0.000000000               0.000000000               0.000000000               0.000000000               0.000000000               0.000000000               0.000000000               0.000000000               0.000000000               0.000000000               0.000000000               0.000000000               0.000000000               0.000000000               0.000000000               0.000000000               0.000000000               0.000000000               0.000000000               0.000835319               0.008795245               0.000656436              -0.000786159               0.003193772               0.002407613               0.000000000               0.000000000               0.000000000               0.000000000               0.000870664               0.007231089               0.000400629              -0.000577386               0.002602801               0.002025415               0.000000000               0.000000000               0.000000000               0.000000000               0.001167713               0.005997081               0.000137982              -0.000311742               0.002102921               0.001791179               0.000000000               0.000000000               0.000000000               0.000000000               0.001193463               0.005324222               0.000018141              -0.000217979               0.001847383               0.001629404               0.000000000               0.000000000               0.000000000               0.000000000               0.001123716               0.004927722              -0.000035289              -0.000194571               0.001707415               0.001512843               0.000000000               0.000000000               0.000000000               0.000000000               0.001020657               0.004673168              -0.000057234              -0.000201399               0.001624840               0.001423441               0.000000000               0.000000000               0.000000000               0.000000000               0.000905253               0.004503006              -0.000067369              -0.000223405               0.001575456               0.001352050               0.000000000               0.000000000               0.000000000               0.000000000               0.000789256               0.004389578              -0.000072028              -0.000252726               0.001547420               0.001294694               0.000000000               0.000000000               0.000000000               0.000000000               0.000677831               0.004313107              -0.000072267              -0.000284951               0.001532672               0.001247721               0.000000000               0.000000000               0.000000000               0.000000000               0.000571819               0.004261378              -0.000070164              -0.000318239               0.001526525               0.001208286               0.000000000               0.000000000               0.000000000               0.000000000               0.000469250               0.004224076              -0.000067387              -0.000352040               0.001525358               0.001173318               0.000000000               0.000000000               0.000000000               0.000000000               0.000372794               0.004195827              -0.000063947              -0.000384680               0.001526821               0.001142142               0.000000000               0.000000000               0.000000000               0.000000000               0.000285483               0.004173593              -0.000059572              -0.000414642               0.001529398               0.001114756               0.000000000               0.000000000               0.000000000               0.000000000               0.000203268               0.004151921              -0.000053367              -0.000442763               0.001531548               0.001088784               0.000000000               0.000000000               0.000000000               0.000000000               0.000128282               0.004128184              -0.000042366              -0.000467916               0.001532020               0.001064104               0.000000000               0.000000000               0.000000000               0.000000000               0.000061693               0.004098564              -0.000024985              -0.000489185               0.001529236               0.001040051               0.000000000               0.000000000               0.000000000               0.000000000               0.000029144               0.004077333              -0.000014399              -0.000498736               0.001525343               0.001026607               0.000000000               0.000000000               0.000000000               0.000000000               0.000952564               0.008346907               0.001242115              -0.000686151               0.003010991               0.002324841               0.000000000               0.000000000               0.000000000               0.000000000               0.000888521               0.006926152               0.000760413              -0.000532573               0.002486218               0.001953646               0.000000000               0.000000000               0.000000000               0.000000000               0.001080135               0.005845114               0.000270570              -0.000325588               0.002056881               0.001731293               0.000000000               0.000000000               0.000000000               0.000000000               0.001064683               0.005253675               0.000054192              -0.000257452               0.001837025               0.001579573               0.000000000               0.000000000               0.000000000               0.000000000               0.000983513               0.004901442              -0.000039313              -0.000243862               0.001715085               0.001471223               0.000000000               0.000000000               0.000000000               0.000000000               0.000883194               0.004672198              -0.000078279              -0.000252826               0.001641659               0.001388833               0.000000000               0.000000000               0.000000000               0.000000000               0.000778309               0.004519006              -0.000097655              -0.000273009               0.001597323               0.001324314               0.000000000               0.000000000               0.000000000               0.000000000               0.000676283               0.004415462              -0.000106845              -0.000298326               0.001571248               0.001272922               0.000000000               0.000000000               0.000000000               0.000000000               0.000578220               0.004344136              -0.000109948              -0.000326184               0.001556759               0.001230575               0.000000000               0.000000000               0.000000000               0.000000000               0.000486790               0.004295541              -0.000109301              -0.000354396               0.001549965               0.001195569               0.000000000               0.000000000               0.000000000               0.000000000               0.000401450               0.004260436              -0.000105399              -0.000382010               0.001547468               0.001165458               0.000000000               0.000000000               0.000000000               0.000000000               0.000321373               0.004232730              -0.000100620              -0.000408575               0.001547088               0.001138512               0.000000000               0.000000000               0.000000000               0.000000000               0.000250205               0.004213707              -0.000093604              -0.000432885               0.001548850               0.001115965               0.000000000               0.000000000               0.000000000               0.000000000               0.000183333               0.004199981              -0.000083009              -0.000456246               0.001552062               0.001095815               0.000000000               0.000000000               0.000000000               0.000000000               0.000119581               0.004192954              -0.000065778              -0.000479275               0.001557396               0.001078121               0.000000000               0.000000000               0.000000000               0.000000000               0.000058465               0.004192993              -0.000038479              -0.000502199               0.001565050               0.001062851               0.000000000               0.000000000               0.000000000               0.000000000               0.000031706               0.004200492              -0.000020509              -0.000513171               0.001571207               0.001058036               0.000000000               0.000000000               0.000000000               0.000000000               0.001107284               0.007654887               0.001693947              -0.000541629               0.002732146               0.002190517               0.000000000               0.000000000               0.000000000               0.000000000               0.000899927               0.006460050               0.001046469              -0.000470033               0.002310006               0.001839973               0.000000000               0.000000000               0.000000000               0.000000000               0.000938651               0.005616055               0.000395898              -0.000350012               0.001988670               0.001638658               0.000000000               0.000000000               0.000000000               0.000000000               0.000873238               0.005144779               0.000117775              -0.000315632               0.001820120               0.001504488               0.000000000               0.000000000               0.000000000               0.000000000               0.000787990               0.004851832              -0.000003240              -0.000310982               0.001720922               0.001409940               0.000000000               0.000000000               0.000000000               0.000000000               0.000700816               0.004658925              -0.000054813              -0.000319559               0.001659479               0.001339920               0.000000000               0.000000000               0.000000000               0.000000000               0.000613072               0.004526389              -0.000081850              -0.000335896               0.001620747               0.001284851               0.000000000               0.000000000               0.000000000               0.000000000               0.000531676               0.004434401              -0.000096280              -0.000354921               0.001596426               0.001241505               0.000000000               0.000000000               0.000000000               0.000000000               0.000456435               0.004370819              -0.000102706              -0.000375188               0.001581988               0.001206800               0.000000000               0.000000000               0.000000000               0.000000000               0.000387634               0.004326087              -0.000104243              -0.000395397               0.001573814               0.001178417               0.000000000               0.000000000               0.000000000               0.000000000               0.000323330               0.004292446              -0.000100028              -0.000415306               0.001569236               0.001153930               0.000000000               0.000000000               0.000000000               0.000000000               0.000262255               0.004268394              -0.000093614              -0.000435203               0.001567851               0.001132649               0.000000000               0.000000000               0.000000000               0.000000000               0.000207280               0.004254966              -0.000084670              -0.000454140               0.001569688               0.001115548               0.000000000               0.000000000               0.000000000               0.000000000               0.000155414               0.004252928              -0.000072000              -0.000473334               0.001575407               0.001102072               0.000000000               0.000000000               0.000000000               0.000000000               0.000102937               0.004262671              -0.000055319              -0.000494231               0.001585620               0.001091389               0.000000000               0.000000000               0.000000000               0.000000000               0.000050255               0.004287969              -0.000030966              -0.000517149               0.001601692               0.001084542               0.000000000               0.000000000               0.000000000               0.000000000               0.000031294               0.004318159              -0.000013049              -0.000528033               0.001615383               0.001087350               0.000000000               0.000000000               0.000000000               0.000000000               0.001253120               0.006789281               0.001984891              -0.000378741               0.002389318               0.002010577               0.000000000               0.000000000               0.000000000               0.000000000               0.000891755               0.005888538               0.001248549              -0.000401659               0.002096713               0.001695053               0.000000000               0.000000000               0.000000000               0.000000000               0.000765719               0.005334099               0.000511554              -0.000379617               0.001904554               0.001524937               0.000000000               0.000000000               0.000000000               0.000000000               0.000659605               0.004998104               0.000204112              -0.000377410               0.001791821               0.001414411               0.000000000               0.000000000               0.000000000               0.000000000               0.000577904               0.004772811               0.000069055              -0.000379886               0.001717550               0.001337663               0.000000000               0.000000000               0.000000000               0.000000000               0.000511167               0.004620397               0.000010450              -0.000385861               0.001668737               0.001282876               0.000000000               0.000000000               0.000000000               0.000000000               0.000449856               0.004511664              -0.000019358              -0.000395261               0.001635627               0.001240365               0.000000000               0.000000000               0.000000000               0.000000000               0.000393681               0.004430702              -0.000037171              -0.000406206               0.001612288               0.001206081               0.000000000               0.000000000               0.000000000               0.000000000               0.000344105               0.004370322              -0.000048315              -0.000417250               0.001595843               0.001178593               0.000000000               0.000000000               0.000000000               0.000000000               0.000299249               0.004326010              -0.000052271              -0.000428532               0.001584833               0.001156301               0.000000000               0.000000000               0.000000000               0.000000000               0.000252848               0.004293862              -0.000048604              -0.000441914               0.001578578               0.001136664               0.000000000               0.000000000               0.000000000               0.000000000               0.000206166               0.004273507              -0.000041540              -0.000456875               0.001576780               0.001119905               0.000000000               0.000000000               0.000000000               0.000000000               0.000162416               0.004263003              -0.000033330              -0.000471968               0.001578310               0.001106341               0.000000000               0.000000000               0.000000000               0.000000000               0.000120396               0.004263607              -0.000024398              -0.000487801               0.001583789               0.001095987               0.000000000               0.000000000               0.000000000               0.000000000               0.000079072               0.004275204              -0.000016205              -0.000504747               0.001593303               0.001088555               0.000000000               0.000000000               0.000000000               0.000000000               0.000039020               0.004297578              -0.000007647              -0.000522564               0.001606700               0.001084136               0.000000000               0.000000000               0.000000000               0.000000000               0.000024755               0.004320624               0.000000000              -0.000530794               0.001617125               0.001086331               0.000000000               0.000000000               0.000000000               0.000000000               0.001356598               0.005843394               0.002110637              -0.000221702               0.002021679               0.001799977               0.000000000               0.000000000               0.000000000               0.000000000               0.000862709               0.005273789               0.001367035              -0.000335708               0.001869814               0.001534106               0.000000000               0.000000000               0.000000000               0.000000000               0.000589695               0.005023172               0.000620165              -0.000406760               0.001809961               0.001403200               0.000000000               0.000000000               0.000000000               0.000000000               0.000461887               0.004819378               0.000312983              -0.000429213               0.001749514               0.001320301               0.000000000               0.000000000               0.000000000               0.000000000               0.000396585               0.004663087               0.000174807              -0.000434165               0.001699069               0.001264903               0.000000000               0.000000000               0.000000000               0.000000000               0.000353416               0.004549566               0.000110885              -0.000436164               0.001661895               0.001225731               0.000000000               0.000000000               0.000000000               0.000000000               0.000317930               0.004464702               0.000078552              -0.000438863               0.001634507               0.001195644               0.000000000               0.000000000               0.000000000               0.000000000               0.000288349               0.004394135               0.000056135              -0.000441135               0.001611742               0.001170607               0.000000000               0.000000000               0.000000000               0.000000000               0.000260693               0.004335791               0.000038067              -0.000444213               0.001593320               0.001149107               0.000000000               0.000000000               0.000000000               0.000000000               0.000230006               0.004291314               0.000026625              -0.000450161               0.001580477               0.001130317               0.000000000               0.000000000               0.000000000               0.000000000               0.000193485               0.004259930               0.000023599              -0.000459933               0.001573274               0.001113340               0.000000000               0.000000000               0.000000000               0.000000000               0.000154034               0.004237135               0.000024973              -0.000471878               0.001569657               0.001097779               0.000000000               0.000000000               0.000000000               0.000000000               0.000115507               0.004221161               0.000025556              -0.000484329               0.001568483               0.001084154               0.000000000               0.000000000               0.000000000               0.000000000               0.000078650               0.004211386               0.000021963              -0.000496928               0.001569424               0.001072496               0.000000000               0.000000000               0.000000000               0.000000000               0.000046514               0.004207195               0.000014325              -0.000508455               0.001571869               0.001063414               0.000000000               0.000000000               0.000000000               0.000000000               0.000020670               0.004204012               0.000006622              -0.000517749               0.001573906               0.001056157               0.000000000               0.000000000               0.000000000               0.000000000               0.000008950               0.004199901               0.000003082              -0.000521630               0.001573830               0.001052200               0.000000000               0.000000000               0.000000000               0.000000000               0.001393135               0.004900997               0.002088963              -0.000090201               0.001663716               0.001573515               0.000000000               0.000000000               0.000000000               0.000000000               0.000815612               0.004664851               0.001415333              -0.000277253               0.001647352               0.001370099               0.000000000               0.000000000               0.000000000               0.000000000               0.000436013               0.004707023               0.000727041              -0.000424872               0.001710616               0.001285744               0.000000000               0.000000000               0.000000000               0.000000000               0.000309906               0.004627846               0.000438234              -0.000462265               0.001696688               0.001234423               0.000000000               0.000000000               0.000000000               0.000000000               0.000267838               0.004533789               0.000299341              -0.000466283               0.001666676               0.001200392               0.000000000               0.000000000               0.000000000               0.000000000               0.000246821               0.004451637               0.000224736              -0.000463896               0.001638496               0.001174600               0.000000000               0.000000000               0.000000000               0.000000000               0.000231983               0.004385728               0.000182908              -0.000461221               0.001615635               0.001154414               0.000000000               0.000000000               0.000000000               0.000000000               0.000219153               0.004324042               0.000153154              -0.000458322               0.001594107               0.001135785               0.000000000               0.000000000               0.000000000               0.000000000               0.000200499               0.004269087               0.000125187              -0.000458447               0.001575830               0.001117383               0.000000000               0.000000000               0.000000000               0.000000000               0.000174971               0.004224774               0.000101628              -0.000462481               0.001562404               0.001099923               0.000000000               0.000000000               0.000000000               0.000000000               0.000141907               0.004187867               0.000086249              -0.000470267               0.001552698               0.001082430               0.000000000               0.000000000               0.000000000               0.000000000               0.000104514               0.004155302               0.000075529              -0.000480219               0.001545160               0.001064941               0.000000000               0.000000000               0.000000000               0.000000000               0.000068538               0.004126454               0.000062645              -0.000490104               0.001538839               0.001048735               0.000000000               0.000000000               0.000000000               0.000000000               0.000035714               0.004099960               0.000045034              -0.000499101               0.001533007               0.001033906               0.000000000               0.000000000               0.000000000               0.000000000               0.000013534               0.004074049               0.000024876              -0.000504179               0.001526062               0.001021883               0.000000000               0.000000000               0.000000000               0.000000000               0.000003020               0.004042985               0.000008948              -0.000504239               0.001515728               0.001011488               0.000000000               0.000000000               0.000000000               0.000000000              -0.000004598               0.004017420               0.000000602              -0.000503901               0.001507093               0.001003193               0.000000000               0.000000000               0.000000000               0.000000000               0.001358444               0.004012248               0.001952343               0.000007883               0.001334774               0.001342657               0.000000000               0.000000000               0.000000000               0.000000000               0.000752017               0.004098269               0.001409620              -0.000230278               0.001442835               0.001212557               0.000000000               0.000000000               0.000000000               0.000000000               0.000320886               0.004399764               0.000829723              -0.000429638               0.001609786               0.001180148               0.000000000               0.000000000               0.000000000               0.000000000               0.000214650               0.004425770               0.000562990              -0.000472726               0.001632817               0.001160091               0.000000000               0.000000000               0.000000000               0.000000000               0.000196126               0.004385903               0.000419447              -0.000474689               0.001620183               0.001145493               0.000000000               0.000000000               0.000000000               0.000000000               0.000192008               0.004332853               0.000329324              -0.000469603               0.001600804               0.001131201               0.000000000               0.000000000               0.000000000               0.000000000               0.000185664               0.004277109               0.000271718              -0.000465014               0.001580693               0.001115680               0.000000000               0.000000000               0.000000000               0.000000000               0.000175687               0.004222490               0.000231916              -0.000461927               0.001561459               0.001099531               0.000000000               0.000000000               0.000000000               0.000000000               0.000157875               0.004173427               0.000193557              -0.000462474               0.001545286               0.001082812               0.000000000               0.000000000               0.000000000               0.000000000               0.000130003               0.004128349               0.000157815              -0.000467292               0.001531866               0.001064575               0.000000000               0.000000000               0.000000000               0.000000000               0.000094693               0.004081807               0.000128335              -0.000474715               0.001518827               0.001044112               0.000000000               0.000000000               0.000000000               0.000000000               0.000057539               0.004036208               0.000103548              -0.000482948               0.001506372               0.001023424               0.000000000               0.000000000               0.000000000               0.000000000               0.000022264               0.003991575               0.000078371              -0.000490597               0.001494044               0.001003447               0.000000000               0.000000000               0.000000000               0.000000000              -0.000007827               0.003945221               0.000050097              -0.000496087               0.001480423               0.000984336               0.000000000               0.000000000               0.000000000               0.000000000              -0.000023408               0.003895963               0.000024401              -0.000495772               0.001463899               0.000968126               0.000000000               0.000000000               0.000000000               0.000000000              -0.000019692               0.003843740               0.000006638              -0.000487851               0.001443851               0.000956000               0.000000000               0.000000000               0.000000000               0.000000000              -0.000017952               0.003807103              -0.000003676              -0.000482619               0.001429895               0.000947276               0.000000000               0.000000000               0.000000000               0.000000000               0.001285097               0.003238940               0.001737710               0.000077041               0.001053955               0.001130996               0.000000000               0.000000000               0.000000000               0.000000000               0.000700731               0.003590234               0.001374547              -0.000186006               0.001258734               0.001072728               0.000000000               0.000000000               0.000000000               0.000000000               0.000260471               0.004105643               0.000941753              -0.000415528               0.001507043               0.001091515               0.000000000               0.000000000               0.000000000               0.000000000               0.000174272               0.004228896               0.000689846              -0.000463259               0.001564038               0.001100778               0.000000000               0.000000000               0.000000000               0.000000000               0.000173170               0.004244281               0.000534165              -0.000465596               0.001569945               0.001104349               0.000000000               0.000000000               0.000000000               0.000000000               0.000176303               0.004222001               0.000427781              -0.000461635               0.001561198               0.001099563               0.000000000               0.000000000               0.000000000               0.000000000               0.000170512               0.004179729               0.000352782              -0.000458523               0.001546070               0.001087547               0.000000000               0.000000000               0.000000000               0.000000000               0.000156170               0.004133667               0.000299018              -0.000458143               0.001530590               0.001072446               0.000000000               0.000000000               0.000000000               0.000000000               0.000135383               0.004093733               0.000253322              -0.000460947               0.001518213               0.001057266               0.000000000               0.000000000               0.000000000               0.000000000               0.000108334               0.004051261               0.000209884              -0.000465781               0.001505667               0.001039886               0.000000000               0.000000000               0.000000000               0.000000000               0.000073663               0.004001248               0.000170420              -0.000472531               0.001491246               0.001018715               0.000000000               0.000000000               0.000000000               0.000000000               0.000033279               0.003946154               0.000133612              -0.000480788               0.001475634               0.000994846               0.000000000               0.000000000               0.000000000               0.000000000              -0.000006718               0.003888629               0.000098755              -0.000488597               0.001459062               0.000970466               0.000000000               0.000000000               0.000000000               0.000000000              -0.000042333               0.003827400               0.000064224              -0.000494299               0.001440554               0.000946255               0.000000000               0.000000000               0.000000000               0.000000000              -0.000067573               0.003759930               0.000033937              -0.000495330               0.001418407               0.000923077               0.000000000               0.000000000               0.000000000               0.000000000              -0.000077338               0.003690266               0.000011678              -0.000490284               0.001393504               0.000903221               0.000000000               0.000000000               0.000000000               0.000000000              -0.000078969               0.003647481              -0.000000103              -0.000485547               0.001377664               0.000892117               0.000000000               0.000000000               0.000000000               0.000000000               0.001156451               0.002494671               0.001487187               0.000121832               0.000790937               0.000912770               0.000000000               0.000000000               0.000000000               0.000000000               0.000679558               0.002994250               0.001327004              -0.000119449               0.001037889               0.000918440               0.000000000               0.000000000               0.000000000               0.000000000               0.000272656               0.003660971               0.001070384              -0.000355375               0.001338770               0.000983394               0.000000000               0.000000000               0.000000000               0.000000000               0.000187519               0.003908186               0.000839159              -0.000418203               0.001442116               0.001023913               0.000000000               0.000000000               0.000000000               0.000000000               0.000185073               0.004005929               0.000668330              -0.000431338               0.001479076               0.001047738               0.000000000               0.000000000               0.000000000               0.000000000               0.000188249               0.004038222               0.000541388              -0.000434183               0.001490788               0.001056605               0.000000000               0.000000000               0.000000000               0.000000000               0.000180704               0.004034390               0.000447925              -0.000436534               0.001490295               0.001053761               0.000000000               0.000000000               0.000000000               0.000000000               0.000168338               0.004010357               0.000380329              -0.000438167               0.001482828               0.001044661               0.000000000               0.000000000               0.000000000               0.000000000               0.000149088               0.003980520               0.000327293              -0.000441656               0.001474045               0.001032389               0.000000000               0.000000000               0.000000000               0.000000000               0.000120467               0.003949685               0.000277376              -0.000448534               0.001466060               0.001017526               0.000000000               0.000000000               0.000000000               0.000000000               0.000084932               0.003912643               0.000228858              -0.000457230               0.001456611               0.000999381               0.000000000               0.000000000               0.000000000               0.000000000               0.000042057               0.003863243               0.000183226              -0.000467133               0.001443446               0.000976313               0.000000000               0.000000000               0.000000000               0.000000000              -0.000007200               0.003805715               0.000138601              -0.000478413               0.001428030               0.000949617               0.000000000               0.000000000               0.000000000               0.000000000              -0.000060475               0.003746054               0.000095096              -0.000490934               0.001412317               0.000921383               0.000000000               0.000000000               0.000000000               0.000000000              -0.000111882               0.003685128               0.000056558              -0.000502595               0.001395896               0.000893300               0.000000000               0.000000000               0.000000000               0.000000000              -0.000157611               0.003619530               0.000024279              -0.000511544               0.001377013               0.000865468               0.000000000               0.000000000               0.000000000               0.000000000              -0.000183262               0.003576790               0.000006386              -0.000515821               0.001364192               0.000848371               0.000000000               0.000000000               0.000000000               0.000000000               0.000939364               0.001800963               0.001211056               0.000127139               0.000557935               0.000685073               0.000000000               0.000000000               0.000000000               0.000000000               0.000651995               0.002397694               0.001242177              -0.000055215               0.000817628               0.000762413               0.000000000               0.000000000               0.000000000               0.000000000               0.000330399               0.003157782               0.001164432              -0.000270823               0.001142858               0.000872034               0.000000000               0.000000000               0.000000000               0.000000000               0.000246375               0.003525427               0.000978606              -0.000348288               0.001291226               0.000942938               0.000000000               0.000000000               0.000000000               0.000000000               0.000232162               0.003719325               0.000804375              -0.000377854               0.001365714               0.000987860               0.000000000               0.000000000               0.000000000               0.000000000               0.000232832               0.003819038               0.000665685              -0.000390067               0.001403022               0.001012955               0.000000000               0.000000000               0.000000000               0.000000000               0.000226228               0.003862240               0.000560972              -0.000397944               0.001420048               0.001022105               0.000000000               0.000000000               0.000000000               0.000000000               0.000212544               0.003872953               0.000482179              -0.000404414               0.001425776               0.001021362               0.000000000               0.000000000               0.000000000               0.000000000               0.000194996               0.003873046               0.000417713              -0.000411006               0.001428004               0.001016998               0.000000000               0.000000000               0.000000000               0.000000000               0.000169030               0.003864122               0.000360529              -0.000419628               0.001427904               0.001008276               0.000000000               0.000000000               0.000000000               0.000000000               0.000134328               0.003842506               0.000307889              -0.000429939               0.001424136               0.000994196               0.000000000               0.000000000               0.000000000               0.000000000               0.000089862               0.003805787               0.000255465              -0.000442024               0.001415924               0.000973900               0.000000000               0.000000000               0.000000000               0.000000000               0.000034009               0.003761147               0.000200009              -0.000457389               0.001406166               0.000948777               0.000000000               0.000000000               0.000000000               0.000000000              -0.000032262               0.003713860               0.000144176              -0.000476330               0.001396718               0.000920388               0.000000000               0.000000000               0.000000000               0.000000000              -0.000107693               0.003664848               0.000091746              -0.000498490               0.001387767               0.000889277               0.000000000               0.000000000               0.000000000               0.000000000              -0.000190120               0.003610645               0.000043226              -0.000522624               0.001377744               0.000855120               0.000000000               0.000000000               0.000000000               0.000000000              -0.000247384               0.003568010               0.000013835              -0.000538769               0.001368915               0.000830146               0.000000000               0.000000000               0.000000000               0.000000000               0.000656824               0.001203535               0.000917380               0.000095865               0.000369219               0.000465084               0.000000000               0.000000000               0.000000000               0.000000000               0.000589286               0.001829672               0.001099921              -0.000007728               0.000612460               0.000604732               0.000000000               0.000000000               0.000000000               0.000000000               0.000404402               0.002607310               0.001173994              -0.000174264               0.000927182               0.000752918               0.000000000               0.000000000               0.000000000               0.000000000               0.000342937               0.003068050               0.001051910              -0.000254905               0.001107641               0.000852736               0.000000000               0.000000000               0.000000000               0.000000000               0.000325488               0.003352510               0.000898790              -0.000297006               0.001216494               0.000919488               0.000000000               0.000000000               0.000000000               0.000000000               0.000322927               0.003524414               0.000763834              -0.000319454               0.001281277               0.000961823               0.000000000               0.000000000               0.000000000               0.000000000               0.000312453               0.003624432               0.000654098              -0.000335884               0.001320093               0.000984209               0.000000000               0.000000000               0.000000000               0.000000000               0.000289995               0.003685312               0.000566359              -0.000351915               0.001345730               0.000993815               0.000000000               0.000000000               0.000000000               0.000000000               0.000266361               0.003725200               0.000495767              -0.000365764               0.001363642               0.000997878               0.000000000               0.000000000               0.000000000               0.000000000               0.000241881               0.003741633               0.000434781              -0.000376998               0.001372865               0.000995866               0.000000000               0.000000000               0.000000000               0.000000000               0.000207712               0.003738757               0.000377102              -0.000389452               0.001376057               0.000986606               0.000000000               0.000000000               0.000000000               0.000000000               0.000162832               0.003725914               0.000317046              -0.000404676               0.001376851               0.000972175               0.000000000               0.000000000               0.000000000               0.000000000               0.000108378               0.003708199               0.000253973              -0.000422882               0.001377015               0.000954133               0.000000000               0.000000000               0.000000000               0.000000000               0.000040325               0.003677447               0.000188953              -0.000444558               0.001373989               0.000929432               0.000000000               0.000000000               0.000000000               0.000000000              -0.000040759               0.003639596               0.000124307              -0.000470233               0.001369931               0.000899698               0.000000000               0.000000000               0.000000000               0.000000000              -0.000135090               0.003597807               0.000060605              -0.000500384               0.001366052               0.000865668               0.000000000               0.000000000               0.000000000               0.000000000              -0.000206256               0.003561505               0.000021886              -0.000522533               0.001361334               0.000838801               0.000000000               0.000000000               0.000000000               0.000000000               0.000328209               0.000737221               0.000635451               0.000030924               0.000235429               0.000266354               0.000000000               0.000000000               0.000000000               0.000000000               0.000494283               0.001321448               0.000908816               0.000020174               0.000433753               0.000453927               0.000000000               0.000000000               0.000000000               0.000000000               0.000482535               0.002056446               0.001089065              -0.000076106               0.000710843               0.000634737               0.000000000               0.000000000               0.000000000               0.000000000               0.000467684               0.002571182               0.001032937              -0.000146017               0.000905724               0.000759707               0.000000000               0.000000000               0.000000000               0.000000000               0.000459387               0.002925882               0.000919631              -0.000193465               0.001039772               0.000846307               0.000000000               0.000000000               0.000000000               0.000000000               0.000449395               0.003168296               0.000801364              -0.000227514               0.001131926               0.000904412               0.000000000               0.000000000               0.000000000               0.000000000               0.000425619               0.003330607               0.000694115              -0.000256718               0.001195764               0.000939046               0.000000000               0.000000000               0.000000000               0.000000000               0.000395900               0.003446329               0.000608846              -0.000282328               0.001242874               0.000960546               0.000000000               0.000000000               0.000000000               0.000000000               0.000367009               0.003528524               0.000541660              -0.000303437               0.001277308               0.000973872               0.000000000               0.000000000               0.000000000               0.000000000               0.000336095               0.003576150               0.000479424              -0.000320982               0.001299032               0.000978050               0.000000000               0.000000000               0.000000000               0.000000000               0.000298126               0.003605558               0.000417023              -0.000338897               0.001314806               0.000975909               0.000000000               0.000000000               0.000000000               0.000000000               0.000256083               0.003628938               0.000355554              -0.000357585               0.001328829               0.000971244               0.000000000               0.000000000               0.000000000               0.000000000               0.000208845               0.003638286               0.000290912              -0.000376468               0.001338239               0.000961771               0.000000000               0.000000000               0.000000000               0.000000000               0.000152356               0.003628314               0.000223362              -0.000396405               0.001341561               0.000945156               0.000000000               0.000000000               0.000000000               0.000000000               0.000086642               0.003607825               0.000154302              -0.000418486               0.001342092               0.000923605               0.000000000               0.000000000               0.000000000               0.000000000               0.000007356               0.003582572               0.000079750              -0.000445062               0.001342533               0.000897471               0.000000000               0.000000000               0.000000000               0.000000000              -0.000057668               0.003556994               0.000033882              -0.000466248               0.001341069               0.000874821               0.000000000               0.000000000               0.000000000               0.000000000              -0.000012351               0.000400297               0.000395840              -0.000054669               0.000151654               0.000096985               0.000000000               0.000000000               0.000000000               0.000000000               0.000375910               0.000901897               0.000687061               0.000028228               0.000291219               0.000319447               0.000000000               0.000000000               0.000000000               0.000000000               0.000553233               0.001553271               0.000911417               0.000013302               0.000513318               0.000526620               0.000000000               0.000000000               0.000000000               0.000000000               0.000601683               0.002084081               0.000909030              -0.000034880               0.000706313               0.000671433               0.000000000               0.000000000               0.000000000               0.000000000               0.000609663               0.002491353               0.000837675              -0.000082796               0.000858041               0.000775245               0.000000000               0.000000000               0.000000000               0.000000000               0.000595422               0.002794899               0.000745119              -0.000126080               0.000973650               0.000847571               0.000000000               0.000000000               0.000000000               0.000000000               0.000563204               0.003015150               0.000655358              -0.000165692               0.001060271               0.000894578               0.000000000               0.000000000               0.000000000               0.000000000               0.000524495               0.003179043               0.000585427              -0.000200694               0.001126569               0.000925874               0.000000000               0.000000000               0.000000000               0.000000000               0.000482860               0.003299397               0.000528477              -0.000231352               0.001176905               0.000945553               0.000000000               0.000000000               0.000000000               0.000000000               0.000440366               0.003386906               0.000471436              -0.000258226               0.001215032               0.000956807               0.000000000               0.000000000               0.000000000               0.000000000               0.000399734               0.003457364               0.000412406              -0.000282270               0.001246533               0.000964263               0.000000000               0.000000000               0.000000000               0.000000000               0.000360054               0.003515237               0.000355467              -0.000304384               0.001273195               0.000968811               0.000000000               0.000000000               0.000000000               0.000000000               0.000320466               0.003553354               0.000297442              -0.000323994               0.001292437               0.000968444               0.000000000               0.000000000               0.000000000               0.000000000               0.000283083               0.003571911               0.000238305              -0.000340332               0.001304069               0.000963737               0.000000000               0.000000000               0.000000000               0.000000000               0.000245477               0.003575500               0.000174598              -0.000354883               0.001310116               0.000955233               0.000000000               0.000000000               0.000000000               0.000000000               0.000199322               0.003567919               0.000095899              -0.000371243               0.001313042               0.000941799               0.000000000               0.000000000               0.000000000               0.000000000               0.000158979               0.003553998               0.000047358              -0.000384632               0.001312865               0.000928233               0.000000000               0.000000000               0.000000000               0.000000000              -0.000306780               0.000184108               0.000214191              -0.000138056               0.000107387              -0.000030669               0.000000000               0.000000000               0.000000000               0.000000000               0.000261035               0.000594621               0.000454730               0.000023560               0.000190352               0.000213911               0.000000000               0.000000000               0.000000000               0.000000000               0.000607427               0.001149960               0.000654695               0.000084039               0.000355303               0.000439342               0.000000000               0.000000000               0.000000000               0.000000000               0.000720287               0.001673640               0.000678912               0.000060902               0.000537574               0.000598475               0.000000000               0.000000000               0.000000000               0.000000000               0.000745541               0.002114423               0.000643013               0.000015274               0.000699709               0.000714983               0.000000000               0.000000000               0.000000000               0.000000000               0.000731028               0.002461430               0.000582190              -0.000033544               0.000831650               0.000798106               0.000000000               0.000000000               0.000000000               0.000000000               0.000696570               0.002723698               0.000519542              -0.000079249               0.000934306               0.000855058               0.000000000               0.000000000               0.000000000               0.000000000               0.000649408               0.002924208               0.000469933              -0.000121998               0.001015392               0.000893394               0.000000000               0.000000000               0.000000000               0.000000000               0.000596250               0.003081855               0.000429502              -0.000161638               0.001081154               0.000919516               0.000000000               0.000000000               0.000000000               0.000000000               0.000544149               0.003206026               0.000388002              -0.000196697               0.001134230               0.000937533               0.000000000               0.000000000               0.000000000               0.000000000               0.000500177               0.003308258               0.000342629              -0.000225965               0.001178063               0.000952098               0.000000000               0.000000000               0.000000000               0.000000000               0.000463155               0.003393241               0.000297624              -0.000250471               0.001214559               0.000964088               0.000000000               0.000000000               0.000000000               0.000000000               0.000434089               0.003459255               0.000253908              -0.000269623               0.001242948               0.000973325               0.000000000               0.000000000               0.000000000               0.000000000               0.000414514               0.003507762               0.000210337              -0.000283027               0.001263585               0.000980558               0.000000000               0.000000000               0.000000000               0.000000000               0.000402923               0.003538836               0.000159941              -0.000291258               0.001276686               0.000985429               0.000000000               0.000000000               0.000000000               0.000000000               0.000398106               0.003552528               0.000090926              -0.000294776               0.001282423               0.000987647               0.000000000               0.000000000               0.000000000               0.000000000               0.000397536               0.003553948               0.000049404              -0.000295167               0.001283026               0.000987860               0.000000000               0.000000000               0.000000000               0.000000000              -0.000504460               0.000069810               0.000090535              -0.000197898               0.000089235              -0.000108663               0.000000000               0.000000000               0.000000000               0.000000000               0.000182270               0.000411444               0.000225697               0.000016920               0.000131506               0.000148427               0.000000000               0.000000000               0.000000000               0.000000000               0.000643633               0.000889641               0.000342590               0.000130156               0.000253159               0.000383314               0.000000000               0.000000000               0.000000000               0.000000000               0.000805752               0.001399637               0.000364507               0.000127201               0.000424141               0.000551342               0.000000000               0.000000000               0.000000000               0.000000000               0.000843276               0.001858644               0.000350451               0.000083897               0.000591576               0.000675473               0.000000000               0.000000000               0.000000000               0.000000000               0.000826131               0.002229359               0.000319722               0.000031129               0.000732736               0.000763865               0.000000000               0.000000000               0.000000000               0.000000000               0.000789456               0.002513898               0.000287859              -0.000018191               0.000844021               0.000825830               0.000000000               0.000000000               0.000000000               0.000000000               0.000742018               0.002737268               0.000262825              -0.000063902               0.000933714               0.000869812               0.000000000               0.000000000               0.000000000               0.000000000               0.000687911               0.002921113               0.000242429              -0.000107172               0.001009419               0.000902246               0.000000000               0.000000000               0.000000000               0.000000000               0.000632504               0.003071204               0.000221499              -0.000146711               0.001072628               0.000925917               0.000000000               0.000000000               0.000000000               0.000000000               0.000585370               0.003192700               0.000196812              -0.000179573               0.001124080               0.000944507               0.000000000               0.000000000               0.000000000               0.000000000               0.000551062               0.003292565               0.000171857              -0.000204922               0.001165818               0.000960896               0.000000000               0.000000000               0.000000000               0.000000000               0.000530191               0.003374156               0.000148427              -0.000222947               0.001199023               0.000976076               0.000000000               0.000000000               0.000000000               0.000000000               0.000522915               0.003441532               0.000123377              -0.000234098               0.001225199               0.000991101               0.000000000               0.000000000               0.000000000               0.000000000               0.000531147               0.003495867               0.000094129              -0.000237803               0.001244545               0.001006742               0.000000000               0.000000000               0.000000000               0.000000000               0.000560431               0.003532715               0.000053605              -0.000231427               0.001254702               0.001023275               0.000000000               0.000000000               0.000000000               0.000000000               0.000594432               0.003549968               0.000029613              -0.000220834               0.001256922               0.001036089               0.000000000               0.000000000               0.000000000               0.000000000              -0.000574347               0.000032943              -0.000000000              -0.000219498               0.000084146              -0.000135352               0.000000000               0.000000000               0.000000000               0.000000000               0.000155631               0.000350655              -0.000000000               0.000014529               0.000112041               0.000126570               0.000000000               0.000000000               0.000000000               0.000000000               0.000658121               0.000801860              -0.000000000               0.000146562               0.000218430               0.000364992               0.000000000               0.000000000               0.000000000               0.000000000               0.000838198               0.001303676               0.000000000               0.000151363               0.000384100               0.000535463               0.000000000               0.000000000               0.000000000               0.000000000               0.000876897               0.001763724              -0.000000000               0.000108370               0.000551779               0.000660149               0.000000000               0.000000000               0.000000000               0.000000000               0.000859052               0.002144242              -0.000000000               0.000054114               0.000696702               0.000750816               0.000000000               0.000000000               0.000000000               0.000000000               0.000823635               0.002439172              -0.000000000               0.000003967               0.000811727               0.000815694               0.000000000               0.000000000               0.000000000               0.000000000               0.000778015               0.002668561              -0.000000000              -0.000041814               0.000903450               0.000861635               0.000000000               0.000000000               0.000000000               0.000000000               0.000725420               0.002860858              -0.000000000              -0.000085574               0.000982135               0.000896560               0.000000000               0.000000000               0.000000000               0.000000000               0.000669989               0.003022128              -0.000000000              -0.000126520               0.001049539               0.000923020               0.000000000               0.000000000               0.000000000               0.000000000               0.000621023               0.003149252               0.000000000              -0.000160772               0.001103331               0.000942558               0.000000000               0.000000000               0.000000000               0.000000000               0.000588223               0.003252321               0.000000000              -0.000185956               0.001146081               0.000960126               0.000000000               0.000000000               0.000000000               0.000000000               0.000569415               0.003337231               0.000000000              -0.000203623               0.001180274               0.000976651               0.000000000               0.000000000               0.000000000               0.000000000               0.000566189               0.003409038               0.000000000              -0.000213808               0.001207604               0.000993796               0.000000000               0.000000000               0.000000000               0.000000000               0.000583123               0.003472176               0.000000000              -0.000215350               0.001229164               0.001013814               0.000000000               0.000000000               0.000000000               0.000000000               0.000625031               0.003519731              -0.000000000              -0.000205579               0.001241759               0.001036179               0.000000000               0.000000000               0.000000000               0.000000000               0.000670997               0.003543904              -0.000000000              -0.000191364               0.001245077               0.001053714               0.000000000               0.000000000               0.000000000               0.000000000               0.000793242               0.008951196              -0.000000000              -0.000821432               0.003257513               0.002436081               0.000000000               0.000000000               0.000000000               0.000000000               0.000864448               0.007336969              -0.000000000              -0.000592952               0.002643282               0.002050331               0.000000000               0.000000000               0.000000000               0.000000000               0.001198651               0.006050714               0.000000000              -0.000306845               0.002119166               0.001812322               0.000000000               0.000000000               0.000000000               0.000000000               0.001238451               0.005348905               0.000000000              -0.000204193               0.001851015               0.001646822               0.000000000               0.000000000               0.000000000               0.000000000               0.001173910               0.004933722              -0.000000000              -0.000176499               0.001703391               0.001526892               0.000000000               0.000000000               0.000000000               0.000000000               0.001071326               0.004670416               0.000000000              -0.000182054               0.001617475               0.001435420               0.000000000               0.000000000               0.000000000               0.000000000               0.000951613               0.004493439              -0.000000000              -0.000204824               0.001566073               0.001361248               0.000000000               0.000000000               0.000000000               0.000000000               0.000832433               0.004376705              -0.000000000              -0.000234925               0.001537196               0.001302270               0.000000000               0.000000000               0.000000000               0.000000000               0.000718808               0.004299717              -0.000000000              -0.000267911               0.001522528               0.001254617               0.000000000               0.000000000               0.000000000               0.000000000               0.000606941               0.004246812              -0.000000000              -0.000303248               0.001516672               0.001213425               0.000000000               0.000000000               0.000000000               0.000000000               0.000496314               0.004208813              -0.000000000              -0.000339983               0.001516251               0.001176268               0.000000000               0.000000000               0.000000000               0.000000000               0.000392446               0.004181024              -0.000000000              -0.000375460               0.001518814               0.001143354               0.000000000               0.000000000               0.000000000               0.000000000               0.000297971               0.004157925               0.000000000              -0.000408001               0.001521961               0.001113961               0.000000000               0.000000000               0.000000000               0.000000000               0.000210164               0.004134499               0.000000000              -0.000438000               0.001524153               0.001086153               0.000000000               0.000000000               0.000000000               0.000000000               0.000130379               0.004105124              -0.000000000              -0.000464247               0.001523110               0.001058863               0.000000000               0.000000000               0.000000000               0.000000000               0.000060717               0.004063886               0.000000000              -0.000485216               0.001516354               0.001031138               0.000000000               0.000000000               0.000000000               0.000000000               0.000025842               0.004030727               0.000000000              -0.000494149               0.001508279               0.001014130               0.000000000               0.000000000               0.000000000               0.000000000               0.000835319               0.008795245              -0.000656436              -0.000786159               0.003193772               0.002407613               0.000000000               0.000000000               0.000000000               0.000000000               0.000870664               0.007231089              -0.000400629              -0.000577386               0.002602801               0.002025415               0.000000000               0.000000000               0.000000000               0.000000000               0.001167713               0.005997081              -0.000137982              -0.000311742               0.002102921               0.001791179               0.000000000               0.000000000               0.000000000               0.000000000               0.001193463               0.005324222              -0.000018141              -0.000217979               0.001847383               0.001629404               0.000000000               0.000000000               0.000000000               0.000000000               0.001123716               0.004927722               0.000035289              -0.000194571               0.001707415               0.001512843               0.000000000               0.000000000               0.000000000               0.000000000               0.001020657               0.004673168               0.000057234              -0.000201399               0.001624840               0.001423441               0.000000000               0.000000000               0.000000000               0.000000000               0.000905253               0.004503006               0.000067369              -0.000223405               0.001575456               0.001352050               0.000000000               0.000000000               0.000000000               0.000000000               0.000789256               0.004389578               0.000072028              -0.000252726               0.001547420               0.001294694               0.000000000               0.000000000               0.000000000               0.000000000               0.000677831               0.004313107               0.000072267              -0.000284951               0.001532672               0.001247721               0.000000000               0.000000000               0.000000000               0.000000000               0.000571819               0.004261378               0.000070164              -0.000318239               0.001526525               0.001208286               0.000000000               0.000000000               0.000000000               0.000000000               0.000469250               0.004224076               0.000067387              -0.000352040               0.001525358               0.001173318               0.000000000               0.000000000               0.000000000               0.000000000               0.000372794               0.004195827               0.000063947              -0.000384680               0.001526821               0.001142142               0.000000000               0.000000000               0.000000000               0.000000000               0.000285483               0.004173593               0.000059572              -0.000414642               0.001529398               0.001114756               0.000000000               0.000000000               0.000000000               0.000000000               0.000203268               0.004151921               0.000053367              -0.000442763               0.001531548               0.001088784               0.000000000               0.000000000               0.000000000               0.000000000               0.000128282               0.004128184               0.000042366              -0.000467916               0.001532020               0.001064104               0.000000000               0.000000000               0.000000000               0.000000000               0.000061693               0.004098564               0.000024985              -0.000489185               0.001529236               0.001040051               0.000000000               0.000000000               0.000000000               0.000000000               0.000029144               0.004077333               0.000014399              -0.000498736               0.001525343               0.001026607               0.000000000               0.000000000               0.000000000               0.000000000               0.000952564               0.008346907              -0.001242115              -0.000686151               0.003010991               0.002324841               0.000000000               0.000000000               0.000000000               0.000000000               0.000888521               0.006926152              -0.000760413              -0.000532573               0.002486218               0.001953646               0.000000000               0.000000000               0.000000000               0.000000000               0.001080135               0.005845114              -0.000270570              -0.000325588               0.002056881               0.001731293               0.000000000               0.000000000               0.000000000               0.000000000               0.001064683               0.005253675              -0.000054192              -0.000257452               0.001837025               0.001579573               0.000000000               0.000000000               0.000000000               0.000000000               0.000983513               0.004901442               0.000039313              -0.000243862               0.001715085               0.001471223               0.000000000               0.000000000               0.000000000               0.000000000               0.000883194               0.004672198               0.000078279              -0.000252826               0.001641659               0.001388833               0.000000000               0.000000000               0.000000000               0.000000000               0.000778309               0.004519006               0.000097655              -0.000273009               0.001597323               0.001324314               0.000000000               0.000000000               0.000000000               0.000000000               0.000676283               0.004415462               0.000106845              -0.000298326               0.001571248               0.001272922               0.000000000               0.000000000               0.000000000               0.000000000               0.000578220               0.004344136               0.000109948              -0.000326184               0.001556759               0.001230575               0.000000000               0.000000000               0.000000000               0.000000000               0.000486790               0.004295541               0.000109301              -0.000354396               0.001549965               0.001195569               0.000000000               0.000000000               0.000000000               0.000000000               0.000401450               0.004260436               0.000105399              -0.000382010               0.001547468               0.001165458               0.000000000               0.000000000               0.000000000               0.000000000               0.000321373               0.004232730               0.000100620              -0.000408575               0.001547088               0.001138512               0.000000000               0.000000000               0.000000000               0.000000000               0.000250205               0.004213707               0.000093604              -0.000432885               0.001548850               0.001115965               0.000000000               0.000000000               0.000000000               0.000000000               0.000183333               0.004199981               0.000083009              -0.000456246               0.001552062               0.001095815               0.000000000               0.000000000               0.000000000               0.000000000               0.000119581               0.004192954               0.000065778              -0.000479275               0.001557396               0.001078121               0.000000000               0.000000000               0.000000000               0.000000000               0.000058465               0.004192993               0.000038479              -0.000502199               0.001565050               0.001062851               0.000000000               0.000000000               0.000000000               0.000000000               0.000031706               0.004200492               0.000020509              -0.000513171               0.001571207               0.001058036               0.000000000               0.000000000               0.000000000               0.000000000               0.001107284               0.007654887              -0.001693947              -0.000541629               0.002732146               0.002190517               0.000000000               0.000000000               0.000000000               0.000000000               0.000899927               0.006460050              -0.001046469              -0.000470033               0.002310006               0.001839973               0.000000000               0.000000000               0.000000000               0.000000000               0.000938651               0.005616055              -0.000395898              -0.000350012               0.001988670               0.001638658               0.000000000               0.000000000               0.000000000               0.000000000               0.000873238               0.005144779              -0.000117775              -0.000315632               0.001820120               0.001504488               0.000000000               0.000000000               0.000000000               0.000000000               0.000787990               0.004851832               0.000003240              -0.000310982               0.001720922               0.001409940               0.000000000               0.000000000               0.000000000               0.000000000               0.000700816               0.004658925               0.000054813              -0.000319559               0.001659479               0.001339920               0.000000000               0.000000000               0.000000000               0.000000000               0.000613072               0.004526389               0.000081850              -0.000335896               0.001620747               0.001284851               0.000000000               0.000000000               0.000000000               0.000000000               0.000531676               0.004434401               0.000096280              -0.000354921               0.001596426               0.001241505               0.000000000               0.000000000               0.000000000               0.000000000               0.000456435               0.004370819               0.000102706              -0.000375188               0.001581988               0.001206800               0.000000000               0.000000000               0.000000000               0.000000000               0.000387634               0.004326087               0.000104243              -0.000395397               0.001573814               0.001178417               0.000000000               0.000000000               0.000000000               0.000000000               0.000323330               0.004292446               0.000100028              -0.000415306               0.001569236               0.001153930               0.000000000               0.000000000               0.000000000               0.000000000               0.000262255               0.004268394               0.000093614              -0.000435203               0.001567851               0.001132649               0.000000000               0.000000000               0.000000000               0.000000000               0.000207280               0.004254966               0.000084670              -0.000454140               0.001569688               0.001115548               0.000000000               0.000000000               0.000000000               0.000000000               0.000155414               0.004252928               0.000072000              -0.000473334               0.001575407               0.001102072               0.000000000               0.000000000               0.000000000               0.000000000               0.000102937               0.004262671               0.000055319              -0.000494231               0.001585620               0.001091389               0.000000000               0.000000000               0.000000000               0.000000000               0.000050255               0.004287969               0.000030966              -0.000517149               0.001601692               0.001084542               0.000000000               0.000000000               0.000000000               0.000000000               0.000031294               0.004318159               0.000013049              -0.000528033               0.001615383               0.001087350               0.000000000               0.000000000               0.000000000               0.000000000               0.001253120               0.006789281              -0.001984891              -0.000378741               0.002389318               0.002010577               0.000000000               0.000000000               0.000000000               0.000000000               0.000891755               0.005888538              -0.001248549              -0.000401659               0.002096713               0.001695053               0.000000000               0.000000000               0.000000000               0.000000000               0.000765719               0.005334099              -0.000511554              -0.000379617               0.001904554               0.001524937               0.000000000               0.000000000               0.000000000               0.000000000               0.000659605               0.004998104              -0.000204112              -0.000377410               0.001791821               0.001414411               0.000000000               0.000000000               0.000000000               0.000000000               0.000577904               0.004772811              -0.000069055              -0.000379886               0.001717550               0.001337663               0.000000000               0.000000000               0.000000000               0.000000000               0.000511167               0.004620397              -0.000010450              -0.000385861               0.001668737               0.001282876               0.000000000               0.000000000               0.000000000               0.000000000               0.000449856               0.004511664               0.000019358              -0.000395261               0.001635627               0.001240365               0.000000000               0.000000000               0.000000000               0.000000000               0.000393681               0.004430702               0.000037171              -0.000406206               0.001612288               0.001206081               0.000000000               0.000000000               0.000000000               0.000000000               0.000344105               0.004370322               0.000048315              -0.000417250               0.001595843               0.001178593               0.000000000               0.000000000               0.000000000               0.000000000               0.000299249               0.004326010               0.000052271              -0.000428532               0.001584833               0.001156301               0.000000000               0.000000000               0.000000000               0.000000000               0.000252848               0.004293862               0.000048604              -0.000441914               0.001578578               0.001136664               0.000000000               0.000000000               0.000000000               0.000000000               0.000206166               0.004273507               0.000041540              -0.000456875               0.001576780               0.001119905               0.000000000               0.000000000               0.000000000               0.000000000               0.000162416               0.004263003               0.000033330              -0.000471968               0.001578310               0.001106341               0.000000000               0.000000000               0.000000000               0.000000000               0.000120396               0.004263607               0.000024398              -0.000487801               0.001583789               0.001095987               0.000000000               0.000000000               0.000000000               0.000000000               0.000079072               0.004275204               0.000016205              -0.000504747               0.001593303               0.001088555               0.000000000               0.000000000               0.000000000               0.000000000               0.000039020               0.004297578               0.000007647              -0.000522564               0.001606700               0.001084136               0.000000000               0.000000000               0.000000000               0.000000000               0.000024755               0.004320624              -0.000000000              -0.000530794               0.001617125               0.001086331               0.000000000               0.000000000               0.000000000               0.000000000               0.001356598               0.005843394              -0.002110637              -0.000221702               0.002021679               0.001799977               0.000000000               0.000000000               0.000000000               0.000000000               0.000862709               0.005273789              -0.001367035              -0.000335708               0.001869814               0.001534106               0.000000000               0.000000000               0.000000000               0.000000000               0.000589695               0.005023172              -0.000620165              -0.000406760               0.001809961               0.001403200               0.000000000               0.000000000               0.000000000               0.000000000               0.000461887               0.004819378              -0.000312983              -0.000429213               0.001749514               0.001320301               0.000000000               0.000000000               0.000000000               0.000000000               0.000396585               0.004663087              -0.000174807              -0.000434165               0.001699069               0.001264903               0.000000000               0.000000000               0.000000000               0.000000000               0.000353416               0.004549566              -0.000110885              -0.000436164               0.001661895               0.001225731               0.000000000               0.000000000               0.000000000               0.000000000               0.000317930               0.004464702              -0.000078552              -0.000438863               0.001634507               0.001195644               0.000000000               0.000000000               0.000000000               0.000000000               0.000288349               0.004394135              -0.000056135              -0.000441135               0.001611742               0.001170607               0.000000000               0.000000000               0.000000000               0.000000000               0.000260693               0.004335791              -0.000038067              -0.000444213               0.001593320               0.001149107               0.000000000               0.000000000               0.000000000               0.000000000               0.000230006               0.004291314              -0.000026625              -0.000450161               0.001580477               0.001130317               0.000000000               0.000000000               0.000000000               0.000000000               0.000193485               0.004259930              -0.000023599              -0.000459933               0.001573274               0.001113340               0.000000000               0.000000000               0.000000000               0.000000000               0.000154034               0.004237135              -0.000024973              -0.000471878               0.001569657               0.001097779               0.000000000               0.000000000               0.000000000               0.000000000               0.000115507               0.004221161              -0.000025556              -0.000484329               0.001568483               0.001084154               0.000000000               0.000000000               0.000000000               0.000000000               0.000078650               0.004211386              -0.000021963              -0.000496928               0.001569424               0.001072496               0.000000000               0.000000000               0.000000000               0.000000000               0.000046514               0.004207195              -0.000014325              -0.000508455               0.001571869               0.001063414               0.000000000               0.000000000               0.000000000               0.000000000               0.000020670               0.004204012              -0.000006622              -0.000517749               0.001573906               0.001056157               0.000000000               0.000000000               0.000000000               0.000000000               0.000008950               0.004199901              -0.000003082              -0.000521630               0.001573830               0.001052200               0.000000000               0.000000000               0.000000000               0.000000000               0.001393135               0.004900997              -0.002088963              -0.000090201               0.001663716               0.001573515               0.000000000               0.000000000               0.000000000               0.000000000               0.000815612               0.004664851              -0.001415333              -0.000277253               0.001647352               0.001370099               0.000000000               0.000000000               0.000000000               0.000000000               0.000436013               0.004707023              -0.000727041              -0.000424872               0.001710616               0.001285744               0.000000000               0.000000000               0.000000000               0.000000000               0.000309906               0.004627846              -0.000438234              -0.000462265               0.001696688               0.001234423               0.000000000               0.000000000               0.000000000               0.000000000               0.000267838               0.004533789              -0.000299341              -0.000466283               0.001666676               0.001200392               0.000000000               0.000000000               0.000000000               0.000000000               0.000246821               0.004451637              -0.000224736              -0.000463896               0.001638496               0.001174600               0.000000000               0.000000000               0.000000000               0.000000000               0.000231983               0.004385728              -0.000182908              -0.000461221               0.001615635               0.001154414               0.000000000               0.000000000               0.000000000               0.000000000               0.000219153               0.004324042              -0.000153154              -0.000458322               0.001594107               0.001135785               0.000000000               0.000000000               0.000000000               0.000000000               0.000200499               0.004269087              -0.000125187              -0.000458447               0.001575830               0.001117383               0.000000000               0.000000000               0.000000000               0.000000000               0.000174971               0.004224774              -0.000101628              -0.000462481               0.001562404               0.001099923               0.000000000               0.000000000               0.000000000               0.000000000               0.000141907               0.004187867              -0.000086249              -0.000470267               0.001552698               0.001082430               0.000000000               0.000000000               0.000000000               0.000000000               0.000104514               0.004155302              -0.000075529              -0.000480219               0.001545160               0.001064941               0.000000000               0.000000000               0.000000000               0.000000000               0.000068538               0.004126454              -0.000062645              -0.000490104               0.001538839               0.001048735               0.000000000               0.000000000               0.000000000               0.000000000               0.000035714               0.004099960              -0.000045034              -0.000499101               0.001533007               0.001033906               0.000000000               0.000000000               0.000000000               0.000000000               0.000013534               0.004074049              -0.000024876              -0.000504179               0.001526062               0.001021883               0.000000000               0.000000000               0.000000000               0.000000000               0.000003020               0.004042985              -0.000008948              -0.000504239               0.001515728               0.001011488               0.000000000               0.000000000               0.000000000               0.000000000              -0.000004598               0.004017420              -0.000000602              -0.000503901               0.001507093               0.001003193               0.000000000               0.000000000               0.000000000               0.000000000               0.001358444               0.004012248              -0.001952343               0.000007883               0.001334774               0.001342657               0.000000000               0.000000000               0.000000000               0.000000000               0.000752017               0.004098269              -0.001409620              -0.000230278               0.001442835               0.001212557               0.000000000               0.000000000               0.000000000               0.000000000               0.000320886               0.004399764              -0.000829723              -0.000429638               0.001609786               0.001180148               0.000000000               0.000000000               0.000000000               0.000000000               0.000214650               0.004425770              -0.000562990              -0.000472726               0.001632817               0.001160091               0.000000000               0.000000000               0.000000000               0.000000000               0.000196126               0.004385903              -0.000419447              -0.000474689               0.001620183               0.001145493               0.000000000               0.000000000               0.000000000               0.000000000               0.000192008               0.004332853              -0.000329324              -0.000469603               0.001600804               0.001131201               0.000000000               0.000000000               0.000000000               0.000000000               0.000185664               0.004277109              -0.000271718              -0.000465014               0.001580693               0.001115680               0.000000000               0.000000000               0.000000000               0.000000000               0.000175687               0.004222490              -0.000231916              -0.000461927               0.001561459               0.001099531               0.000000000               0.000000000               0.000000000               0.000000000               0.000157875               0.004173427              -0.000193557              -0.000462474               0.001545286               0.001082812               0.000000000               0.000000000               0.000000000               0.000000000               0.000130003               0.004128349              -0.000157815              -0.000467292               0.001531866               0.001064575               0.000000000               0.000000000               0.000000000               0.000000000               0.000094693               0.004081807              -0.000128335              -0.000474715               0.001518827               0.001044112               0.000000000               0.000000000               0.000000000               0.000000000               0.000057539               0.004036208              -0.000103548              -0.000482948               0.001506372               0.001023424               0.000000000               0.000000000               0.000000000               0.000000000               0.000022264               0.003991575              -0.000078371              -0.000490597               0.001494044               0.001003447               0.000000000               0.000000000               0.000000000               0.000000000              -0.000007827               0.003945221              -0.000050097              -0.000496087               0.001480423               0.000984336               0.000000000               0.000000000               0.000000000               0.000000000              -0.000023408               0.003895963              -0.000024401              -0.000495772               0.001463899               0.000968126               0.000000000               0.000000000               0.000000000               0.000000000              -0.000019692               0.003843740              -0.000006638              -0.000487851               0.001443851               0.000956000               0.000000000               0.000000000               0.000000000               0.000000000              -0.000017952               0.003807103               0.000003676              -0.000482619               0.001429895               0.000947276               0.000000000               0.000000000               0.000000000               0.000000000               0.001285097               0.003238940              -0.001737710               0.000077041               0.001053955               0.001130996               0.000000000               0.000000000               0.000000000               0.000000000               0.000700731               0.003590234              -0.001374547              -0.000186006               0.001258734               0.001072728               0.000000000               0.000000000               0.000000000               0.000000000               0.000260471               0.004105643              -0.000941753              -0.000415528               0.001507043               0.001091515               0.000000000               0.000000000               0.000000000               0.000000000               0.000174272               0.004228896              -0.000689846              -0.000463259               0.001564038               0.001100778               0.000000000               0.000000000               0.000000000               0.000000000               0.000173170               0.004244281              -0.000534165              -0.000465596               0.001569945               0.001104349               0.000000000               0.000000000               0.000000000               0.000000000               0.000176303               0.004222001              -0.000427781              -0.000461635               0.001561198               0.001099563               0.000000000               0.000000000               0.000000000               0.000000000               0.000170512               0.004179729              -0.000352782              -0.000458523               0.001546070               0.001087547               0.000000000               0.000000000               0.000000000               0.000000000               0.000156170               0.004133667              -0.000299018              -0.000458143               0.001530590               0.001072446               0.000000000               0.000000000               0.000000000               0.000000000               0.000135383               0.004093733              -0.000253322              -0.000460947               0.001518213               0.001057266               0.000000000               0.000000000               0.000000000               0.000000000               0.000108334               0.004051261              -0.000209884              -0.000465781               0.001505667               0.001039886               0.000000000               0.000000000               0.000000000               0.000000000               0.000073663               0.004001248              -0.000170420              -0.000472531               0.001491246               0.001018715               0.000000000               0.000000000               0.000000000               0.000000000               0.000033279               0.003946154              -0.000133612              -0.000480788               0.001475634               0.000994846               0.000000000               0.000000000               0.000000000               0.000000000              -0.000006718               0.003888629              -0.000098755              -0.000488597               0.001459062               0.000970466               0.000000000               0.000000000               0.000000000               0.000000000              -0.000042333               0.003827400              -0.000064224              -0.000494299               0.001440554               0.000946255               0.000000000               0.000000000               0.000000000               0.000000000              -0.000067573               0.003759930              -0.000033937              -0.000495330               0.001418407               0.000923077               0.000000000               0.000000000               0.000000000               0.000000000              -0.000077338               0.003690266              -0.000011678              -0.000490284               0.001393504               0.000903221               0.000000000               0.000000000               0.000000000               0.000000000              -0.000078969               0.003647481               0.000000103              -0.000485547               0.001377664               0.000892117               0.000000000               0.000000000               0.000000000               0.000000000               0.001156451               0.002494671              -0.001487187               0.000121832               0.000790937               0.000912770               0.000000000               0.000000000               0.000000000               0.000000000               0.000679558               0.002994250              -0.001327004              -0.000119449               0.001037889               0.000918440               0.000000000               0.000000000               0.000000000               0.000000000               0.000272656               0.003660971              -0.001070384              -0.000355375               0.001338770               0.000983394               0.000000000               0.000000000               0.000000000               0.000000000               0.000187519               0.003908186              -0.000839159              -0.000418203               0.001442116               0.001023913               0.000000000               0.000000000               0.000000000               0.000000000               0.000185073               0.004005929              -0.000668330              -0.000431338               0.001479076               0.001047738               0.000000000               0.000000000               0.000000000               0.000000000               0.000188249               0.004038222              -0.000541388              -0.000434183               0.001490788               0.001056605               0.000000000               0.000000000               0.000000000               0.000000000               0.000180704               0.004034390              -0.000447925              -0.000436534               0.001490295               0.001053761               0.000000000               0.000000000               0.000000000               0.000000000               0.000168338               0.004010357              -0.000380329              -0.000438167               0.001482828               0.001044661               0.000000000               0.000000000               0.000000000               0.000000000               0.000149088               0.003980520              -0.000327293              -0.000441656               0.001474045               0.001032389               0.000000000               0.000000000               0.000000000               0.000000000               0.000120467               0.003949685              -0.000277376              -0.000448534               0.001466060               0.001017526               0.000000000               0.000000000               0.000000000               0.000000000               0.000084932               0.003912643              -0.000228858              -0.000457230               0.001456611               0.000999381               0.000000000               0.000000000               0.000000000               0.000000000               0.000042057               0.003863243              -0.000183226              -0.000467133               0.001443446               0.000976313               0.000000000               0.000000000               0.000000000               0.000000000              -0.000007200               0.003805715              -0.000138601              -0.000478413               0.001428030               0.000949617               0.000000000               0.000000000               0.000000000               0.000000000              -0.000060475               0.003746054              -0.000095096              -0.000490934               0.001412317               0.000921383               0.000000000               0.000000000               0.000000000               0.000000000              -0.000111882               0.003685128              -0.000056558              -0.000502595               0.001395896               0.000893300               0.000000000               0.000000000               0.000000000               0.000000000              -0.000157611               0.003619530              -0.000024279              -0.000511544               0.001377013               0.000865468               0.000000000               0.000000000               0.000000000               0.000000000              -0.000183262               0.003576790              -0.000006386              -0.000515821               0.001364192               0.000848371               0.000000000               0.000000000               0.000000000               0.000000000               0.000939364               0.001800963              -0.001211056               0.000127139               0.000557935               0.000685073               0.000000000               0.000000000               0.000000000               0.000000000               0.000651995               0.002397694              -0.001242177              -0.000055215               0.000817628               0.000762413               0.000000000               0.000000000               0.000000000               0.000000000               0.000330399               0.003157782              -0.001164432              -0.000270823               0.001142858               0.000872034               0.000000000               0.000000000               0.000000000               0.000000000               0.000246375               0.003525427              -0.000978606              -0.000348288               0.001291226               0.000942938               0.000000000               0.000000000               0.000000000               0.000000000               0.000232162               0.003719325              -0.000804375              -0.000377854               0.001365714               0.000987860               0.000000000               0.000000000               0.000000000               0.000000000               0.000232832               0.003819038              -0.000665685              -0.000390067               0.001403022               0.001012955               0.000000000               0.000000000               0.000000000               0.000000000               0.000226228               0.003862240              -0.000560972              -0.000397944               0.001420048               0.001022105               0.000000000               0.000000000               0.000000000               0.000000000               0.000212544               0.003872953              -0.000482179              -0.000404414               0.001425776               0.001021362               0.000000000               0.000000000               0.000000000               0.000000000               0.000194996               0.003873046              -0.000417713              -0.000411006               0.001428004               0.001016998               0.000000000               0.000000000               0.000000000               0.000000000               0.000169030               0.003864122              -0.000360529              -0.000419628               0.001427904               0.001008276               0.000000000               0.000000000               0.000000000               0.000000000               0.000134328               0.003842506              -0.000307889              -0.000429939               0.001424136               0.000994196               0.000000000               0.000000000               0.000000000               0.000000000               0.000089862               0.003805787              -0.000255465              -0.000442024               0.001415924               0.000973900               0.000000000               0.000000000               0.000000000               0.000000000               0.000034009               0.003761147              -0.000200009              -0.000457389               0.001406166               0.000948777               0.000000000               0.000000000               0.000000000               0.000000000              -0.000032262               0.003713860              -0.000144176              -0.000476330               0.001396718               0.000920388               0.000000000               0.000000000               0.000000000               0.000000000              -0.000107693               0.003664848              -0.000091746              -0.000498490               0.001387767               0.000889277               0.000000000               0.000000000               0.000000000               0.000000000              -0.000190120               0.003610645              -0.000043226              -0.000522624               0.001377744               0.000855120               0.000000000               0.000000000               0.000000000               0.000000000              -0.000247384               0.003568010              -0.000013835              -0.000538769               0.001368915               0.000830146               0.000000000               0.000000000               0.000000000               0.000000000               0.000656824               0.001203535              -0.000917380               0.000095865               0.000369219               0.000465084               0.000000000               0.000000000               0.000000000               0.000000000               0.000589286               0.001829672              -0.001099921              -0.000007728               0.000612460               0.000604732               0.000000000               0.000000000               0.000000000               0.000000000               0.000404402               0.002607310              -0.001173994              -0.000174264               0.000927182               0.000752918               0.000000000               0.000000000               0.000000000               0.000000000               0.000342937               0.003068050              -0.001051910              -0.000254905               0.001107641               0.000852736               0.000000000               0.000000000               0.000000000               0.000000000               0.000325488               0.003352510              -0.000898790              -0.000297006               0.001216494               0.000919488               0.000000000               0.000000000               0.000000000               0.000000000               0.000322927               0.003524414              -0.000763834              -0.000319454               0.001281277               0.000961823               0.000000000               0.000000000               0.000000000               0.000000000               0.000312453               0.003624432              -0.000654098              -0.000335884               0.001320093               0.000984209               0.000000000               0.000000000               0.000000000               0.000000000               0.000289995               0.003685312              -0.000566359              -0.000351915               0.001345730               0.000993815               0.000000000               0.000000000               0.000000000               0.000000000               0.000266361               0.003725200              -0.000495767              -0.000365764               0.001363642               0.000997878               0.000000000               0.000000000               0.000000000               0.000000000               0.000241881               0.003741633              -0.000434781              -0.000376998               0.001372865               0.000995866               0.000000000               0.000000000               0.000000000               0.000000000               0.000207712               0.003738757              -0.000377102              -0.000389452               0.001376057               0.000986606               0.000000000               0.000000000               0.000000000               0.000000000               0.000162832               0.003725914              -0.000317046              -0.000404676               0.001376851               0.000972175               0.000000000               0.000000000               0.000000000               0.000000000               0.000108378               0.003708199              -0.000253973              -0.000422882               0.001377015               0.000954133               0.000000000               0.000000000               0.000000000               0.000000000               0.000040325               0.003677447              -0.000188953              -0.000444558               0.001373989               0.000929432               0.000000000               0.000000000               0.000000000               0.000000000              -0.000040759               0.003639596              -0.000124307              -0.000470233               0.001369931               0.000899698               0.000000000               0.000000000               0.000000000               0.000000000              -0.000135090               0.003597807              -0.000060605              -0.000500384               0.001366052               0.000865668               0.000000000               0.000000000               0.000000000               0.000000000              -0.000206256               0.003561505              -0.000021886              -0.000522533               0.001361334               0.000838801               0.000000000               0.000000000               0.000000000               0.000000000               0.000328209               0.000737221              -0.000635451               0.000030924               0.000235429               0.000266354               0.000000000               0.000000000               0.000000000               0.000000000               0.000494283               0.001321448              -0.000908816               0.000020174               0.000433753               0.000453927               0.000000000               0.000000000               0.000000000               0.000000000               0.000482535               0.002056446              -0.001089065              -0.000076106               0.000710843               0.000634737               0.000000000               0.000000000               0.000000000               0.000000000               0.000467684               0.002571182              -0.001032937              -0.000146017               0.000905724               0.000759707               0.000000000               0.000000000               0.000000000               0.000000000               0.000459387               0.002925882              -0.000919631              -0.000193465               0.001039772               0.000846307               0.000000000               0.000000000               0.000000000               0.000000000               0.000449395               0.003168296              -0.000801364              -0.000227514               0.001131926               0.000904412               0.000000000               0.000000000               0.000000000               0.000000000               0.000425619               0.003330607              -0.000694115              -0.000256718               0.001195764               0.000939046               0.000000000               0.000000000               0.000000000               0.000000000               0.000395900               0.003446329              -0.000608846              -0.000282328               0.001242874               0.000960546               0.000000000               0.000000000               0.000000000               0.000000000               0.000367009               0.003528524              -0.000541660              -0.000303437               0.001277308               0.000973872               0.000000000               0.000000000               0.000000000               0.000000000               0.000336095               0.003576150              -0.000479424              -0.000320982               0.001299032               0.000978050               0.000000000               0.000000000               0.000000000               0.000000000               0.000298126               0.003605558              -0.000417023              -0.000338897               0.001314806               0.000975909               0.000000000               0.000000000               0.000000000               0.000000000               0.000256083               0.003628938              -0.000355554              -0.000357585               0.001328829               0.000971244               0.000000000               0.000000000               0.000000000               0.000000000               0.000208845               0.003638286              -0.000290912              -0.000376468               0.001338239               0.000961771               0.000000000               0.000000000               0.000000000               0.000000000               0.000152356               0.003628314              -0.000223362              -0.000396405               0.001341561               0.000945156               0.000000000               0.000000000               0.000000000               0.000000000               0.000086642               0.003607825              -0.000154302              -0.000418486               0.001342092               0.000923605               0.000000000               0.000000000               0.000000000               0.000000000               0.000007356               0.003582572              -0.000079750              -0.000445062               0.001342533               0.000897471               0.000000000               0.000000000               0.000000000               0.000000000              -0.000057668               0.003556994              -0.000033882              -0.000466248               0.001341069               0.000874821               0.000000000               0.000000000               0.000000000               0.000000000              -0.000012351               0.000400297              -0.000395840              -0.000054669               0.000151654               0.000096985               0.000000000               0.000000000               0.000000000               0.000000000               0.000375910               0.000901897              -0.000687061               0.000028228               0.000291219               0.000319447               0.000000000               0.000000000               0.000000000               0.000000000               0.000553233               0.001553271              -0.000911417               0.000013302               0.000513318               0.000526620               0.000000000               0.000000000               0.000000000               0.000000000               0.000601683               0.002084081              -0.000909030              -0.000034880               0.000706313               0.000671433               0.000000000               0.000000000               0.000000000               0.000000000               0.000609663               0.002491353              -0.000837675              -0.000082796               0.000858041               0.000775245               0.000000000               0.000000000               0.000000000               0.000000000               0.000595422               0.002794899              -0.000745119              -0.000126080               0.000973650               0.000847571               0.000000000               0.000000000               0.000000000               0.000000000               0.000563204               0.003015150              -0.000655358              -0.000165692               0.001060271               0.000894578               0.000000000               0.000000000               0.000000000               0.000000000               0.000524495               0.003179043              -0.000585427              -0.000200694               0.001126569               0.000925874               0.000000000               0.000000000               0.000000000               0.000000000               0.000482860               0.003299397              -0.000528477              -0.000231352               0.001176905               0.000945553               0.000000000               0.000000000               0.000000000               0.000000000               0.000440366               0.003386906              -0.000471436              -0.000258226               0.001215032               0.000956807               0.000000000               0.000000000               0.000000000               0.000000000               0.000399734               0.003457364              -0.000412406              -0.000282270               0.001246533               0.000964263               0.000000000               0.000000000               0.000000000               0.000000000               0.000360054               0.003515237              -0.000355467              -0.000304384               0.001273195               0.000968811               0.000000000               0.000000000               0.000000000               0.000000000               0.000320466               0.003553354              -0.000297442              -0.000323994               0.001292437               0.000968444               0.000000000               0.000000000               0.000000000               0.000000000               0.000283083               0.003571911              -0.000238305              -0.000340332               0.001304069               0.000963737               0.000000000               0.000000000               0.000000000               0.000000000               0.000245477               0.003575500              -0.000174598              -0.000354883               0.001310116               0.000955233               0.000000000               0.000000000               0.000000000               0.000000000               0.000199322               0.003567919              -0.000095899              -0.000371243               0.001313042               0.000941799               0.000000000               0.000000000               0.000000000               0.000000000               0.000158979               0.003553998              -0.000047358              -0.000384632               0.001312865               0.000928233               0.000000000               0.000000000               0.000000000               0.000000000              -0.000306780               0.000184108              -0.000214191              -0.000138056               0.000107387              -0.000030669               0.000000000               0.000000000               0.000000000               0.000000000               0.000261035               0.000594621              -0.000454730               0.000023560               0.000190352               0.000213911               0.000000000               0.000000000               0.000000000               0.000000000               0.000607427               0.001149960              -0.000654695               0.000084039               0.000355303               0.000439342               0.000000000               0.000000000               0.000000000               0.000000000               0.000720287               0.001673640              -0.000678912               0.000060902               0.000537574               0.000598475               0.000000000               0.000000000               0.000000000               0.000000000               0.000745541               0.002114423              -0.000643013               0.000015274               0.000699709               0.000714983               0.000000000               0.000000000               0.000000000               0.000000000               0.000731028               0.002461430              -0.000582190              -0.000033544               0.000831650               0.000798106               0.000000000               0.000000000               0.000000000               0.000000000               0.000696570               0.002723698              -0.000519542              -0.000079249               0.000934306               0.000855058               0.000000000               0.000000000               0.000000000               0.000000000               0.000649408               0.002924208              -0.000469933              -0.000121998               0.001015392               0.000893394               0.000000000               0.000000000               0.000000000               0.000000000               0.000596250               0.003081855              -0.000429502              -0.000161638               0.001081154               0.000919516               0.000000000               0.000000000               0.000000000               0.000000000               0.000544149               0.003206026              -0.000388002              -0.000196697               0.001134230               0.000937533               0.000000000               0.000000000               0.000000000               0.000000000               0.000500177               0.003308258              -0.000342629              -0.000225965               0.001178063               0.000952098               0.000000000               0.000000000               0.000000000               0.000000000               0.000463155               0.003393241              -0.000297624              -0.000250471               0.001214559               0.000964088               0.000000000               0.000000000               0.000000000               0.000000000               0.000434089               0.003459255              -0.000253908              -0.000269623               0.001242948               0.000973325               0.000000000               0.000000000               0.000000000               0.000000000               0.000414514               0.003507762              -0.000210337              -0.000283027               0.001263585               0.000980558               0.000000000               0.000000000               0.000000000               0.000000000               0.000402923               0.003538836              -0.000159941              -0.000291258               0.001276686               0.000985429               0.000000000               0.000000000               0.000000000               0.000000000               0.000398106               0.003552528              -0.000090926              -0.000294776               0.001282423               0.000987647               0.000000000               0.000000000               0.000000000               0.000000000               0.000397536               0.003553948              -0.000049404              -0.000295167               0.001283026               0.000987860               0.000000000               0.000000000               0.000000000               0.000000000              -0.000504460               0.000069810              -0.000090535              -0.000197898               0.000089235              -0.000108663               0.000000000               0.000000000               0.000000000               0.000000000               0.000182270               0.000411444              -0.000225697               0.000016920               0.000131506               0.000148427               0.000000000               0.000000000               0.000000000               0.000000000               0.000643633               0.000889641              -0.000342590               0.000130156               0.000253159               0.000383314               0.000000000               0.000000000               0.000000000               0.000000000               0.000805752               0.001399637              -0.000364507               0.000127201               0.000424141               0.000551342               0.000000000               0.000000000               0.000000000               0.000000000               0.000843276               0.001858644              -0.000350451               0.000083897               0.000591576               0.000675473               0.000000000               0.000000000               0.000000000               0.000000000               0.000826131               0.002229359              -0.000319722               0.000031129               0.000732736               0.000763865               0.000000000               0.000000000               0.000000000               0.000000000               0.000789456               0.002513898              -0.000287859              -0.000018191               0.000844021               0.000825830               0.000000000               0.000000000               0.000000000               0.000000000               0.000742018               0.002737268              -0.000262825              -0.000063902               0.000933714               0.000869812               0.000000000               0.000000000               0.000000000               0.000000000               0.000687911               0.002921113              -0.000242429              -0.000107172               0.001009419               0.000902246               0.000000000               0.000000000               0.000000000               0.000000000               0.000632504               0.003071204              -0.000221499              -0.000146711               0.001072628               0.000925917               0.000000000               0.000000000               0.000000000               0.000000000               0.000585370               0.003192700              -0.000196812              -0.000179573               0.001124080               0.000944507               0.000000000               0.000000000               0.000000000               0.000000000               0.000551062               0.003292565              -0.000171857              -0.000204922               0.001165818               0.000960896               0.000000000               0.000000000               0.000000000               0.000000000               0.000530191               0.003374156              -0.000148427              -0.000222947               0.001199023               0.000976076               0.000000000               0.000000000               0.000000000               0.000000000               0.000522915               0.003441532              -0.000123377              -0.000234098               0.001225199               0.000991101               0.000000000               0.000000000               0.000000000               0.000000000               0.000531147               0.003495867              -0.000094129              -0.000237803               0.001244545               0.001006742               0.000000000               0.000000000               0.000000000               0.000000000               0.000560431               0.003532715              -0.000053605              -0.000231427               0.001254702               0.001023275               0.000000000               0.000000000               0.000000000               0.000000000               0.000594432               0.003549968              -0.000029613              -0.000220834               0.001256922               0.001036089               0.000000000               0.000000000               0.000000000               0.000000000               0.000000000               0.000000000               0.000000000               0.000000000               0.000000000               0.000000000               0.000000000               0.000000000               0.000000000               0.000000000               0.000000000               0.000000000               0.000000000               0.000000000               0.000000000               0.000000000               0.000000000               0.000000000               0.000000000               0.000000000               0.000000000               0.000000000               0.000000000               0.000000000               0.000000000               0.000000000               0.000000000               0.000000000               0.000000000               0.000000000               0.000000000               0.000000000               0.000000000               0.000000000               0.000000000               0.000000000               0.000000000               0.000000000               0.000000000               0.000000000               0.000000000               0.000000000               0.000000000               0.000000000               0.000000000               0.000000000               0.000000000               0.000000000               0.000000000               0.000000000               0.000000000               0.000000000               0.000000000               0.000000000               0.000000000               0.000000000               0.000000000               0.000000000               0.000000000               0.000000000               0.000000000               0.000000000               0.000000000               0.000000000               0.000000000               0.000000000               0.000000000               0.000000000               0.000000000               0.000000000               0.000000000               0.000000000               0.000000000               0.000000000               0.000000000               0.000000000               0.000000000               0.000000000               0.000000000               0.000000000               0.000000000               0.000000000               0.000000000               0.000000000               0.000000000               0.000000000               0.000000000               0.000000000               0.000000000               0.000000000               0.000000000               0.000000000               0.000000000               0.000000000               0.000000000               0.000000000               0.000000000               0.000000000               0.000000000               0.000000000               0.000000000               0.000000000               0.000000000               0.000000000               0.000000000               0.000000000               0.000000000               0.000000000               0.000000000               0.000000000               0.000000000               0.000000000               0.000000000               0.000000000               0.000000000               0.000000000               0.000000000               0.000000000               0.000000000               0.000000000               0.000000000               0.000000000               0.000000000               0.000000000               0.000000000               0.000000000               0.000000000               0.000000000               0.000000000               0.000000000               0.000000000               0.000000000               0.000000000               0.000000000               0.000000000               0.000000000               0.000000000               0.000000000               0.000000000               0.000000000               0.000000000               0.000000000               0.000000000               0.000000000               0.000000000               0.000000000               0.000000000               0.000000000               0.000000000               0.000000000               0.000000000               0.000000000               0.000000000               0.000000000               0.000000000               0.000000000               0.000000000               0.000000000               0.000000000               0.000000000               0.000000000               0.000000000               0.000000000               0.000000000               0.000000000               0.000000000               0.000000000               0.000000000               0.000000000               0.000000000               0.000000000               0.000000000               0.000000000               0.000000000               0.000000000               0.000000000               0.000000000               0.000000000               0.000000000               0.000000000               0.000000000               0.000000000               0.000000000               0.000000000               0.000000000               0.000000000               0.000000000               0.000000000               0.000000000               0.000000000               0.000000000               0.000000000               0.000000000               0.000000000               0.000000000               0.000000000               0.000000000               0.000000000               0.000000000               0.000000000               0.000000000               0.000000000               0.000000000               0.000000000               0.000000000               0.000000000               0.000000000               0.000000000               0.000000000               0.000000000               0.000000000               0.000000000               0.000000000               0.000000000               0.000000000               0.000000000               0.000000000               0.000000000               0.000000000               0.000000000               0.000000000               0.000000000               0.000000000               0.000000000               0.000000000               0.000000000               0.000000000               0.000000000               0.000000000               0.000000000               0.000000000               0.000000000               0.000000000               0.000000000               0.000000000               0.000000000               0.000000000               0.000000000               0.000000000               0.000000000               0.000000000               0.000000000               0.000000000               0.000000000               0.000000000               0.000000000               0.000000000               0.000000000               0.000000000               0.000000000               0.000000000               0.000000000               0.000000000               0.000000000               0.000000000               0.000000000               0.000000000               0.000000000               0.000000000               0.000000000               0.000000000               0.000000000               0.000000000               0.000000000               0.000000000               0.000000000               0.000000000               0.000000000               0.000000000               0.000000000               0.000000000               0.000000000               0.000000000               0.000000000               0.000000000               0.000000000               0.000000000               0.000000000               0.000000000               0.000000000               0.000000000               0.000000000               0.000000000               0.000000000               0.000000000               0.000000000               0.000000000               0.000000000               0.000000000               0.000000000               0.000000000               0.000000000               0.000000000               0.000000000               0.000000000               0.000000000               0.000000000               0.000000000               0.000000000               0.000000000               0.000000000               0.000000000               0.000000000               0.000000000               0.000000000               0.000000000               0.000000000               0.000000000               0.000000000               0.000000000               0.000000000               0.000000000               0.000000000               0.000000000               0.000000000               0.000000000               0.000000000               0.000000000               0.000000000               0.000000000               0.000000000               0.000000000               0.000000000               0.000000000               0.000000000               0.000000000               0.000000000               0.000000000               0.000000000               0.000000000               0.000000000               0.000000000               0.000000000               0.000000000               0.000000000               0.000000000               0.000000000               0.000000000               0.000000000               0.000000000               0.000835319               0.008795245               0.000656436              -0.000786159               0.003193772               0.002407613               0.000000000               0.000000000               0.000000000               0.000000000               0.000870664               0.007231089               0.000400629              -0.000577386               0.002602801               0.002025415               0.000000000               0.000000000               0.000000000               0.000000000               0.001167713               0.005997081               0.000137982              -0.000311742               0.002102921               0.001791179               0.000000000               0.000000000               0.000000000               0.000000000               0.001193463               0.005324222               0.000018141              -0.000217979               0.001847383               0.001629404               0.000000000               0.000000000               0.000000000               0.000000000               0.001123716               0.004927722              -0.000035289              -0.000194571               0.001707415               0.001512843               0.000000000               0.000000000               0.000000000               0.000000000               0.001020657               0.004673168              -0.000057234              -0.000201399               0.001624840               0.001423441               0.000000000               0.000000000               0.000000000               0.000000000               0.000905253               0.004503006              -0.000067369              -0.000223405               0.001575456               0.001352050               0.000000000               0.000000000               0.000000000               0.000000000               0.000789256               0.004389578              -0.000072028              -0.000252726               0.001547420               0.001294694               0.000000000               0.000000000               0.000000000               0.000000000               0.000677831               0.004313107              -0.000072267              -0.000284951               0.001532672               0.001247721               0.000000000               0.000000000               0.000000000               0.000000000               0.000571819               0.004261378              -0.000070164              -0.000318239               0.001526525               0.001208286               0.000000000               0.000000000               0.000000000               0.000000000               0.000469250               0.004224076              -0.000067387              -0.000352040               0.001525358               0.001173318               0.000000000               0.000000000               0.000000000               0.000000000               0.000372794               0.004195827              -0.000063947              -0.000384680               0.001526821               0.001142142               0.000000000               0.000000000               0.000000000               0.000000000               0.000285483               0.004173593              -0.000059572              -0.000414642               0.001529398               0.001114756               0.000000000               0.000000000               0.000000000               0.000000000               0.000203268               0.004151921              -0.000053367              -0.000442763               0.001531548               0.001088784               0.000000000               0.000000000               0.000000000               0.000000000               0.000128282               0.004128184              -0.000042366              -0.000467916               0.001532020               0.001064104               0.000000000               0.000000000               0.000000000               0.000000000               0.000061693               0.004098564              -0.000024985              -0.000489185               0.001529236               0.001040051               0.000000000               0.000000000               0.000000000               0.000000000               0.000029144               0.004077333              -0.000014399              -0.000498736               0.001525343               0.001026607               0.000000000               0.000000000               0.000000000               0.000000000               0.000952564               0.008346907               0.001242115              -0.000686151               0.003010991               0.002324841               0.000000000               0.000000000               0.000000000               0.000000000               0.000888521               0.006926152               0.000760413              -0.000532573               0.002486218               0.001953646               0.000000000               0.000000000               0.000000000               0.000000000               0.001080135               0.005845114               0.000270570              -0.000325588               0.002056881               0.001731293               0.000000000               0.000000000               0.000000000               0.000000000               0.001064683               0.005253675               0.000054192              -0.000257452               0.001837025               0.001579573               0.000000000               0.000000000               0.000000000               0.000000000               0.000983513               0.004901442              -0.000039313              -0.000243862               0.001715085               0.001471223               0.000000000               0.000000000               0.000000000               0.000000000               0.000883194               0.004672198              -0.000078279              -0.000252826               0.001641659               0.001388833               0.000000000               0.000000000               0.000000000               0.000000000               0.000778309               0.004519006              -0.000097655              -0.000273009               0.001597323               0.001324314               0.000000000               0.000000000               0.000000000               0.000000000               0.000676283               0.004415462              -0.000106845              -0.000298326               0.001571248               0.001272922               0.000000000               0.000000000               0.000000000               0.000000000               0.000578220               0.004344136              -0.000109948              -0.000326184               0.001556759               0.001230575               0.000000000               0.000000000               0.000000000               0.000000000               0.000486790               0.004295541              -0.000109301              -0.000354396               0.001549965               0.001195569               0.000000000               0.000000000               0.000000000               0.000000000               0.000401450               0.004260436              -0.000105399              -0.000382010               0.001547468               0.001165458               0.000000000               0.000000000               0.000000000               0.000000000               0.000321373               0.004232730              -0.000100620              -0.000408575               0.001547088               0.001138512               0.000000000               0.000000000               0.000000000               0.000000000               0.000250205               0.004213707              -0.000093604              -0.000432885               0.001548850               0.001115965               0.000000000               0.000000000               0.000000000               0.000000000               0.000183333               0.004199981              -0.000083009              -0.000456246               0.001552062               0.001095815               0.000000000               0.000000000               0.000000000               0.000000000               0.000119581               0.004192954              -0.000065778              -0.000479275               0.001557396               0.001078121               0.000000000               0.000000000               0.000000000               0.000000000               0.000058465               0.004192993              -0.000038479              -0.000502199               0.001565050               0.001062851               0.000000000               0.000000000               0.000000000               0.000000000               0.000031706               0.004200492              -0.000020509              -0.000513171               0.001571207               0.001058036               0.000000000               0.000000000               0.000000000               0.000000000               0.001107284               0.007654887               0.001693947              -0.000541629               0.002732146               0.002190517               0.000000000               0.000000000               0.000000000               0.000000000               0.000899927               0.006460050               0.001046469              -0.000470033               0.002310006               0.001839973               0.000000000               0.000000000               0.000000000               0.000000000               0.000938651               0.005616055               0.000395898              -0.000350012               0.001988670               0.001638658               0.000000000               0.000000000               0.000000000               0.000000000               0.000873238               0.005144779               0.000117775              -0.000315632               0.001820120               0.001504488               0.000000000               0.000000000               0.000000000               0.000000000               0.000787990               0.004851832              -0.000003240              -0.000310982               0.001720922               0.001409940               0.000000000               0.000000000               0.000000000               0.000000000               0.000700816               0.004658925              -0.000054813              -0.000319559               0.001659479               0.001339920               0.000000000               0.000000000               0.000000000               0.000000000               0.000613072               0.004526389              -0.000081850              -0.000335896               0.001620747               0.001284851               0.000000000               0.000000000               0.000000000               0.000000000               0.000531676               0.004434401              -0.000096280              -0.000354921               0.001596426               0.001241505               0.000000000               0.000000000               0.000000000               0.000000000               0.000456435               0.004370819              -0.000102706              -0.000375188               0.001581988               0.001206800               0.000000000               0.000000000               0.000000000               0.000000000               0.000387634               0.004326087              -0.000104243              -0.000395397               0.001573814               0.001178417               0.000000000               0.000000000               0.000000000               0.000000000               0.000323330               0.004292446              -0.000100028              -0.000415306               0.001569236               0.001153930               0.000000000               0.000000000               0.000000000               0.000000000               0.000262255               0.004268394              -0.000093614              -0.000435203               0.001567851               0.001132649               0.000000000               0.000000000               0.000000000               0.000000000               0.000207280               0.004254966              -0.000084670              -0.000454140               0.001569688               0.001115548               0.000000000               0.000000000               0.000000000               0.000000000               0.000155414               0.004252928              -0.000072000              -0.000473334               0.001575407               0.001102072               0.000000000               0.000000000               0.000000000               0.000000000               0.000102937               0.004262671              -0.000055319              -0.000494231               0.001585620               0.001091389               0.000000000               0.000000000               0.000000000               0.000000000               0.000050255               0.004287969              -0.000030966              -0.000517149               0.001601692               0.001084542               0.000000000               0.000000000               0.000000000               0.000000000               0.000031294               0.004318159              -0.000013049              -0.000528033               0.001615383               0.001087350               0.000000000               0.000000000               0.000000000               0.000000000               0.001253120               0.006789281               0.001984891              -0.000378741               0.002389318               0.002010577               0.000000000               0.000000000               0.000000000               0.000000000               0.000891755               0.005888538               0.001248549              -0.000401659               0.002096713               0.001695053               0.000000000               0.000000000               0.000000000               0.000000000               0.000765719               0.005334099               0.000511554              -0.000379617               0.001904554               0.001524937               0.000000000               0.000000000               0.000000000               0.000000000               0.000659605               0.004998104               0.000204112              -0.000377410               0.001791821               0.001414411               0.000000000               0.000000000               0.000000000               0.000000000               0.000577904               0.004772811               0.000069055              -0.000379886               0.001717550               0.001337663               0.000000000               0.000000000               0.000000000               0.000000000               0.000511167               0.004620397               0.000010450              -0.000385861               0.001668737               0.001282876               0.000000000               0.000000000               0.000000000               0.000000000               0.000449856               0.004511664              -0.000019358              -0.000395261               0.001635627               0.001240365               0.000000000               0.000000000               0.000000000               0.000000000               0.000393681               0.004430702              -0.000037171              -0.000406206               0.001612288               0.001206081               0.000000000               0.000000000               0.000000000               0.000000000               0.000344105               0.004370322              -0.000048315              -0.000417250               0.001595843               0.001178593               0.000000000               0.000000000               0.000000000               0.000000000               0.000299249               0.004326010              -0.000052271              -0.000428532               0.001584833               0.001156301               0.000000000               0.000000000               0.000000000               0.000000000               0.000252848               0.004293862              -0.000048604              -0.000441914               0.001578578               0.001136664               0.000000000               0.000000000               0.000000000               0.000000000               0.000206166               0.004273507              -0.000041540              -0.000456875               0.001576780               0.001119905               0.000000000               0.000000000               0.000000000               0.000000000               0.000162416               0.004263003              -0.000033330              -0.000471968               0.001578310               0.001106341               0.000000000               0.000000000               0.000000000               0.000000000               0.000120396               0.004263607              -0.000024398              -0.000487801               0.001583789               0.001095987               0.000000000               0.000000000               0.000000000               0.000000000               0.000079072               0.004275204              -0.000016205              -0.000504747               0.001593303               0.001088555               0.000000000               0.000000000               0.000000000               0.000000000               0.000039020               0.004297578              -0.000007647              -0.000522564               0.001606700               0.001084136               0.000000000               0.000000000               0.000000000               0.000000000               0.000024755               0.004320624               0.000000000              -0.000530794               0.001617125               0.001086331               0.000000000               0.000000000               0.000000000               0.000000000               0.001356598               0.005843394               0.002110637              -0.000221702               0.002021679               0.001799977               0.000000000               0.000000000               0.000000000               0.000000000               0.000862709               0.005273789               0.001367035              -0.000335708               0.001869814               0.001534106               0.000000000               0.000000000               0.000000000               0.000000000               0.000589695               0.005023172               0.000620165              -0.000406760               0.001809961               0.001403200               0.000000000               0.000000000               0.000000000               0.000000000               0.000461887               0.004819378               0.000312983              -0.000429213               0.001749514               0.001320301               0.000000000               0.000000000               0.000000000               0.000000000               0.000396585               0.004663087               0.000174807              -0.000434165               0.001699069               0.001264903               0.000000000               0.000000000               0.000000000               0.000000000               0.000353416               0.004549566               0.000110885              -0.000436164               0.001661895               0.001225731               0.000000000               0.000000000               0.000000000               0.000000000               0.000317930               0.004464702               0.000078552              -0.000438863               0.001634507               0.001195644               0.000000000               0.000000000               0.000000000               0.000000000               0.000288349               0.004394135               0.000056135              -0.000441135               0.001611742               0.001170607               0.000000000               0.000000000               0.000000000               0.000000000               0.000260693               0.004335791               0.000038067              -0.000444213               0.001593320               0.001149107               0.000000000               0.000000000               0.000000000               0.000000000               0.000230006               0.004291314               0.000026625              -0.000450161               0.001580477               0.001130317               0.000000000               0.000000000               0.000000000               0.000000000               0.000193485               0.004259930               0.000023599              -0.000459933               0.001573274               0.001113340               0.000000000               0.000000000               0.000000000               0.000000000               0.000154034               0.004237135               0.000024973              -0.000471878               0.001569657               0.001097779               0.000000000               0.000000000               0.000000000               0.000000000               0.000115507               0.004221161               0.000025556              -0.000484329               0.001568483               0.001084154               0.000000000               0.000000000               0.000000000               0.000000000               0.000078650               0.004211386               0.000021963              -0.000496928               0.001569424               0.001072496               0.000000000               0.000000000               0.000000000               0.000000000               0.000046514               0.004207195               0.000014325              -0.000508455               0.001571869               0.001063414               0.000000000               0.000000000               0.000000000               0.000000000               0.000020670               0.004204012               0.000006622              -0.000517749               0.001573906               0.001056157               0.000000000               0.000000000               0.000000000               0.000000000               0.000008950               0.004199901               0.000003082              -0.000521630               0.001573830               0.001052200               0.000000000               0.000000000               0.000000000               0.000000000               0.001393135               0.004900997               0.002088963              -0.000090201               0.001663716               0.001573515               0.000000000               0.000000000               0.000000000               0.000000000               0.000815612               0.004664851               0.001415333              -0.000277253               0.001647352               0.001370099               0.000000000               0.000000000               0.000000000               0.000000000               0.000436013               0.004707023               0.000727041              -0.000424872               0.001710616               0.001285744               0.000000000               0.000000000               0.000000000               0.000000000               0.000309906               0.004627846               0.000438234              -0.000462265               0.001696688               0.001234423               0.000000000               0.000000000               0.000000000               0.000000000               0.000267838               0.004533789               0.000299341              -0.000466283               0.001666676               0.001200392               0.000000000               0.000000000               0.000000000               0.000000000               0.000246821               0.004451637               0.000224736              -0.000463896               0.001638496               0.001174600               0.000000000               0.000000000               0.000000000               0.000000000               0.000231983               0.004385728               0.000182908              -0.000461221               0.001615635               0.001154414               0.000000000               0.000000000               0.000000000               0.000000000               0.000219153               0.004324042               0.000153154              -0.000458322               0.001594107               0.001135785               0.000000000               0.000000000               0.000000000               0.000000000               0.000200499               0.004269087               0.000125187              -0.000458447               0.001575830               0.001117383               0.000000000               0.000000000               0.000000000               0.000000000               0.000174971               0.004224774               0.000101628              -0.000462481               0.001562404               0.001099923               0.000000000               0.000000000               0.000000000               0.000000000               0.000141907               0.004187867               0.000086249              -0.000470267               0.001552698               0.001082430               0.000000000               0.000000000               0.000000000               0.000000000               0.000104514               0.004155302               0.000075529              -0.000480219               0.001545160               0.001064941               0.000000000               0.000000000               0.000000000               0.000000000               0.000068538               0.004126454               0.000062645              -0.000490104               0.001538839               0.001048735               0.000000000               0.000000000               0.000000000               0.000000000               0.000035714               0.004099960               0.000045034              -0.000499101               0.001533007               0.001033906               0.000000000               0.000000000               0.000000000               0.000000000               0.000013534               0.004074049               0.000024876              -0.000504179               0.001526062               0.001021883               0.000000000               0.000000000               0.000000000               0.000000000               0.000003020               0.004042985               0.000008948              -0.000504239               0.001515728               0.001011488               0.000000000               0.000000000               0.000000000               0.000000000              -0.000004598               0.004017420               0.000000602              -0.000503901               0.001507093               0.001003193               0.000000000               0.000000000               0.000000000               0.000000000               0.001358444               0.004012248               0.001952343               0.000007883               0.001334774               0.001342657               0.000000000               0.000000000               0.000000000               0.000000000               0.000752017               0.004098269               0.001409620              -0.000230278               0.001442835               0.001212557               0.000000000               0.000000000               0.000000000               0.000000000               0.000320886               0.004399764               0.000829723              -0.000429638               0.001609786               0.001180148               0.000000000               0.000000000               0.000000000               0.000000000               0.000214650               0.004425770               0.000562990              -0.000472726               0.001632817               0.001160091               0.000000000               0.000000000               0.000000000               0.000000000               0.000196126               0.004385903               0.000419447              -0.000474689               0.001620183               0.001145493               0.000000000               0.000000000               0.000000000               0.000000000               0.000192008               0.004332853               0.000329324              -0.000469603               0.001600804               0.001131201               0.000000000               0.000000000               0.000000000               0.000000000               0.000185664               0.004277109               0.000271718              -0.000465014               0.001580693               0.001115680               0.000000000               0.000000000               0.000000000               0.000000000               0.000175687               0.004222490               0.000231916              -0.000461927               0.001561459               0.001099531               0.000000000               0.000000000               0.000000000               0.000000000               0.000157875               0.004173427               0.000193557              -0.000462474               0.001545286               0.001082812               0.000000000               0.000000000               0.000000000               0.000000000               0.000130003               0.004128349               0.000157815              -0.000467292               0.001531866               0.001064575               0.000000000               0.000000000               0.000000000               0.000000000               0.000094693               0.004081807               0.000128335              -0.000474715               0.001518827               0.001044112               0.000000000               0.000000000               0.000000000               0.000000000               0.000057539               0.004036208               0.000103548              -0.000482948               0.001506372               0.001023424               0.000000000               0.000000000               0.000000000               0.000000000               0.000022264               0.003991575               0.000078371              -0.000490597               0.001494044               0.001003447               0.000000000               0.000000000               0.000000000               0.000000000              -0.000007827               0.003945221               0.000050097              -0.000496087               0.001480423               0.000984336               0.000000000               0.000000000               0.000000000               0.000000000              -0.000023408               0.003895963               0.000024401              -0.000495772               0.001463899               0.000968126               0.000000000               0.000000000               0.000000000               0.000000000              -0.000019692               0.003843740               0.000006638              -0.000487851               0.001443851               0.000956000               0.000000000               0.000000000               0.000000000               0.000000000              -0.000017952               0.003807103              -0.000003676              -0.000482619               0.001429895               0.000947276               0.000000000               0.000000000               0.000000000               0.000000000               0.001285097               0.003238940               0.001737710               0.000077041               0.001053955               0.001130996               0.000000000               0.000000000               0.000000000               0.000000000               0.000700731               0.003590234               0.001374547              -0.000186006               0.001258734               0.001072728               0.000000000               0.000000000               0.000000000               0.000000000               0.000260471               0.004105643               0.000941753              -0.000415528               0.001507043               0.001091515               0.000000000               0.000000000               0.000000000               0.000000000               0.000174272               0.004228896               0.000689846              -0.000463259               0.001564038               0.001100778               0.000000000               0.000000000               0.000000000               0.000000000               0.000173170               0.004244281               0.000534165              -0.000465596               0.001569945               0.001104349               0.000000000               0.000000000               0.000000000               0.000000000               0.000176303               0.004222001               0.000427781              -0.000461635               0.001561198               0.001099563               0.000000000               0.000000000               0.000000000               0.000000000               0.000170512               0.004179729               0.000352782              -0.000458523               0.001546070               0.001087547               0.000000000               0.000000000               0.000000000               0.000000000               0.000156170               0.004133667               0.000299018              -0.000458143               0.001530590               0.001072446               0.000000000               0.000000000               0.000000000               0.000000000               0.000135383               0.004093733               0.000253322              -0.000460947               0.001518213               0.001057266               0.000000000               0.000000000               0.000000000               0.000000000               0.000108334               0.004051261               0.000209884              -0.000465781               0.001505667               0.001039886               0.000000000               0.000000000               0.000000000               0.000000000               0.000073663               0.004001248               0.000170420              -0.000472531               0.001491246               0.001018715               0.000000000               0.000000000               0.000000000               0.000000000               0.000033279               0.003946154               0.000133612              -0.000480788               0.001475634               0.000994846               0.000000000               0.000000000               0.000000000               0.000000000              -0.000006718               0.003888629               0.000098755              -0.000488597               0.001459062               0.000970466               0.000000000               0.000000000               0.000000000               0.000000000              -0.000042333               0.003827400               0.000064224              -0.000494299               0.001440554               0.000946255               0.000000000               0.000000000               0.000000000               0.000000000              -0.000067573               0.003759930               0.000033937              -0.000495330               0.001418407               0.000923077               0.000000000               0.000000000               0.000000000               0.000000000              -0.000077338               0.003690266               0.000011678              -0.000490284               0.001393504               0.000903221               0.000000000               0.000000000               0.000000000               0.000000000              -0.000078969               0.003647481              -0.000000103              -0.000485547               0.001377664               0.000892117               0.000000000               0.000000000               0.000000000               0.000000000               0.001156451               0.002494671               0.001487187               0.000121832               0.000790937               0.000912770               0.000000000               0.000000000               0.000000000               0.000000000               0.000679558               0.002994250               0.001327004              -0.000119449               0.001037889               0.000918440               0.000000000               0.000000000               0.000000000               0.000000000               0.000272656               0.003660971               0.001070384              -0.000355375               0.001338770               0.000983394               0.000000000               0.000000000               0.000000000               0.000000000               0.000187519               0.003908186               0.000839159              -0.000418203               0.001442116               0.001023913               0.000000000               0.000000000               0.000000000               0.000000000               0.000185073               0.004005929               0.000668330              -0.000431338               0.001479076               0.001047738               0.000000000               0.000000000               0.000000000               0.000000000               0.000188249               0.004038222               0.000541388              -0.000434183               0.001490788               0.001056605               0.000000000               0.000000000               0.000000000               0.000000000               0.000180704               0.004034390               0.000447925              -0.000436534               0.001490295               0.001053761               0.000000000               0.000000000               0.000000000               0.000000000               0.000168338               0.004010357               0.000380329              -0.000438167               0.001482828               0.001044661               0.000000000               0.000000000               0.000000000               0.000000000               0.000149088               0.003980520               0.000327293              -0.000441656               0.001474045               0.001032389               0.000000000               0.000000000               0.000000000               0.000000000               0.000120467               0.003949685               0.000277376              -0.000448534               0.001466060               0.001017526               0.000000000               0.000000000               0.000000000               0.000000000               0.000084932               0.003912643               0.000228858              -0.000457230               0.001456611               0.000999381               0.000000000               0.000000000               0.000000000               0.000000000               0.000042057               0.003863243               0.000183226              -0.000467133               0.001443446               0.000976313               0.000000000               0.000000000               0.000000000               0.000000000              -0.000007200               0.003805715               0.000138601              -0.000478413               0.001428030               0.000949617               0.000000000               0.000000000               0.000000000               0.000000000              -0.000060475               0.003746054               0.000095096              -0.000490934               0.001412317               0.000921383               0.000000000               0.000000000               0.000000000               0.000000000              -0.000111882               0.003685128               0.000056558              -0.000502595               0.001395896               0.000893300               0.000000000               0.000000000               0.000000000               0.000000000              -0.000157611               0.003619530               0.000024279              -0.000511544               0.001377013               0.000865468               0.000000000               0.000000000               0.000000000               0.000000000              -0.000183262               0.003576790               0.000006386              -0.000515821               0.001364192               0.000848371               0.000000000               0.000000000               0.000000000               0.000000000               0.000939364               0.001800963               0.001211056               0.000127139               0.000557935               0.000685073               0.000000000               0.000000000               0.000000000               0.000000000               0.000651995               0.002397694               0.001242177              -0.000055215               0.000817628               0.000762413               0.000000000               0.000000000               0.000000000               0.000000000               0.000330399               0.003157782               0.001164432              -0.000270823               0.001142858               0.000872034               0.000000000               0.000000000               0.000000000               0.000000000               0.000246375               0.003525427               0.000978606              -0.000348288               0.001291226               0.000942938               0.000000000               0.000000000               0.000000000               0.000000000               0.000232162               0.003719325               0.000804375              -0.000377854               0.001365714               0.000987860               0.000000000               0.000000000               0.000000000               0.000000000               0.000232832               0.003819038               0.000665685              -0.000390067               0.001403022               0.001012955               0.000000000               0.000000000               0.000000000               0.000000000               0.000226228               0.003862240               0.000560972              -0.000397944               0.001420048               0.001022105               0.000000000               0.000000000               0.000000000               0.000000000               0.000212544               0.003872953               0.000482179              -0.000404414               0.001425776               0.001021362               0.000000000               0.000000000               0.000000000               0.000000000               0.000194996               0.003873046               0.000417713              -0.000411006               0.001428004               0.001016998               0.000000000               0.000000000               0.000000000               0.000000000               0.000169030               0.003864122               0.000360529              -0.000419628               0.001427904               0.001008276               0.000000000               0.000000000               0.000000000               0.000000000               0.000134328               0.003842506               0.000307889              -0.000429939               0.001424136               0.000994196               0.000000000               0.000000000               0.000000000               0.000000000               0.000089862               0.003805787               0.000255465              -0.000442024               0.001415924               0.000973900               0.000000000               0.000000000               0.000000000               0.000000000               0.000034009               0.003761147               0.000200009              -0.000457389               0.001406166               0.000948777               0.000000000               0.000000000               0.000000000               0.000000000              -0.000032262               0.003713860               0.000144176              -0.000476330               0.001396718               0.000920388               0.000000000               0.000000000               0.000000000               0.000000000              -0.000107693               0.003664848               0.000091746              -0.000498490               0.001387767               0.000889277               0.000000000               0.000000000               0.000000000               0.000000000              -0.000190120               0.003610645               0.000043226              -0.000522624               0.001377744               0.000855120               0.000000000               0.000000000               0.000000000               0.000000000              -0.000247384               0.003568010               0.000013835              -0.000538769               0.001368915               0.000830146               0.000000000               0.000000000               0.000000000               0.000000000               0.000656824               0.001203535               0.000917380               0.000095865               0.000369219               0.000465084               0.000000000               0.000000000               0.000000000               0.000000000               0.000589286               0.001829672               0.001099921              -0.000007728               0.000612460               0.000604732               0.000000000               0.000000000               0.000000000               0.000000000               0.000404402               0.002607310               0.001173994              -0.000174264               0.000927182               0.000752918               0.000000000               0.000000000               0.000000000               0.000000000               0.000342937               0.003068050               0.001051910              -0.000254905               0.001107641               0.000852736               0.000000000               0.000000000               0.000000000               0.000000000               0.000325488               0.003352510               0.000898790              -0.000297006               0.001216494               0.000919488               0.000000000               0.000000000               0.000000000               0.000000000               0.000322927               0.003524414               0.000763834              -0.000319454               0.001281277               0.000961823               0.000000000               0.000000000               0.000000000               0.000000000               0.000312453               0.003624432               0.000654098              -0.000335884               0.001320093               0.000984209               0.000000000               0.000000000               0.000000000               0.000000000               0.000289995               0.003685312               0.000566359              -0.000351915               0.001345730               0.000993815               0.000000000               0.000000000               0.000000000               0.000000000               0.000266361               0.003725200               0.000495767              -0.000365764               0.001363642               0.000997878               0.000000000               0.000000000               0.000000000               0.000000000               0.000241881               0.003741633               0.000434781              -0.000376998               0.001372865               0.000995866               0.000000000               0.000000000               0.000000000               0.000000000               0.000207712               0.003738757               0.000377102              -0.000389452               0.001376057               0.000986606               0.000000000               0.000000000               0.000000000               0.000000000               0.000162832               0.003725914               0.000317046              -0.000404676               0.001376851               0.000972175               0.000000000               0.000000000               0.000000000               0.000000000               0.000108378               0.003708199               0.000253973              -0.000422882               0.001377015               0.000954133               0.000000000               0.000000000               0.000000000               0.000000000               0.000040325               0.003677447               0.000188953              -0.000444558               0.001373989               0.000929432               0.000000000               0.000000000               0.000000000               0.000000000              -0.000040759               0.003639596               0.000124307              -0.000470233               0.001369931               0.000899698               0.000000000               0.000000000               0.000000000               0.000000000              -0.000135090               0.003597807               0.000060605              -0.000500384               0.001366052               0.000865668               0.000000000               0.000000000               0.000000000               0.000000000              -0.000206256               0.003561505               0.000021886              -0.000522533               0.001361334               0.000838801               0.000000000               0.000000000               0.000000000               0.000000000               0.000328209               0.000737221               0.000635451               0.000030924               0.000235429               0.000266354               0.000000000               0.000000000               0.000000000               0.000000000               0.000494283               0.001321448               0.000908816               0.000020174               0.000433753               0.000453927               0.000000000               0.000000000               0.000000000               0.000000000               0.000482535               0.002056446               0.001089065              -0.000076106               0.000710843               0.000634737               0.000000000               0.000000000               0.000000000               0.000000000               0.000467684               0.002571182               0.001032937              -0.000146017               0.000905724               0.000759707               0.000000000               0.000000000               0.000000000               0.000000000               0.000459387               0.002925882               0.000919631              -0.000193465               0.001039772               0.000846307               0.000000000               0.000000000               0.000000000               0.000000000               0.000449395               0.003168296               0.000801364              -0.000227514               0.001131926               0.000904412               0.000000000               0.000000000               0.000000000               0.000000000               0.000425619               0.003330607               0.000694115              -0.000256718               0.001195764               0.000939046               0.000000000               0.000000000               0.000000000               0.000000000               0.000395900               0.003446329               0.000608846              -0.000282328               0.001242874               0.000960546               0.000000000               0.000000000               0.000000000               0.000000000               0.000367009               0.003528524               0.000541660              -0.000303437               0.001277308               0.000973872               0.000000000               0.000000000               0.000000000               0.000000000               0.000336095               0.003576150               0.000479424              -0.000320982               0.001299032               0.000978050               0.000000000               0.000000000               0.000000000               0.000000000               0.000298126               0.003605558               0.000417023              -0.000338897               0.001314806               0.000975909               0.000000000               0.000000000               0.000000000               0.000000000               0.000256083               0.003628938               0.000355554              -0.000357585               0.001328829               0.000971244               0.000000000               0.000000000               0.000000000               0.000000000               0.000208845               0.003638286               0.000290912              -0.000376468               0.001338239               0.000961771               0.000000000               0.000000000               0.000000000               0.000000000               0.000152356               0.003628314               0.000223362              -0.000396405               0.001341561               0.000945156               0.000000000               0.000000000               0.000000000               0.000000000               0.000086642               0.003607825               0.000154302              -0.000418486               0.001342092               0.000923605               0.000000000               0.000000000               0.000000000               0.000000000               0.000007356               0.003582572               0.000079750              -0.000445062               0.001342533               0.000897471               0.000000000               0.000000000               0.000000000               0.000000000              -0.000057668               0.003556994               0.000033882              -0.000466248               0.001341069               0.000874821               0.000000000               0.000000000               0.000000000               0.000000000              -0.000012351               0.000400297               0.000395840              -0.000054669               0.000151654               0.000096985               0.000000000               0.000000000               0.000000000               0.000000000               0.000375910               0.000901897               0.000687061               0.000028228               0.000291219               0.000319447               0.000000000               0.000000000               0.000000000               0.000000000               0.000553233               0.001553271               0.000911417               0.000013302               0.000513318               0.000526620               0.000000000               0.000000000               0.000000000               0.000000000               0.000601683               0.002084081               0.000909030              -0.000034880               0.000706313               0.000671433               0.000000000               0.000000000               0.000000000               0.000000000               0.000609663               0.002491353               0.000837675              -0.000082796               0.000858041               0.000775245               0.000000000               0.000000000               0.000000000               0.000000000               0.000595422               0.002794899               0.000745119              -0.000126080               0.000973650               0.000847571               0.000000000               0.000000000               0.000000000               0.000000000               0.000563204               0.003015150               0.000655358              -0.000165692               0.001060271               0.000894578               0.000000000               0.000000000               0.000000000               0.000000000               0.000524495               0.003179043               0.000585427              -0.000200694               0.001126569               0.000925874               0.000000000               0.000000000               0.000000000               0.000000000               0.000482860               0.003299397               0.000528477              -0.000231352               0.001176905               0.000945553               0.000000000               0.000000000               0.000000000               0.000000000               0.000440366               0.003386906               0.000471436              -0.000258226               0.001215032               0.000956807               0.000000000               0.000000000               0.000000000               0.000000000               0.000399734               0.003457364               0.000412406              -0.000282270               0.001246533               0.000964263               0.000000000               0.000000000               0.000000000               0.000000000               0.000360054               0.003515237               0.000355467              -0.000304384               0.001273195               0.000968811               0.000000000               0.000000000               0.000000000               0.000000000               0.000320466               0.003553354               0.000297442              -0.000323994               0.001292437               0.000968444               0.000000000               0.000000000               0.000000000               0.000000000               0.000283083               0.003571911               0.000238305              -0.000340332               0.001304069               0.000963737               0.000000000               0.000000000               0.000000000               0.000000000               0.000245477               0.003575500               0.000174598              -0.000354883               0.001310116               0.000955233               0.000000000               0.000000000               0.000000000               0.000000000               0.000199322               0.003567919               0.000095899              -0.000371243               0.001313042               0.000941799               0.000000000               0.000000000               0.000000000               0.000000000               0.000158979               0.003553998               0.000047358              -0.000384632               0.001312865               0.000928233               0.000000000               0.000000000               0.000000000               0.000000000              -0.000306780               0.000184108               0.000214191              -0.000138056               0.000107387              -0.000030669               0.000000000               0.000000000               0.000000000               0.000000000               0.000261035               0.000594621               0.000454730               0.000023560               0.000190352               0.000213911               0.000000000               0.000000000               0.000000000               0.000000000               0.000607427               0.001149960               0.000654695               0.000084039               0.000355303               0.000439342               0.000000000               0.000000000               0.000000000               0.000000000               0.000720287               0.001673640               0.000678912               0.000060902               0.000537574               0.000598475               0.000000000               0.000000000               0.000000000               0.000000000               0.000745541               0.002114423               0.000643013               0.000015274               0.000699709               0.000714983               0.000000000               0.000000000               0.000000000               0.000000000               0.000731028               0.002461430               0.000582190              -0.000033544               0.000831650               0.000798106               0.000000000               0.000000000               0.000000000               0.000000000               0.000696570               0.002723698               0.000519542              -0.000079249               0.000934306               0.000855058               0.000000000               0.000000000               0.000000000               0.000000000               0.000649408               0.002924208               0.000469933              -0.000121998               0.001015392               0.000893394               0.000000000               0.000000000               0.000000000               0.000000000               0.000596250               0.003081855               0.000429502              -0.000161638               0.001081154               0.000919516               0.000000000               0.000000000               0.000000000               0.000000000               0.000544149               0.003206026               0.000388002              -0.000196697               0.001134230               0.000937533               0.000000000               0.000000000               0.000000000               0.000000000               0.000500177               0.003308258               0.000342629              -0.000225965               0.001178063               0.000952098               0.000000000               0.000000000               0.000000000               0.000000000               0.000463155               0.003393241               0.000297624              -0.000250471               0.001214559               0.000964088               0.000000000               0.000000000               0.000000000               0.000000000               0.000434089               0.003459255               0.000253908              -0.000269623               0.001242948               0.000973325               0.000000000               0.000000000               0.000000000               0.000000000               0.000414514               0.003507762               0.000210337              -0.000283027               0.001263585               0.000980558               0.000000000               0.000000000               0.000000000               0.000000000               0.000402923               0.003538836               0.000159941              -0.000291258               0.001276686               0.000985429               0.000000000               0.000000000               0.000000000               0.000000000               0.000398106               0.003552528               0.000090926              -0.000294776               0.001282423               0.000987647               0.000000000               0.000000000               0.000000000               0.000000000               0.000397536               0.003553948               0.000049404              -0.000295167               0.001283026               0.000987860               0.000000000               0.000000000               0.000000000               0.000000000              -0.000504460               0.000069810               0.000090535              -0.000197898               0.000089235              -0.000108663               0.000000000               0.000000000               0.000000000               0.000000000               0.000182270               0.000411444               0.000225697               0.000016920               0.000131506               0.000148427               0.000000000               0.000000000               0.000000000               0.000000000               0.000643633               0.000889641               0.000342590               0.000130156               0.000253159               0.000383314               0.000000000               0.000000000               0.000000000               0.000000000               0.000805752               0.001399637               0.000364507               0.000127201               0.000424141               0.000551342               0.000000000               0.000000000               0.000000000               0.000000000               0.000843276               0.001858644               0.000350451               0.000083897               0.000591576               0.000675473               0.000000000               0.000000000               0.000000000               0.000000000               0.000826131               0.002229359               0.000319722               0.000031129               0.000732736               0.000763865               0.000000000               0.000000000               0.000000000               0.000000000               0.000789456               0.002513898               0.000287859              -0.000018191               0.000844021               0.000825830               0.000000000               0.000000000               0.000000000               0.000000000               0.000742018               0.002737268               0.000262825              -0.000063902               0.000933714               0.000869812               0.000000000               0.000000000               0.000000000               0.000000000               0.000687911               0.002921113               0.000242429              -0.000107172               0.001009419               0.000902246               0.000000000               0.000000000               0.000000000               0.000000000               0.000632504               0.003071204               0.000221499              -0.000146711               0.001072628               0.000925917               0.000000000               0.000000000               0.000000000               0.000000000               0.000585370               0.003192700               0.000196812              -0.000179573               0.001124080               0.000944507               0.000000000               0.000000000               0.000000000               0.000000000               0.000551062               0.003292565               0.000171857              -0.000204922               0.001165818               0.000960896               0.000000000               0.000000000               0.000000000               0.000000000               0.000530191               0.003374156               0.000148427              -0.000222947               0.001199023               0.000976076               0.000000000               0.000000000               0.000000000               0.000000000               0.000522915               0.003441532               0.000123377              -0.000234098               0.001225199               0.000991101               0.000000000               0.000000000               0.000000000               0.000000000               0.000531147               0.003495867               0.000094129              -0.000237803               0.001244545               0.001006742               0.000000000               0.000000000               0.000000000               0.000000000               0.000560431               0.003532715               0.000053605              -0.000231427               0.001254702               0.001023275               0.000000000               0.000000000               0.000000000               0.000000000               0.000594432               0.003549968               0.000029613              -0.000220834               0.001256922               0.001036089               0.000000000               0.000000000               0.000000000               0.000000000               0.000000000               0.000000000               0.000000000               0.000000000               0.000000000               0.000000000               0.000000000               0.000000000               0.000000000               0.000000000               0.000000000               0.000000000               0.000000000               0.000000000               0.000000000               0.000000000               0.000000000               0.000000000               0.000000000               0.000000000               0.000000000               0.000000000               0.000000000               0.000000000               0.000000000               0.000000000               0.000000000               0.000000000               0.000000000               0.000000000               0.000000000               0.000000000               0.000000000               0.000000000               0.000000000               0.000000000               0.000000000               0.000000000               0.000000000               0.000000000               0.000000000               0.000000000               0.000000000               0.000000000               0.000000000               0.000000000               0.000000000               0.000000000               0.000000000               0.000000000               0.000000000               0.000000000               0.000000000               0.000000000               0.000000000               0.000000000               0.000000000               0.000000000               0.000000000               0.000000000               0.000000000               0.000000000               0.000000000               0.000000000               0.000000000               0.000000000               0.000000000               0.000000000               0.000000000               0.000000000               0.000000000               0.000000000               0.000000000               0.000000000               0.000000000               0.000000000               0.000000000               0.000000000               0.000000000               0.000000000               0.000000000               0.000000000               0.000000000               0.000000000               0.000000000               0.000000000               0.000000000               0.000000000               0.000000000               0.000000000               0.000000000               0.000000000               0.000000000               0.000000000               0.000000000               0.000000000               0.000000000               0.000000000               0.000000000               0.000000000               0.000000000               0.000000000               0.000000000               0.000000000               0.000000000               0.000000000               0.000000000               0.000000000               0.000000000               0.000000000               0.000000000               0.000000000               0.000000000               0.000000000               0.000000000               0.000000000               0.000000000               0.000000000               0.000000000               0.000000000               0.000000000               0.000000000               0.000000000               0.000000000               0.000000000               0.000000000               0.000000000               0.000000000               0.000000000               0.000000000               0.000000000               0.000000000               0.000000000               0.000000000               0.000000000               0.000000000               0.000000000               0.000000000               0.000000000               0.000000000               0.000000000               0.000000000               0.000000000               0.000000000               0.000000000               0.000000000               0.000000000               0.000000000               0.000000000               0.000000000               0.000000000               0.000000000               0.000000000               0.000000000               0.000000000               0.000000000               0.000000000               0.000000000               0.000000000               0.000000000               0.000000000               0.000000000               0.000000000               0.000000000               0.000000000               0.000000000               0.000000000               0.000000000               0.000000000               0.000000000 </DataArray>
</PointData>
</Piece>
</UnstructuredGrid> </VTKFile>
