<?xml version="1.0"?>
<VTKFile type="UnstructuredGrid" version="0.1">
<UnstructuredGrid>
<Piece NumberOfPoints="      1156" NumberOfCells="      1024">
<Points>
<DataArray type="Float64"                                    Name="coordinates"                                                      NumberOfComponents=" 3" format="ascii">
              0.133000000               0.000000000               0.000000000               0.155937500               0.000000000               0.000000000               0.178875000               0.000000000               0.000000000               0.201812500               0.000000000               0.000000000               0.224750000               0.000000000               0.000000000               0.247687500               0.000000000               0.000000000               0.270625000               0.000000000               0.000000000               0.293562500               0.000000000               0.000000000               0.316500000               0.000000000               0.000000000               0.339437500               0.000000000               0.000000000               0.362375000               0.000000000               0.000000000               0.385312500               0.000000000               0.000000000               0.408250000               0.000000000               0.000000000               0.431187500               0.000000000               0.000000000               0.454125000               0.000000000               0.000000000               0.477062500               0.000000000               0.000000000               0.500000000               0.000000000               0.000000000               0.132359569               0.013036280               0.000000000               0.155337096               0.016127762               0.000000000               0.178314623               0.019219245               0.000000000               0.201292150               0.022310727               0.000000000               0.224269676               0.025402210               0.000000000               0.247247203               0.028493692               0.000000000               0.270224730               0.031585175               0.000000000               0.293202257               0.034676657               0.000000000               0.316179784               0.037768140               0.000000000               0.339157311               0.040859622               0.000000000               0.362134838               0.043951105               0.000000000               0.385112365               0.047042587               0.000000000               0.408089892               0.050134070               0.000000000               0.431067419               0.053225552               0.000000000               0.454044946               0.056317035               0.000000000               0.477022473               0.059408517               0.000000000               0.500000000               0.062500000               0.000000000               0.130444442               0.025947013               0.000000000               0.153541665               0.032137825               0.000000000               0.176638887               0.038328636               0.000000000               0.199736109               0.044519448               0.000000000               0.222833332               0.050710260               0.000000000               0.245930554               0.056901071               0.000000000               0.269027776               0.063091883               0.000000000               0.292124999               0.069282695               0.000000000               0.315222221               0.075473506               0.000000000               0.338319444               0.081664318               0.000000000               0.361416666               0.087855130               0.000000000               0.384513888               0.094045942               0.000000000               0.407611111               0.100236753               0.000000000               0.430708333               0.106427565               0.000000000               0.453805555               0.112618377               0.000000000               0.476902778               0.118809188               0.000000000               0.500000000               0.125000000               0.000000000               0.127273065               0.038607862               0.000000000               0.150568498               0.047913621               0.000000000               0.173863932               0.057219379               0.000000000               0.197159365               0.066525138               0.000000000               0.220454798               0.075830897               0.000000000               0.243750232               0.085136655               0.000000000               0.267045665               0.094442414               0.000000000               0.290341099               0.103748172               0.000000000               0.313636532               0.113053931               0.000000000               0.336931966               0.122359690               0.000000000               0.360227399               0.131665448               0.000000000               0.383522833               0.140971207               0.000000000               0.406818266               0.150276966               0.000000000               0.430113700               0.159582724               0.000000000               0.453409133               0.168888483               0.000000000               0.476704567               0.178194241               0.000000000               0.500000000               0.187500000               0.000000000               0.122875978               0.050896897               0.000000000               0.146446229               0.063340840               0.000000000               0.170016481               0.075784784               0.000000000               0.193586732               0.088228728               0.000000000               0.217156983               0.100672672               0.000000000               0.240727235               0.113116616               0.000000000               0.264297486               0.125560560               0.000000000               0.287867738               0.138004504               0.000000000               0.311437989               0.150448448               0.000000000               0.335008240               0.162892392               0.000000000               0.358578492               0.175336336               0.000000000               0.382148743               0.187780280               0.000000000               0.405718994               0.200224224               0.000000000               0.429289246               0.212668168               0.000000000               0.452859497               0.225112112               0.000000000               0.476429749               0.237556056               0.000000000               0.500000000               0.250000000               0.000000000               0.117295528               0.062695766               0.000000000               0.141214558               0.078308531               0.000000000               0.165133587               0.093921295               0.000000000               0.189052617               0.109534060               0.000000000               0.212971646               0.125146824               0.000000000               0.236890676               0.140759589               0.000000000               0.260809705               0.156372354               0.000000000               0.284728735               0.171985118               0.000000000               0.308647764               0.187597883               0.000000000               0.332566794               0.203210648               0.000000000               0.356485823               0.218823412               0.000000000               0.380404853               0.234436177               0.000000000               0.404323882               0.250048941               0.000000000               0.428242912               0.265661706               0.000000000               0.452161941               0.281274471               0.000000000               0.476080971               0.296887235               0.000000000               0.500000000               0.312500000               0.000000000               0.110585458               0.073890841               0.000000000               0.134923867               0.092710163               0.000000000               0.159262276               0.111529486               0.000000000               0.183600685               0.130348808               0.000000000               0.207939094               0.149168131               0.000000000               0.232277503               0.167987453               0.000000000               0.256615912               0.186806776               0.000000000               0.280954320               0.205626098               0.000000000               0.305292729               0.224445420               0.000000000               0.329631138               0.243264743               0.000000000               0.353969547               0.262084065               0.000000000               0.378307956               0.280903388               0.000000000               0.402646365               0.299722710               0.000000000               0.426984773               0.318542033               0.000000000               0.451323182               0.337361355               0.000000000               0.475661591               0.356180678               0.000000000               0.500000000               0.375000000               0.000000000               0.102810390               0.084374307               0.000000000               0.127634741               0.106444663               0.000000000               0.152459092               0.128515018               0.000000000               0.177283442               0.150585374               0.000000000               0.202107793               0.172655730               0.000000000               0.226932143               0.194726086               0.000000000               0.251756494               0.216796442               0.000000000               0.276580845               0.238866798               0.000000000               0.301405195               0.260937153               0.000000000               0.326229546               0.283007509               0.000000000               0.351053896               0.305077865               0.000000000               0.375878247               0.327148221               0.000000000               0.400702598               0.349218577               0.000000000               0.425526948               0.371288933               0.000000000               0.450351299               0.393359288               0.000000000               0.475175649               0.415429644               0.000000000               0.500000000               0.437500000               0.000000000               0.094045202               0.094045202               0.000000000               0.119417377               0.119417377               0.000000000               0.144789552               0.144789552               0.000000000               0.170161727               0.170161727               0.000000000               0.195533901               0.195533901               0.000000000               0.220906076               0.220906076               0.000000000               0.246278251               0.246278251               0.000000000               0.271650426               0.271650426               0.000000000               0.297022601               0.297022601               0.000000000               0.322394776               0.322394776               0.000000000               0.347766951               0.347766951               0.000000000               0.373139126               0.373139126               0.000000000               0.398511300               0.398511300               0.000000000               0.423883475               0.423883475               0.000000000               0.449255650               0.449255650               0.000000000               0.474627825               0.474627825               0.000000000               0.500000000               0.500000000               0.000000000               0.084374307               0.102810390               0.000000000               0.106444663               0.127634741               0.000000000               0.128515018               0.152459092               0.000000000               0.150585374               0.177283442               0.000000000               0.172655730               0.202107793               0.000000000               0.194726086               0.226932143               0.000000000               0.216796442               0.251756494               0.000000000               0.238866798               0.276580845               0.000000000               0.260937153               0.301405195               0.000000000               0.283007509               0.326229546               0.000000000               0.305077865               0.351053896               0.000000000               0.327148221               0.375878247               0.000000000               0.349218577               0.400702598               0.000000000               0.371288933               0.425526948               0.000000000               0.393359288               0.450351299               0.000000000               0.415429644               0.475175649               0.000000000               0.437500000               0.500000000               0.000000000               0.073890841               0.110585458               0.000000000               0.092710163               0.134923867               0.000000000               0.111529486               0.159262276               0.000000000               0.130348808               0.183600685               0.000000000               0.149168131               0.207939094               0.000000000               0.167987453               0.232277503               0.000000000               0.186806776               0.256615912               0.000000000               0.205626098               0.280954320               0.000000000               0.224445420               0.305292729               0.000000000               0.243264743               0.329631138               0.000000000               0.262084065               0.353969547               0.000000000               0.280903388               0.378307956               0.000000000               0.299722710               0.402646365               0.000000000               0.318542033               0.426984773               0.000000000               0.337361355               0.451323182               0.000000000               0.356180678               0.475661591               0.000000000               0.375000000               0.500000000               0.000000000               0.062695766               0.117295528               0.000000000               0.078308531               0.141214558               0.000000000               0.093921295               0.165133587               0.000000000               0.109534060               0.189052617               0.000000000               0.125146824               0.212971646               0.000000000               0.140759589               0.236890676               0.000000000               0.156372354               0.260809705               0.000000000               0.171985118               0.284728735               0.000000000               0.187597883               0.308647764               0.000000000               0.203210648               0.332566794               0.000000000               0.218823412               0.356485823               0.000000000               0.234436177               0.380404853               0.000000000               0.250048941               0.404323882               0.000000000               0.265661706               0.428242912               0.000000000               0.281274471               0.452161941               0.000000000               0.296887235               0.476080971               0.000000000               0.312500000               0.500000000               0.000000000               0.050896897               0.122875978               0.000000000               0.063340840               0.146446229               0.000000000               0.075784784               0.170016481               0.000000000               0.088228728               0.193586732               0.000000000               0.100672672               0.217156983               0.000000000               0.113116616               0.240727235               0.000000000               0.125560560               0.264297486               0.000000000               0.138004504               0.287867738               0.000000000               0.150448448               0.311437989               0.000000000               0.162892392               0.335008240               0.000000000               0.175336336               0.358578492               0.000000000               0.187780280               0.382148743               0.000000000               0.200224224               0.405718994               0.000000000               0.212668168               0.429289246               0.000000000               0.225112112               0.452859497               0.000000000               0.237556056               0.476429749               0.000000000               0.250000000               0.500000000               0.000000000               0.038607862               0.127273065               0.000000000               0.047913621               0.150568498               0.000000000               0.057219379               0.173863932               0.000000000               0.066525138               0.197159365               0.000000000               0.075830897               0.220454798               0.000000000               0.085136655               0.243750232               0.000000000               0.094442414               0.267045665               0.000000000               0.103748172               0.290341099               0.000000000               0.113053931               0.313636532               0.000000000               0.122359690               0.336931966               0.000000000               0.131665448               0.360227399               0.000000000               0.140971207               0.383522833               0.000000000               0.150276966               0.406818266               0.000000000               0.159582724               0.430113700               0.000000000               0.168888483               0.453409133               0.000000000               0.178194241               0.476704567               0.000000000               0.187500000               0.500000000               0.000000000               0.025947013               0.130444442               0.000000000               0.032137825               0.153541665               0.000000000               0.038328636               0.176638887               0.000000000               0.044519448               0.199736109               0.000000000               0.050710260               0.222833332               0.000000000               0.056901071               0.245930554               0.000000000               0.063091883               0.269027776               0.000000000               0.069282695               0.292124999               0.000000000               0.075473506               0.315222221               0.000000000               0.081664318               0.338319444               0.000000000               0.087855130               0.361416666               0.000000000               0.094045942               0.384513888               0.000000000               0.100236753               0.407611111               0.000000000               0.106427565               0.430708333               0.000000000               0.112618377               0.453805555               0.000000000               0.118809188               0.476902778               0.000000000               0.125000000               0.500000000               0.000000000               0.013036280               0.132359569               0.000000000               0.016127762               0.155337096               0.000000000               0.019219245               0.178314623               0.000000000               0.022310727               0.201292150               0.000000000               0.025402210               0.224269676               0.000000000               0.028493692               0.247247203               0.000000000               0.031585175               0.270224730               0.000000000               0.034676657               0.293202257               0.000000000               0.037768140               0.316179784               0.000000000               0.040859622               0.339157311               0.000000000               0.043951105               0.362134838               0.000000000               0.047042587               0.385112365               0.000000000               0.050134070               0.408089892               0.000000000               0.053225552               0.431067419               0.000000000               0.056317035               0.454044946               0.000000000               0.059408517               0.477022473               0.000000000               0.062500000               0.500000000               0.000000000               0.000000000               0.133000000               0.000000000               0.000000000               0.155937500               0.000000000               0.000000000               0.178875000               0.000000000               0.000000000               0.201812500               0.000000000               0.000000000               0.224750000               0.000000000               0.000000000               0.247687500               0.000000000               0.000000000               0.270625000               0.000000000               0.000000000               0.293562500               0.000000000               0.000000000               0.316500000               0.000000000               0.000000000               0.339437500               0.000000000               0.000000000               0.362375000               0.000000000               0.000000000               0.385312500               0.000000000               0.000000000               0.408250000               0.000000000               0.000000000               0.431187500               0.000000000               0.000000000               0.454125000               0.000000000               0.000000000               0.477062500               0.000000000               0.000000000               0.500000000               0.000000000               0.133000000               0.000000000               0.000000000               0.155937500               0.000000000               0.000000000               0.178875000               0.000000000               0.000000000               0.201812500               0.000000000               0.000000000               0.224750000               0.000000000               0.000000000               0.247687500               0.000000000               0.000000000               0.270625000               0.000000000               0.000000000               0.293562500               0.000000000               0.000000000               0.316500000               0.000000000               0.000000000               0.339437500               0.000000000               0.000000000               0.362375000               0.000000000               0.000000000               0.385312500               0.000000000               0.000000000               0.408250000               0.000000000               0.000000000               0.431187500               0.000000000               0.000000000               0.454125000               0.000000000               0.000000000               0.477062500               0.000000000               0.000000000               0.500000000               0.000000000               0.000000000               0.132359569              -0.013036280               0.000000000               0.155337096              -0.016127762               0.000000000               0.178314623              -0.019219245               0.000000000               0.201292150              -0.022310727               0.000000000               0.224269676              -0.025402210               0.000000000               0.247247203              -0.028493692               0.000000000               0.270224730              -0.031585175               0.000000000               0.293202257              -0.034676657               0.000000000               0.316179784              -0.037768140               0.000000000               0.339157311              -0.040859622               0.000000000               0.362134838              -0.043951105               0.000000000               0.385112365              -0.047042587               0.000000000               0.408089892              -0.050134070               0.000000000               0.431067419              -0.053225552               0.000000000               0.454044946              -0.056317035               0.000000000               0.477022473              -0.059408517               0.000000000               0.500000000              -0.062500000               0.000000000               0.130444442              -0.025947013               0.000000000               0.153541665              -0.032137825               0.000000000               0.176638887              -0.038328636               0.000000000               0.199736109              -0.044519448               0.000000000               0.222833332              -0.050710260               0.000000000               0.245930554              -0.056901071               0.000000000               0.269027776              -0.063091883               0.000000000               0.292124999              -0.069282695               0.000000000               0.315222221              -0.075473506               0.000000000               0.338319444              -0.081664318               0.000000000               0.361416666              -0.087855130               0.000000000               0.384513888              -0.094045942               0.000000000               0.407611111              -0.100236753               0.000000000               0.430708333              -0.106427565               0.000000000               0.453805555              -0.112618377               0.000000000               0.476902778              -0.118809188               0.000000000               0.500000000              -0.125000000               0.000000000               0.127273065              -0.038607862               0.000000000               0.150568498              -0.047913621               0.000000000               0.173863932              -0.057219379               0.000000000               0.197159365              -0.066525138               0.000000000               0.220454798              -0.075830897               0.000000000               0.243750232              -0.085136655               0.000000000               0.267045665              -0.094442414               0.000000000               0.290341099              -0.103748172               0.000000000               0.313636532              -0.113053931               0.000000000               0.336931966              -0.122359690               0.000000000               0.360227399              -0.131665448               0.000000000               0.383522833              -0.140971207               0.000000000               0.406818266              -0.150276966               0.000000000               0.430113700              -0.159582724               0.000000000               0.453409133              -0.168888483               0.000000000               0.476704567              -0.178194241               0.000000000               0.500000000              -0.187500000               0.000000000               0.122875978              -0.050896897               0.000000000               0.146446229              -0.063340840               0.000000000               0.170016481              -0.075784784               0.000000000               0.193586732              -0.088228728               0.000000000               0.217156983              -0.100672672               0.000000000               0.240727235              -0.113116616               0.000000000               0.264297486              -0.125560560               0.000000000               0.287867738              -0.138004504               0.000000000               0.311437989              -0.150448448               0.000000000               0.335008240              -0.162892392               0.000000000               0.358578492              -0.175336336               0.000000000               0.382148743              -0.187780280               0.000000000               0.405718994              -0.200224224               0.000000000               0.429289246              -0.212668168               0.000000000               0.452859497              -0.225112112               0.000000000               0.476429749              -0.237556056               0.000000000               0.500000000              -0.250000000               0.000000000               0.117295528              -0.062695766               0.000000000               0.141214558              -0.078308531               0.000000000               0.165133587              -0.093921295               0.000000000               0.189052617              -0.109534060               0.000000000               0.212971646              -0.125146824               0.000000000               0.236890676              -0.140759589               0.000000000               0.260809705              -0.156372354               0.000000000               0.284728735              -0.171985118               0.000000000               0.308647764              -0.187597883               0.000000000               0.332566794              -0.203210648               0.000000000               0.356485823              -0.218823412               0.000000000               0.380404853              -0.234436177               0.000000000               0.404323882              -0.250048941               0.000000000               0.428242912              -0.265661706               0.000000000               0.452161941              -0.281274471               0.000000000               0.476080971              -0.296887235               0.000000000               0.500000000              -0.312500000               0.000000000               0.110585458              -0.073890841               0.000000000               0.134923867              -0.092710163               0.000000000               0.159262276              -0.111529486               0.000000000               0.183600685              -0.130348808               0.000000000               0.207939094              -0.149168131               0.000000000               0.232277503              -0.167987453               0.000000000               0.256615912              -0.186806776               0.000000000               0.280954320              -0.205626098               0.000000000               0.305292729              -0.224445420               0.000000000               0.329631138              -0.243264743               0.000000000               0.353969547              -0.262084065               0.000000000               0.378307956              -0.280903388               0.000000000               0.402646365              -0.299722710               0.000000000               0.426984773              -0.318542033               0.000000000               0.451323182              -0.337361355               0.000000000               0.475661591              -0.356180678               0.000000000               0.500000000              -0.375000000               0.000000000               0.102810390              -0.084374307               0.000000000               0.127634741              -0.106444663               0.000000000               0.152459092              -0.128515018               0.000000000               0.177283442              -0.150585374               0.000000000               0.202107793              -0.172655730               0.000000000               0.226932143              -0.194726086               0.000000000               0.251756494              -0.216796442               0.000000000               0.276580845              -0.238866798               0.000000000               0.301405195              -0.260937153               0.000000000               0.326229546              -0.283007509               0.000000000               0.351053896              -0.305077865               0.000000000               0.375878247              -0.327148221               0.000000000               0.400702598              -0.349218577               0.000000000               0.425526948              -0.371288933               0.000000000               0.450351299              -0.393359288               0.000000000               0.475175649              -0.415429644               0.000000000               0.500000000              -0.437500000               0.000000000               0.094045202              -0.094045202               0.000000000               0.119417377              -0.119417377               0.000000000               0.144789552              -0.144789552               0.000000000               0.170161727              -0.170161727               0.000000000               0.195533901              -0.195533901               0.000000000               0.220906076              -0.220906076               0.000000000               0.246278251              -0.246278251               0.000000000               0.271650426              -0.271650426               0.000000000               0.297022601              -0.297022601               0.000000000               0.322394776              -0.322394776               0.000000000               0.347766951              -0.347766951               0.000000000               0.373139126              -0.373139126               0.000000000               0.398511300              -0.398511300               0.000000000               0.423883475              -0.423883475               0.000000000               0.449255650              -0.449255650               0.000000000               0.474627825              -0.474627825               0.000000000               0.500000000              -0.500000000               0.000000000               0.084374307              -0.102810390               0.000000000               0.106444663              -0.127634741               0.000000000               0.128515018              -0.152459092               0.000000000               0.150585374              -0.177283442               0.000000000               0.172655730              -0.202107793               0.000000000               0.194726086              -0.226932143               0.000000000               0.216796442              -0.251756494               0.000000000               0.238866798              -0.276580845               0.000000000               0.260937153              -0.301405195               0.000000000               0.283007509              -0.326229546               0.000000000               0.305077865              -0.351053896               0.000000000               0.327148221              -0.375878247               0.000000000               0.349218577              -0.400702598               0.000000000               0.371288933              -0.425526948               0.000000000               0.393359288              -0.450351299               0.000000000               0.415429644              -0.475175649               0.000000000               0.437500000              -0.500000000               0.000000000               0.073890841              -0.110585458               0.000000000               0.092710163              -0.134923867               0.000000000               0.111529486              -0.159262276               0.000000000               0.130348808              -0.183600685               0.000000000               0.149168131              -0.207939094               0.000000000               0.167987453              -0.232277503               0.000000000               0.186806776              -0.256615912               0.000000000               0.205626098              -0.280954320               0.000000000               0.224445420              -0.305292729               0.000000000               0.243264743              -0.329631138               0.000000000               0.262084065              -0.353969547               0.000000000               0.280903388              -0.378307956               0.000000000               0.299722710              -0.402646365               0.000000000               0.318542033              -0.426984773               0.000000000               0.337361355              -0.451323182               0.000000000               0.356180678              -0.475661591               0.000000000               0.375000000              -0.500000000               0.000000000               0.062695766              -0.117295528               0.000000000               0.078308531              -0.141214558               0.000000000               0.093921295              -0.165133587               0.000000000               0.109534060              -0.189052617               0.000000000               0.125146824              -0.212971646               0.000000000               0.140759589              -0.236890676               0.000000000               0.156372354              -0.260809705               0.000000000               0.171985118              -0.284728735               0.000000000               0.187597883              -0.308647764               0.000000000               0.203210648              -0.332566794               0.000000000               0.218823412              -0.356485823               0.000000000               0.234436177              -0.380404853               0.000000000               0.250048941              -0.404323882               0.000000000               0.265661706              -0.428242912               0.000000000               0.281274471              -0.452161941               0.000000000               0.296887235              -0.476080971               0.000000000               0.312500000              -0.500000000               0.000000000               0.050896897              -0.122875978               0.000000000               0.063340840              -0.146446229               0.000000000               0.075784784              -0.170016481               0.000000000               0.088228728              -0.193586732               0.000000000               0.100672672              -0.217156983               0.000000000               0.113116616              -0.240727235               0.000000000               0.125560560              -0.264297486               0.000000000               0.138004504              -0.287867738               0.000000000               0.150448448              -0.311437989               0.000000000               0.162892392              -0.335008240               0.000000000               0.175336336              -0.358578492               0.000000000               0.187780280              -0.382148743               0.000000000               0.200224224              -0.405718994               0.000000000               0.212668168              -0.429289246               0.000000000               0.225112112              -0.452859497               0.000000000               0.237556056              -0.476429749               0.000000000               0.250000000              -0.500000000               0.000000000               0.038607862              -0.127273065               0.000000000               0.047913621              -0.150568498               0.000000000               0.057219379              -0.173863932               0.000000000               0.066525138              -0.197159365               0.000000000               0.075830897              -0.220454798               0.000000000               0.085136655              -0.243750232               0.000000000               0.094442414              -0.267045665               0.000000000               0.103748172              -0.290341099               0.000000000               0.113053931              -0.313636532               0.000000000               0.122359690              -0.336931966               0.000000000               0.131665448              -0.360227399               0.000000000               0.140971207              -0.383522833               0.000000000               0.150276966              -0.406818266               0.000000000               0.159582724              -0.430113700               0.000000000               0.168888483              -0.453409133               0.000000000               0.178194241              -0.476704567               0.000000000               0.187500000              -0.500000000               0.000000000               0.025947013              -0.130444442               0.000000000               0.032137825              -0.153541665               0.000000000               0.038328636              -0.176638887               0.000000000               0.044519448              -0.199736109               0.000000000               0.050710260              -0.222833332               0.000000000               0.056901071              -0.245930554               0.000000000               0.063091883              -0.269027776               0.000000000               0.069282695              -0.292124999               0.000000000               0.075473506              -0.315222221               0.000000000               0.081664318              -0.338319444               0.000000000               0.087855130              -0.361416666               0.000000000               0.094045942              -0.384513888               0.000000000               0.100236753              -0.407611111               0.000000000               0.106427565              -0.430708333               0.000000000               0.112618377              -0.453805555               0.000000000               0.118809188              -0.476902778               0.000000000               0.125000000              -0.500000000               0.000000000               0.013036280              -0.132359569               0.000000000               0.016127762              -0.155337096               0.000000000               0.019219245              -0.178314623               0.000000000               0.022310727              -0.201292150               0.000000000               0.025402210              -0.224269676               0.000000000               0.028493692              -0.247247203               0.000000000               0.031585175              -0.270224730               0.000000000               0.034676657              -0.293202257               0.000000000               0.037768140              -0.316179784               0.000000000               0.040859622              -0.339157311               0.000000000               0.043951105              -0.362134838               0.000000000               0.047042587              -0.385112365               0.000000000               0.050134070              -0.408089892               0.000000000               0.053225552              -0.431067419               0.000000000               0.056317035              -0.454044946               0.000000000               0.059408517              -0.477022473               0.000000000               0.062500000              -0.500000000               0.000000000               0.000000000              -0.133000000               0.000000000               0.000000000              -0.155937500               0.000000000               0.000000000              -0.178875000               0.000000000               0.000000000              -0.201812500               0.000000000               0.000000000              -0.224750000               0.000000000               0.000000000              -0.247687500               0.000000000               0.000000000              -0.270625000               0.000000000               0.000000000              -0.293562500               0.000000000               0.000000000              -0.316500000               0.000000000               0.000000000              -0.339437500               0.000000000               0.000000000              -0.362375000               0.000000000               0.000000000              -0.385312500               0.000000000               0.000000000              -0.408250000               0.000000000               0.000000000              -0.431187500               0.000000000               0.000000000              -0.454125000               0.000000000               0.000000000              -0.477062500               0.000000000               0.000000000              -0.500000000               0.000000000              -0.133000000               0.000000000               0.000000000              -0.155937500               0.000000000               0.000000000              -0.178875000               0.000000000               0.000000000              -0.201812500               0.000000000               0.000000000              -0.224750000               0.000000000               0.000000000              -0.247687500               0.000000000               0.000000000              -0.270625000               0.000000000               0.000000000              -0.293562500               0.000000000               0.000000000              -0.316500000               0.000000000               0.000000000              -0.339437500               0.000000000               0.000000000              -0.362375000               0.000000000               0.000000000              -0.385312500               0.000000000               0.000000000              -0.408250000               0.000000000               0.000000000              -0.431187500               0.000000000               0.000000000              -0.454125000               0.000000000               0.000000000              -0.477062500               0.000000000               0.000000000              -0.500000000               0.000000000               0.000000000              -0.132359569              -0.013036280               0.000000000              -0.155337096              -0.016127762               0.000000000              -0.178314623              -0.019219245               0.000000000              -0.201292150              -0.022310727               0.000000000              -0.224269676              -0.025402210               0.000000000              -0.247247203              -0.028493692               0.000000000              -0.270224730              -0.031585175               0.000000000              -0.293202257              -0.034676657               0.000000000              -0.316179784              -0.037768140               0.000000000              -0.339157311              -0.040859622               0.000000000              -0.362134838              -0.043951105               0.000000000              -0.385112365              -0.047042587               0.000000000              -0.408089892              -0.050134070               0.000000000              -0.431067419              -0.053225552               0.000000000              -0.454044946              -0.056317035               0.000000000              -0.477022473              -0.059408517               0.000000000              -0.500000000              -0.062500000               0.000000000              -0.130444442              -0.025947013               0.000000000              -0.153541665              -0.032137825               0.000000000              -0.176638887              -0.038328636               0.000000000              -0.199736109              -0.044519448               0.000000000              -0.222833332              -0.050710260               0.000000000              -0.245930554              -0.056901071               0.000000000              -0.269027776              -0.063091883               0.000000000              -0.292124999              -0.069282695               0.000000000              -0.315222221              -0.075473506               0.000000000              -0.338319444              -0.081664318               0.000000000              -0.361416666              -0.087855130               0.000000000              -0.384513888              -0.094045942               0.000000000              -0.407611111              -0.100236753               0.000000000              -0.430708333              -0.106427565               0.000000000              -0.453805555              -0.112618377               0.000000000              -0.476902778              -0.118809188               0.000000000              -0.500000000              -0.125000000               0.000000000              -0.127273065              -0.038607862               0.000000000              -0.150568498              -0.047913621               0.000000000              -0.173863932              -0.057219379               0.000000000              -0.197159365              -0.066525138               0.000000000              -0.220454798              -0.075830897               0.000000000              -0.243750232              -0.085136655               0.000000000              -0.267045665              -0.094442414               0.000000000              -0.290341099              -0.103748172               0.000000000              -0.313636532              -0.113053931               0.000000000              -0.336931966              -0.122359690               0.000000000              -0.360227399              -0.131665448               0.000000000              -0.383522833              -0.140971207               0.000000000              -0.406818266              -0.150276966               0.000000000              -0.430113700              -0.159582724               0.000000000              -0.453409133              -0.168888483               0.000000000              -0.476704567              -0.178194241               0.000000000              -0.500000000              -0.187500000               0.000000000              -0.122875978              -0.050896897               0.000000000              -0.146446229              -0.063340840               0.000000000              -0.170016481              -0.075784784               0.000000000              -0.193586732              -0.088228728               0.000000000              -0.217156983              -0.100672672               0.000000000              -0.240727235              -0.113116616               0.000000000              -0.264297486              -0.125560560               0.000000000              -0.287867738              -0.138004504               0.000000000              -0.311437989              -0.150448448               0.000000000              -0.335008240              -0.162892392               0.000000000              -0.358578492              -0.175336336               0.000000000              -0.382148743              -0.187780280               0.000000000              -0.405718994              -0.200224224               0.000000000              -0.429289246              -0.212668168               0.000000000              -0.452859497              -0.225112112               0.000000000              -0.476429749              -0.237556056               0.000000000              -0.500000000              -0.250000000               0.000000000              -0.117295528              -0.062695766               0.000000000              -0.141214558              -0.078308531               0.000000000              -0.165133587              -0.093921295               0.000000000              -0.189052617              -0.109534060               0.000000000              -0.212971646              -0.125146824               0.000000000              -0.236890676              -0.140759589               0.000000000              -0.260809705              -0.156372354               0.000000000              -0.284728735              -0.171985118               0.000000000              -0.308647764              -0.187597883               0.000000000              -0.332566794              -0.203210648               0.000000000              -0.356485823              -0.218823412               0.000000000              -0.380404853              -0.234436177               0.000000000              -0.404323882              -0.250048941               0.000000000              -0.428242912              -0.265661706               0.000000000              -0.452161941              -0.281274471               0.000000000              -0.476080971              -0.296887235               0.000000000              -0.500000000              -0.312500000               0.000000000              -0.110585458              -0.073890841               0.000000000              -0.134923867              -0.092710163               0.000000000              -0.159262276              -0.111529486               0.000000000              -0.183600685              -0.130348808               0.000000000              -0.207939094              -0.149168131               0.000000000              -0.232277503              -0.167987453               0.000000000              -0.256615912              -0.186806776               0.000000000              -0.280954320              -0.205626098               0.000000000              -0.305292729              -0.224445420               0.000000000              -0.329631138              -0.243264743               0.000000000              -0.353969547              -0.262084065               0.000000000              -0.378307956              -0.280903388               0.000000000              -0.402646365              -0.299722710               0.000000000              -0.426984773              -0.318542033               0.000000000              -0.451323182              -0.337361355               0.000000000              -0.475661591              -0.356180678               0.000000000              -0.500000000              -0.375000000               0.000000000              -0.102810390              -0.084374307               0.000000000              -0.127634741              -0.106444663               0.000000000              -0.152459092              -0.128515018               0.000000000              -0.177283442              -0.150585374               0.000000000              -0.202107793              -0.172655730               0.000000000              -0.226932143              -0.194726086               0.000000000              -0.251756494              -0.216796442               0.000000000              -0.276580845              -0.238866798               0.000000000              -0.301405195              -0.260937153               0.000000000              -0.326229546              -0.283007509               0.000000000              -0.351053896              -0.305077865               0.000000000              -0.375878247              -0.327148221               0.000000000              -0.400702598              -0.349218577               0.000000000              -0.425526948              -0.371288933               0.000000000              -0.450351299              -0.393359288               0.000000000              -0.475175649              -0.415429644               0.000000000              -0.500000000              -0.437500000               0.000000000              -0.094045202              -0.094045202               0.000000000              -0.119417377              -0.119417377               0.000000000              -0.144789552              -0.144789552               0.000000000              -0.170161727              -0.170161727               0.000000000              -0.195533901              -0.195533901               0.000000000              -0.220906076              -0.220906076               0.000000000              -0.246278251              -0.246278251               0.000000000              -0.271650426              -0.271650426               0.000000000              -0.297022601              -0.297022601               0.000000000              -0.322394776              -0.322394776               0.000000000              -0.347766951              -0.347766951               0.000000000              -0.373139126              -0.373139126               0.000000000              -0.398511300              -0.398511300               0.000000000              -0.423883475              -0.423883475               0.000000000              -0.449255650              -0.449255650               0.000000000              -0.474627825              -0.474627825               0.000000000              -0.500000000              -0.500000000               0.000000000              -0.084374307              -0.102810390               0.000000000              -0.106444663              -0.127634741               0.000000000              -0.128515018              -0.152459092               0.000000000              -0.150585374              -0.177283442               0.000000000              -0.172655730              -0.202107793               0.000000000              -0.194726086              -0.226932143               0.000000000              -0.216796442              -0.251756494               0.000000000              -0.238866798              -0.276580845               0.000000000              -0.260937153              -0.301405195               0.000000000              -0.283007509              -0.326229546               0.000000000              -0.305077865              -0.351053896               0.000000000              -0.327148221              -0.375878247               0.000000000              -0.349218577              -0.400702598               0.000000000              -0.371288933              -0.425526948               0.000000000              -0.393359288              -0.450351299               0.000000000              -0.415429644              -0.475175649               0.000000000              -0.437500000              -0.500000000               0.000000000              -0.073890841              -0.110585458               0.000000000              -0.092710163              -0.134923867               0.000000000              -0.111529486              -0.159262276               0.000000000              -0.130348808              -0.183600685               0.000000000              -0.149168131              -0.207939094               0.000000000              -0.167987453              -0.232277503               0.000000000              -0.186806776              -0.256615912               0.000000000              -0.205626098              -0.280954320               0.000000000              -0.224445420              -0.305292729               0.000000000              -0.243264743              -0.329631138               0.000000000              -0.262084065              -0.353969547               0.000000000              -0.280903388              -0.378307956               0.000000000              -0.299722710              -0.402646365               0.000000000              -0.318542033              -0.426984773               0.000000000              -0.337361355              -0.451323182               0.000000000              -0.356180678              -0.475661591               0.000000000              -0.375000000              -0.500000000               0.000000000              -0.062695766              -0.117295528               0.000000000              -0.078308531              -0.141214558               0.000000000              -0.093921295              -0.165133587               0.000000000              -0.109534060              -0.189052617               0.000000000              -0.125146824              -0.212971646               0.000000000              -0.140759589              -0.236890676               0.000000000              -0.156372354              -0.260809705               0.000000000              -0.171985118              -0.284728735               0.000000000              -0.187597883              -0.308647764               0.000000000              -0.203210648              -0.332566794               0.000000000              -0.218823412              -0.356485823               0.000000000              -0.234436177              -0.380404853               0.000000000              -0.250048941              -0.404323882               0.000000000              -0.265661706              -0.428242912               0.000000000              -0.281274471              -0.452161941               0.000000000              -0.296887235              -0.476080971               0.000000000              -0.312500000              -0.500000000               0.000000000              -0.050896897              -0.122875978               0.000000000              -0.063340840              -0.146446229               0.000000000              -0.075784784              -0.170016481               0.000000000              -0.088228728              -0.193586732               0.000000000              -0.100672672              -0.217156983               0.000000000              -0.113116616              -0.240727235               0.000000000              -0.125560560              -0.264297486               0.000000000              -0.138004504              -0.287867738               0.000000000              -0.150448448              -0.311437989               0.000000000              -0.162892392              -0.335008240               0.000000000              -0.175336336              -0.358578492               0.000000000              -0.187780280              -0.382148743               0.000000000              -0.200224224              -0.405718994               0.000000000              -0.212668168              -0.429289246               0.000000000              -0.225112112              -0.452859497               0.000000000              -0.237556056              -0.476429749               0.000000000              -0.250000000              -0.500000000               0.000000000              -0.038607862              -0.127273065               0.000000000              -0.047913621              -0.150568498               0.000000000              -0.057219379              -0.173863932               0.000000000              -0.066525138              -0.197159365               0.000000000              -0.075830897              -0.220454798               0.000000000              -0.085136655              -0.243750232               0.000000000              -0.094442414              -0.267045665               0.000000000              -0.103748172              -0.290341099               0.000000000              -0.113053931              -0.313636532               0.000000000              -0.122359690              -0.336931966               0.000000000              -0.131665448              -0.360227399               0.000000000              -0.140971207              -0.383522833               0.000000000              -0.150276966              -0.406818266               0.000000000              -0.159582724              -0.430113700               0.000000000              -0.168888483              -0.453409133               0.000000000              -0.178194241              -0.476704567               0.000000000              -0.187500000              -0.500000000               0.000000000              -0.025947013              -0.130444442               0.000000000              -0.032137825              -0.153541665               0.000000000              -0.038328636              -0.176638887               0.000000000              -0.044519448              -0.199736109               0.000000000              -0.050710260              -0.222833332               0.000000000              -0.056901071              -0.245930554               0.000000000              -0.063091883              -0.269027776               0.000000000              -0.069282695              -0.292124999               0.000000000              -0.075473506              -0.315222221               0.000000000              -0.081664318              -0.338319444               0.000000000              -0.087855130              -0.361416666               0.000000000              -0.094045942              -0.384513888               0.000000000              -0.100236753              -0.407611111               0.000000000              -0.106427565              -0.430708333               0.000000000              -0.112618377              -0.453805555               0.000000000              -0.118809188              -0.476902778               0.000000000              -0.125000000              -0.500000000               0.000000000              -0.013036280              -0.132359569               0.000000000              -0.016127762              -0.155337096               0.000000000              -0.019219245              -0.178314623               0.000000000              -0.022310727              -0.201292150               0.000000000              -0.025402210              -0.224269676               0.000000000              -0.028493692              -0.247247203               0.000000000              -0.031585175              -0.270224730               0.000000000              -0.034676657              -0.293202257               0.000000000              -0.037768140              -0.316179784               0.000000000              -0.040859622              -0.339157311               0.000000000              -0.043951105              -0.362134838               0.000000000              -0.047042587              -0.385112365               0.000000000              -0.050134070              -0.408089892               0.000000000              -0.053225552              -0.431067419               0.000000000              -0.056317035              -0.454044946               0.000000000              -0.059408517              -0.477022473               0.000000000              -0.062500000              -0.500000000               0.000000000               0.000000000              -0.133000000               0.000000000               0.000000000              -0.155937500               0.000000000               0.000000000              -0.178875000               0.000000000               0.000000000              -0.201812500               0.000000000               0.000000000              -0.224750000               0.000000000               0.000000000              -0.247687500               0.000000000               0.000000000              -0.270625000               0.000000000               0.000000000              -0.293562500               0.000000000               0.000000000              -0.316500000               0.000000000               0.000000000              -0.339437500               0.000000000               0.000000000              -0.362375000               0.000000000               0.000000000              -0.385312500               0.000000000               0.000000000              -0.408250000               0.000000000               0.000000000              -0.431187500               0.000000000               0.000000000              -0.454125000               0.000000000               0.000000000              -0.477062500               0.000000000               0.000000000              -0.500000000               0.000000000              -0.133000000               0.000000000               0.000000000              -0.155937500               0.000000000               0.000000000              -0.178875000               0.000000000               0.000000000              -0.201812500               0.000000000               0.000000000              -0.224750000               0.000000000               0.000000000              -0.247687500               0.000000000               0.000000000              -0.270625000               0.000000000               0.000000000              -0.293562500               0.000000000               0.000000000              -0.316500000               0.000000000               0.000000000              -0.339437500               0.000000000               0.000000000              -0.362375000               0.000000000               0.000000000              -0.385312500               0.000000000               0.000000000              -0.408250000               0.000000000               0.000000000              -0.431187500               0.000000000               0.000000000              -0.454125000               0.000000000               0.000000000              -0.477062500               0.000000000               0.000000000              -0.500000000               0.000000000               0.000000000              -0.132359569               0.013036280               0.000000000              -0.155337096               0.016127762               0.000000000              -0.178314623               0.019219245               0.000000000              -0.201292150               0.022310727               0.000000000              -0.224269676               0.025402210               0.000000000              -0.247247203               0.028493692               0.000000000              -0.270224730               0.031585175               0.000000000              -0.293202257               0.034676657               0.000000000              -0.316179784               0.037768140               0.000000000              -0.339157311               0.040859622               0.000000000              -0.362134838               0.043951105               0.000000000              -0.385112365               0.047042587               0.000000000              -0.408089892               0.050134070               0.000000000              -0.431067419               0.053225552               0.000000000              -0.454044946               0.056317035               0.000000000              -0.477022473               0.059408517               0.000000000              -0.500000000               0.062500000               0.000000000              -0.130444442               0.025947013               0.000000000              -0.153541665               0.032137825               0.000000000              -0.176638887               0.038328636               0.000000000              -0.199736109               0.044519448               0.000000000              -0.222833332               0.050710260               0.000000000              -0.245930554               0.056901071               0.000000000              -0.269027776               0.063091883               0.000000000              -0.292124999               0.069282695               0.000000000              -0.315222221               0.075473506               0.000000000              -0.338319444               0.081664318               0.000000000              -0.361416666               0.087855130               0.000000000              -0.384513888               0.094045942               0.000000000              -0.407611111               0.100236753               0.000000000              -0.430708333               0.106427565               0.000000000              -0.453805555               0.112618377               0.000000000              -0.476902778               0.118809188               0.000000000              -0.500000000               0.125000000               0.000000000              -0.127273065               0.038607862               0.000000000              -0.150568498               0.047913621               0.000000000              -0.173863932               0.057219379               0.000000000              -0.197159365               0.066525138               0.000000000              -0.220454798               0.075830897               0.000000000              -0.243750232               0.085136655               0.000000000              -0.267045665               0.094442414               0.000000000              -0.290341099               0.103748172               0.000000000              -0.313636532               0.113053931               0.000000000              -0.336931966               0.122359690               0.000000000              -0.360227399               0.131665448               0.000000000              -0.383522833               0.140971207               0.000000000              -0.406818266               0.150276966               0.000000000              -0.430113700               0.159582724               0.000000000              -0.453409133               0.168888483               0.000000000              -0.476704567               0.178194241               0.000000000              -0.500000000               0.187500000               0.000000000              -0.122875978               0.050896897               0.000000000              -0.146446229               0.063340840               0.000000000              -0.170016481               0.075784784               0.000000000              -0.193586732               0.088228728               0.000000000              -0.217156983               0.100672672               0.000000000              -0.240727235               0.113116616               0.000000000              -0.264297486               0.125560560               0.000000000              -0.287867738               0.138004504               0.000000000              -0.311437989               0.150448448               0.000000000              -0.335008240               0.162892392               0.000000000              -0.358578492               0.175336336               0.000000000              -0.382148743               0.187780280               0.000000000              -0.405718994               0.200224224               0.000000000              -0.429289246               0.212668168               0.000000000              -0.452859497               0.225112112               0.000000000              -0.476429749               0.237556056               0.000000000              -0.500000000               0.250000000               0.000000000              -0.117295528               0.062695766               0.000000000              -0.141214558               0.078308531               0.000000000              -0.165133587               0.093921295               0.000000000              -0.189052617               0.109534060               0.000000000              -0.212971646               0.125146824               0.000000000              -0.236890676               0.140759589               0.000000000              -0.260809705               0.156372354               0.000000000              -0.284728735               0.171985118               0.000000000              -0.308647764               0.187597883               0.000000000              -0.332566794               0.203210648               0.000000000              -0.356485823               0.218823412               0.000000000              -0.380404853               0.234436177               0.000000000              -0.404323882               0.250048941               0.000000000              -0.428242912               0.265661706               0.000000000              -0.452161941               0.281274471               0.000000000              -0.476080971               0.296887235               0.000000000              -0.500000000               0.312500000               0.000000000              -0.110585458               0.073890841               0.000000000              -0.134923867               0.092710163               0.000000000              -0.159262276               0.111529486               0.000000000              -0.183600685               0.130348808               0.000000000              -0.207939094               0.149168131               0.000000000              -0.232277503               0.167987453               0.000000000              -0.256615912               0.186806776               0.000000000              -0.280954320               0.205626098               0.000000000              -0.305292729               0.224445420               0.000000000              -0.329631138               0.243264743               0.000000000              -0.353969547               0.262084065               0.000000000              -0.378307956               0.280903388               0.000000000              -0.402646365               0.299722710               0.000000000              -0.426984773               0.318542033               0.000000000              -0.451323182               0.337361355               0.000000000              -0.475661591               0.356180678               0.000000000              -0.500000000               0.375000000               0.000000000              -0.102810390               0.084374307               0.000000000              -0.127634741               0.106444663               0.000000000              -0.152459092               0.128515018               0.000000000              -0.177283442               0.150585374               0.000000000              -0.202107793               0.172655730               0.000000000              -0.226932143               0.194726086               0.000000000              -0.251756494               0.216796442               0.000000000              -0.276580845               0.238866798               0.000000000              -0.301405195               0.260937153               0.000000000              -0.326229546               0.283007509               0.000000000              -0.351053896               0.305077865               0.000000000              -0.375878247               0.327148221               0.000000000              -0.400702598               0.349218577               0.000000000              -0.425526948               0.371288933               0.000000000              -0.450351299               0.393359288               0.000000000              -0.475175649               0.415429644               0.000000000              -0.500000000               0.437500000               0.000000000              -0.094045202               0.094045202               0.000000000              -0.119417377               0.119417377               0.000000000              -0.144789552               0.144789552               0.000000000              -0.170161727               0.170161727               0.000000000              -0.195533901               0.195533901               0.000000000              -0.220906076               0.220906076               0.000000000              -0.246278251               0.246278251               0.000000000              -0.271650426               0.271650426               0.000000000              -0.297022601               0.297022601               0.000000000              -0.322394776               0.322394776               0.000000000              -0.347766951               0.347766951               0.000000000              -0.373139126               0.373139126               0.000000000              -0.398511300               0.398511300               0.000000000              -0.423883475               0.423883475               0.000000000              -0.449255650               0.449255650               0.000000000              -0.474627825               0.474627825               0.000000000              -0.500000000               0.500000000               0.000000000              -0.084374307               0.102810390               0.000000000              -0.106444663               0.127634741               0.000000000              -0.128515018               0.152459092               0.000000000              -0.150585374               0.177283442               0.000000000              -0.172655730               0.202107793               0.000000000              -0.194726086               0.226932143               0.000000000              -0.216796442               0.251756494               0.000000000              -0.238866798               0.276580845               0.000000000              -0.260937153               0.301405195               0.000000000              -0.283007509               0.326229546               0.000000000              -0.305077865               0.351053896               0.000000000              -0.327148221               0.375878247               0.000000000              -0.349218577               0.400702598               0.000000000              -0.371288933               0.425526948               0.000000000              -0.393359288               0.450351299               0.000000000              -0.415429644               0.475175649               0.000000000              -0.437500000               0.500000000               0.000000000              -0.073890841               0.110585458               0.000000000              -0.092710163               0.134923867               0.000000000              -0.111529486               0.159262276               0.000000000              -0.130348808               0.183600685               0.000000000              -0.149168131               0.207939094               0.000000000              -0.167987453               0.232277503               0.000000000              -0.186806776               0.256615912               0.000000000              -0.205626098               0.280954320               0.000000000              -0.224445420               0.305292729               0.000000000              -0.243264743               0.329631138               0.000000000              -0.262084065               0.353969547               0.000000000              -0.280903388               0.378307956               0.000000000              -0.299722710               0.402646365               0.000000000              -0.318542033               0.426984773               0.000000000              -0.337361355               0.451323182               0.000000000              -0.356180678               0.475661591               0.000000000              -0.375000000               0.500000000               0.000000000              -0.062695766               0.117295528               0.000000000              -0.078308531               0.141214558               0.000000000              -0.093921295               0.165133587               0.000000000              -0.109534060               0.189052617               0.000000000              -0.125146824               0.212971646               0.000000000              -0.140759589               0.236890676               0.000000000              -0.156372354               0.260809705               0.000000000              -0.171985118               0.284728735               0.000000000              -0.187597883               0.308647764               0.000000000              -0.203210648               0.332566794               0.000000000              -0.218823412               0.356485823               0.000000000              -0.234436177               0.380404853               0.000000000              -0.250048941               0.404323882               0.000000000              -0.265661706               0.428242912               0.000000000              -0.281274471               0.452161941               0.000000000              -0.296887235               0.476080971               0.000000000              -0.312500000               0.500000000               0.000000000              -0.050896897               0.122875978               0.000000000              -0.063340840               0.146446229               0.000000000              -0.075784784               0.170016481               0.000000000              -0.088228728               0.193586732               0.000000000              -0.100672672               0.217156983               0.000000000              -0.113116616               0.240727235               0.000000000              -0.125560560               0.264297486               0.000000000              -0.138004504               0.287867738               0.000000000              -0.150448448               0.311437989               0.000000000              -0.162892392               0.335008240               0.000000000              -0.175336336               0.358578492               0.000000000              -0.187780280               0.382148743               0.000000000              -0.200224224               0.405718994               0.000000000              -0.212668168               0.429289246               0.000000000              -0.225112112               0.452859497               0.000000000              -0.237556056               0.476429749               0.000000000              -0.250000000               0.500000000               0.000000000              -0.038607862               0.127273065               0.000000000              -0.047913621               0.150568498               0.000000000              -0.057219379               0.173863932               0.000000000              -0.066525138               0.197159365               0.000000000              -0.075830897               0.220454798               0.000000000              -0.085136655               0.243750232               0.000000000              -0.094442414               0.267045665               0.000000000              -0.103748172               0.290341099               0.000000000              -0.113053931               0.313636532               0.000000000              -0.122359690               0.336931966               0.000000000              -0.131665448               0.360227399               0.000000000              -0.140971207               0.383522833               0.000000000              -0.150276966               0.406818266               0.000000000              -0.159582724               0.430113700               0.000000000              -0.168888483               0.453409133               0.000000000              -0.178194241               0.476704567               0.000000000              -0.187500000               0.500000000               0.000000000              -0.025947013               0.130444442               0.000000000              -0.032137825               0.153541665               0.000000000              -0.038328636               0.176638887               0.000000000              -0.044519448               0.199736109               0.000000000              -0.050710260               0.222833332               0.000000000              -0.056901071               0.245930554               0.000000000              -0.063091883               0.269027776               0.000000000              -0.069282695               0.292124999               0.000000000              -0.075473506               0.315222221               0.000000000              -0.081664318               0.338319444               0.000000000              -0.087855130               0.361416666               0.000000000              -0.094045942               0.384513888               0.000000000              -0.100236753               0.407611111               0.000000000              -0.106427565               0.430708333               0.000000000              -0.112618377               0.453805555               0.000000000              -0.118809188               0.476902778               0.000000000              -0.125000000               0.500000000               0.000000000              -0.013036280               0.132359569               0.000000000              -0.016127762               0.155337096               0.000000000              -0.019219245               0.178314623               0.000000000              -0.022310727               0.201292150               0.000000000              -0.025402210               0.224269676               0.000000000              -0.028493692               0.247247203               0.000000000              -0.031585175               0.270224730               0.000000000              -0.034676657               0.293202257               0.000000000              -0.037768140               0.316179784               0.000000000              -0.040859622               0.339157311               0.000000000              -0.043951105               0.362134838               0.000000000              -0.047042587               0.385112365               0.000000000              -0.050134070               0.408089892               0.000000000              -0.053225552               0.431067419               0.000000000              -0.056317035               0.454044946               0.000000000              -0.059408517               0.477022473               0.000000000              -0.062500000               0.500000000               0.000000000               0.000000000               0.133000000               0.000000000               0.000000000               0.155937500               0.000000000               0.000000000               0.178875000               0.000000000               0.000000000               0.201812500               0.000000000               0.000000000               0.224750000               0.000000000               0.000000000               0.247687500               0.000000000               0.000000000               0.270625000               0.000000000               0.000000000               0.293562500               0.000000000               0.000000000               0.316500000               0.000000000               0.000000000               0.339437500               0.000000000               0.000000000               0.362375000               0.000000000               0.000000000               0.385312500               0.000000000               0.000000000               0.408250000               0.000000000               0.000000000               0.431187500               0.000000000               0.000000000               0.454125000               0.000000000               0.000000000               0.477062500               0.000000000               0.000000000               0.500000000               0.000000000 </DataArray>
</Points>
<Cells>
<DataArray type="Int32"                                    Name="connectivity"                                                      NumberOfComponents=" 1" format="ascii">
         0          1         18         17          1          2         19         18          2          3         20         19          3          4         21         20          4          5         22         21          5          6         23         22          6          7         24         23          7          8         25         24          8          9         26         25          9         10         27         26         10         11         28         27         11         12         29         28         12         13         30         29         13         14         31         30         14         15         32         31         15         16         33         32         17         18         35         34         18         19         36         35         19         20         37         36         20         21         38         37         21         22         39         38         22         23         40         39         23         24         41         40         24         25         42         41         25         26         43         42         26         27         44         43         27         28         45         44         28         29         46         45         29         30         47         46         30         31         48         47         31         32         49         48         32         33         50         49         34         35         52         51         35         36         53         52         36         37         54         53         37         38         55         54         38         39         56         55         39         40         57         56         40         41         58         57         41         42         59         58         42         43         60         59         43         44         61         60         44         45         62         61         45         46         63         62         46         47         64         63         47         48         65         64         48         49         66         65         49         50         67         66         51         52         69         68         52         53         70         69         53         54         71         70         54         55         72         71         55         56         73         72         56         57         74         73         57         58         75         74         58         59         76         75         59         60         77         76         60         61         78         77         61         62         79         78         62         63         80         79         63         64         81         80         64         65         82         81         65         66         83         82         66         67         84         83         68         69         86         85         69         70         87         86         70         71         88         87         71         72         89         88         72         73         90         89         73         74         91         90         74         75         92         91         75         76         93         92         76         77         94         93         77         78         95         94         78         79         96         95         79         80         97         96         80         81         98         97         81         82         99         98         82         83        100         99         83         84        101        100         85         86        103        102         86         87        104        103         87         88        105        104         88         89        106        105         89         90        107        106         90         91        108        107         91         92        109        108         92         93        110        109         93         94        111        110         94         95        112        111         95         96        113        112         96         97        114        113         97         98        115        114         98         99        116        115         99        100        117        116        100        101        118        117        102        103        120        119        103        104        121        120        104        105        122        121        105        106        123        122        106        107        124        123        107        108        125        124        108        109        126        125        109        110        127        126        110        111        128        127        111        112        129        128        112        113        130        129        113        114        131        130        114        115        132        131        115        116        133        132        116        117        134        133        117        118        135        134        119        120        137        136        120        121        138        137        121        122        139        138        122        123        140        139        123        124        141        140        124        125        142        141        125        126        143        142        126        127        144        143        127        128        145        144        128        129        146        145        129        130        147        146        130        131        148        147        131        132        149        148        132        133        150        149        133        134        151        150        134        135        152        151        136        137        154        153        137        138        155        154        138        139        156        155        139        140        157        156        140        141        158        157        141        142        159        158        142        143        160        159        143        144        161        160        144        145        162        161        145        146        163        162        146        147        164        163        147        148        165        164        148        149        166        165        149        150        167        166        150        151        168        167        151        152        169        168        153        154        171        170        154        155        172        171        155        156        173        172        156        157        174        173        157        158        175        174        158        159        176        175        159        160        177        176        160        161        178        177        161        162        179        178        162        163        180        179        163        164        181        180        164        165        182        181        165        166        183        182        166        167        184        183        167        168        185        184        168        169        186        185        170        171        188        187        171        172        189        188        172        173        190        189        173        174        191        190        174        175        192        191        175        176        193        192        176        177        194        193        177        178        195        194        178        179        196        195        179        180        197        196        180        181        198        197        181        182        199        198        182        183        200        199        183        184        201        200        184        185        202        201        185        186        203        202        187        188        205        204        188        189        206        205        189        190        207        206        190        191        208        207        191        192        209        208        192        193        210        209        193        194        211        210        194        195        212        211        195        196        213        212        196        197        214        213        197        198        215        214        198        199        216        215        199        200        217        216        200        201        218        217        201        202        219        218        202        203        220        219        204        205        222        221        205        206        223        222        206        207        224        223        207        208        225        224        208        209        226        225        209        210        227        226        210        211        228        227        211        212        229        228        212        213        230        229        213        214        231        230        214        215        232        231        215        216        233        232        216        217        234        233        217        218        235        234        218        219        236        235        219        220        237        236        221        222        239        238        222        223        240        239        223        224        241        240        224        225        242        241        225        226        243        242        226        227        244        243        227        228        245        244        228        229        246        245        229        230        247        246        230        231        248        247        231        232        249        248        232        233        250        249        233        234        251        250        234        235        252        251        235        236        253        252        236        237        254        253        238        239        256        255        239        240        257        256        240        241        258        257        241        242        259        258        242        243        260        259        243        244        261        260        244        245        262        261        245        246        263        262        246        247        264        263        247        248        265        264        248        249        266        265        249        250        267        266        250        251        268        267        251        252        269        268        252        253        270        269        253        254        271        270        255        256        273        272        256        257        274        273        257        258        275        274        258        259        276        275        259        260        277        276        260        261        278        277        261        262        279        278        262        263        280        279        263        264        281        280        264        265        282        281        265        266        283        282        266        267        284        283        267        268        285        284        268        269        286        285        269        270        287        286        270        271        288        287        306        307          1          0        307        308          2          1        308        309          3          2        309        310          4          3        310        311          5          4        311        312          6          5        312        313          7          6        313        314          8          7        314        315          9          8        315        316         10          9        316        317         11         10        317        318         12         11        318        319         13         12        319        320         14         13        320        321         15         14        321        322         16         15        323        324        307        306        324        325        308        307        325        326        309        308        326        327        310        309        327        328        311        310        328        329        312        311        329        330        313        312        330        331        314        313        331        332        315        314        332        333        316        315        333        334        317        316        334        335        318        317        335        336        319        318        336        337        320        319        337        338        321        320        338        339        322        321        340        341        324        323        341        342        325        324        342        343        326        325        343        344        327        326        344        345        328        327        345        346        329        328        346        347        330        329        347        348        331        330        348        349        332        331        349        350        333        332        350        351        334        333        351        352        335        334        352        353        336        335        353        354        337        336        354        355        338        337        355        356        339        338        357        358        341        340        358        359        342        341        359        360        343        342        360        361        344        343        361        362        345        344        362        363        346        345        363        364        347        346        364        365        348        347        365        366        349        348        366        367        350        349        367        368        351        350        368        369        352        351        369        370        353        352        370        371        354        353        371        372        355        354        372        373        356        355        374        375        358        357        375        376        359        358        376        377        360        359        377        378        361        360        378        379        362        361        379        380        363        362        380        381        364        363        381        382        365        364        382        383        366        365        383        384        367        366        384        385        368        367        385        386        369        368        386        387        370        369        387        388        371        370        388        389        372        371        389        390        373        372        391        392        375        374        392        393        376        375        393        394        377        376        394        395        378        377        395        396        379        378        396        397        380        379        397        398        381        380        398        399        382        381        399        400        383        382        400        401        384        383        401        402        385        384        402        403        386        385        403        404        387        386        404        405        388        387        405        406        389        388        406        407        390        389        408        409        392        391        409        410        393        392        410        411        394        393        411        412        395        394        412        413        396        395        413        414        397        396        414        415        398        397        415        416        399        398        416        417        400        399        417        418        401        400        418        419        402        401        419        420        403        402        420        421        404        403        421        422        405        404        422        423        406        405        423        424        407        406        425        426        409        408        426        427        410        409        427        428        411        410        428        429        412        411        429        430        413        412        430        431        414        413        431        432        415        414        432        433        416        415        433        434        417        416        434        435        418        417        435        436        419        418        436        437        420        419        437        438        421        420        438        439        422        421        439        440        423        422        440        441        424        423        442        443        426        425        443        444        427        426        444        445        428        427        445        446        429        428        446        447        430        429        447        448        431        430        448        449        432        431        449        450        433        432        450        451        434        433        451        452        435        434        452        453        436        435        453        454        437        436        454        455        438        437        455        456        439        438        456        457        440        439        457        458        441        440        459        460        443        442        460        461        444        443        461        462        445        444        462        463        446        445        463        464        447        446        464        465        448        447        465        466        449        448        466        467        450        449        467        468        451        450        468        469        452        451        469        470        453        452        470        471        454        453        471        472        455        454        472        473        456        455        473        474        457        456        474        475        458        457        476        477        460        459        477        478        461        460        478        479        462        461        479        480        463        462        480        481        464        463        481        482        465        464        482        483        466        465        483        484        467        466        484        485        468        467        485        486        469        468        486        487        470        469        487        488        471        470        488        489        472        471        489        490        473        472        490        491        474        473        491        492        475        474        493        494        477        476        494        495        478        477        495        496        479        478        496        497        480        479        497        498        481        480        498        499        482        481        499        500        483        482        500        501        484        483        501        502        485        484        502        503        486        485        503        504        487        486        504        505        488        487        505        506        489        488        506        507        490        489        507        508        491        490        508        509        492        491        510        511        494        493        511        512        495        494        512        513        496        495        513        514        497        496        514        515        498        497        515        516        499        498        516        517        500        499        517        518        501        500        518        519        502        501        519        520        503        502        520        521        504        503        521        522        505        504        522        523        506        505        523        524        507        506        524        525        508        507        525        526        509        508        527        528        511        510        528        529        512        511        529        530        513        512        530        531        514        513        531        532        515        514        532        533        516        515        533        534        517        516        534        535        518        517        535        536        519        518        536        537        520        519        537        538        521        520        538        539        522        521        539        540        523        522        540        541        524        523        541        542        525        524        542        543        526        525        544        545        528        527        545        546        529        528        546        547        530        529        547        548        531        530        548        549        532        531        549        550        533        532        550        551        534        533        551        552        535        534        552        553        536        535        553        554        537        536        554        555        538        537        555        556        539        538        556        557        540        539        557        558        541        540        558        559        542        541        559        560        543        542        561        562        545        544        562        563        546        545        563        564        547        546        564        565        548        547        565        566        549        548        566        567        550        549        567        568        551        550        568        569        552        551        569        570        553        552        570        571        554        553        571        572        555        554        572        573        556        555        573        574        557        556        574        575        558        557        575        576        559        558        576        577        560        559        578        579        596        595        579        580        597        596        580        581        598        597        581        582        599        598        582        583        600        599        583        584        601        600        584        585        602        601        585        586        603        602        586        587        604        603        587        588        605        604        588        589        606        605        589        590        607        606        590        591        608        607        591        592        609        608        592        593        610        609        593        594        611        610        595        596        613        612        596        597        614        613        597        598        615        614        598        599        616        615        599        600        617        616        600        601        618        617        601        602        619        618        602        603        620        619        603        604        621        620        604        605        622        621        605        606        623        622        606        607        624        623        607        608        625        624        608        609        626        625        609        610        627        626        610        611        628        627        612        613        630        629        613        614        631        630        614        615        632        631        615        616        633        632        616        617        634        633        617        618        635        634        618        619        636        635        619        620        637        636        620        621        638        637        621        622        639        638        622        623        640        639        623        624        641        640        624        625        642        641        625        626        643        642        626        627        644        643        627        628        645        644        629        630        647        646        630        631        648        647        631        632        649        648        632        633        650        649        633        634        651        650        634        635        652        651        635        636        653        652        636        637        654        653        637        638        655        654        638        639        656        655        639        640        657        656        640        641        658        657        641        642        659        658        642        643        660        659        643        644        661        660        644        645        662        661        646        647        664        663        647        648        665        664        648        649        666        665        649        650        667        666        650        651        668        667        651        652        669        668        652        653        670        669        653        654        671        670        654        655        672        671        655        656        673        672        656        657        674        673        657        658        675        674        658        659        676        675        659        660        677        676        660        661        678        677        661        662        679        678        663        664        681        680        664        665        682        681        665        666        683        682        666        667        684        683        667        668        685        684        668        669        686        685        669        670        687        686        670        671        688        687        671        672        689        688        672        673        690        689        673        674        691        690        674        675        692        691        675        676        693        692        676        677        694        693        677        678        695        694        678        679        696        695        680        681        698        697        681        682        699        698        682        683        700        699        683        684        701        700        684        685        702        701        685        686        703        702        686        687        704        703        687        688        705        704        688        689        706        705        689        690        707        706        690        691        708        707        691        692        709        708        692        693        710        709        693        694        711        710        694        695        712        711        695        696        713        712        697        698        715        714        698        699        716        715        699        700        717        716        700        701        718        717        701        702        719        718        702        703        720        719        703        704        721        720        704        705        722        721        705        706        723        722        706        707        724        723        707        708        725        724        708        709        726        725        709        710        727        726        710        711        728        727        711        712        729        728        712        713        730        729        714        715        732        731        715        716        733        732        716        717        734        733        717        718        735        734        718        719        736        735        719        720        737        736        720        721        738        737        721        722        739        738        722        723        740        739        723        724        741        740        724        725        742        741        725        726        743        742        726        727        744        743        727        728        745        744        728        729        746        745        729        730        747        746        731        732        749        748        732        733        750        749        733        734        751        750        734        735        752        751        735        736        753        752        736        737        754        753        737        738        755        754        738        739        756        755        739        740        757        756        740        741        758        757        741        742        759        758        742        743        760        759        743        744        761        760        744        745        762        761        745        746        763        762        746        747        764        763        748        749        766        765        749        750        767        766        750        751        768        767        751        752        769        768        752        753        770        769        753        754        771        770        754        755        772        771        755        756        773        772        756        757        774        773        757        758        775        774        758        759        776        775        759        760        777        776        760        761        778        777        761        762        779        778        762        763        780        779        763        764        781        780        765        766        783        782        766        767        784        783        767        768        785        784        768        769        786        785        769        770        787        786        770        771        788        787        771        772        789        788        772        773        790        789        773        774        791        790        774        775        792        791        775        776        793        792        776        777        794        793        777        778        795        794        778        779        796        795        779        780        797        796        780        781        798        797        782        783        800        799        783        784        801        800        784        785        802        801        785        786        803        802        786        787        804        803        787        788        805        804        788        789        806        805        789        790        807        806        790        791        808        807        791        792        809        808        792        793        810        809        793        794        811        810        794        795        812        811        795        796        813        812        796        797        814        813        797        798        815        814        799        800        817        816        800        801        818        817        801        802        819        818        802        803        820        819        803        804        821        820        804        805        822        821        805        806        823        822        806        807        824        823        807        808        825        824        808        809        826        825        809        810        827        826        810        811        828        827        811        812        829        828        812        813        830        829        813        814        831        830        814        815        832        831        816        817        834        833        817        818        835        834        818        819        836        835        819        820        837        836        820        821        838        837        821        822        839        838        822        823        840        839        823        824        841        840        824        825        842        841        825        826        843        842        826        827        844        843        827        828        845        844        828        829        846        845        829        830        847        846        830        831        848        847        831        832        849        848        833        834        562        561        834        835        563        562        835        836        564        563        836        837        565        564        837        838        566        565        838        839        567        566        839        840        568        567        840        841        569        568        841        842        570        569        842        843        571        570        843        844        572        571        844        845        573        572        845        846        574        573        846        847        575        574        847        848        576        575        848        849        577        576        884        885        579        578        885        886        580        579        886        887        581        580        887        888        582        581        888        889        583        582        889        890        584        583        890        891        585        584        891        892        586        585        892        893        587        586        893        894        588        587        894        895        589        588        895        896        590        589        896        897        591        590        897        898        592        591        898        899        593        592        899        900        594        593        901        902        885        884        902        903        886        885        903        904        887        886        904        905        888        887        905        906        889        888        906        907        890        889        907        908        891        890        908        909        892        891        909        910        893        892        910        911        894        893        911        912        895        894        912        913        896        895        913        914        897        896        914        915        898        897        915        916        899        898        916        917        900        899        918        919        902        901        919        920        903        902        920        921        904        903        921        922        905        904        922        923        906        905        923        924        907        906        924        925        908        907        925        926        909        908        926        927        910        909        927        928        911        910        928        929        912        911        929        930        913        912        930        931        914        913        931        932        915        914        932        933        916        915        933        934        917        916        935        936        919        918        936        937        920        919        937        938        921        920        938        939        922        921        939        940        923        922        940        941        924        923        941        942        925        924        942        943        926        925        943        944        927        926        944        945        928        927        945        946        929        928        946        947        930        929        947        948        931        930        948        949        932        931        949        950        933        932        950        951        934        933        952        953        936        935        953        954        937        936        954        955        938        937        955        956        939        938        956        957        940        939        957        958        941        940        958        959        942        941        959        960        943        942        960        961        944        943        961        962        945        944        962        963        946        945        963        964        947        946        964        965        948        947        965        966        949        948        966        967        950        949        967        968        951        950        969        970        953        952        970        971        954        953        971        972        955        954        972        973        956        955        973        974        957        956        974        975        958        957        975        976        959        958        976        977        960        959        977        978        961        960        978        979        962        961        979        980        963        962        980        981        964        963        981        982        965        964        982        983        966        965        983        984        967        966        984        985        968        967        986        987        970        969        987        988        971        970        988        989        972        971        989        990        973        972        990        991        974        973        991        992        975        974        992        993        976        975        993        994        977        976        994        995        978        977        995        996        979        978        996        997        980        979        997        998        981        980        998        999        982        981        999       1000        983        982       1000       1001        984        983       1001       1002        985        984       1003       1004        987        986       1004       1005        988        987       1005       1006        989        988       1006       1007        990        989       1007       1008        991        990       1008       1009        992        991       1009       1010        993        992       1010       1011        994        993       1011       1012        995        994       1012       1013        996        995       1013       1014        997        996       1014       1015        998        997       1015       1016        999        998       1016       1017       1000        999       1017       1018       1001       1000       1018       1019       1002       1001       1020       1021       1004       1003       1021       1022       1005       1004       1022       1023       1006       1005       1023       1024       1007       1006       1024       1025       1008       1007       1025       1026       1009       1008       1026       1027       1010       1009       1027       1028       1011       1010       1028       1029       1012       1011       1029       1030       1013       1012       1030       1031       1014       1013       1031       1032       1015       1014       1032       1033       1016       1015       1033       1034       1017       1016       1034       1035       1018       1017       1035       1036       1019       1018       1037       1038       1021       1020       1038       1039       1022       1021       1039       1040       1023       1022       1040       1041       1024       1023       1041       1042       1025       1024       1042       1043       1026       1025       1043       1044       1027       1026       1044       1045       1028       1027       1045       1046       1029       1028       1046       1047       1030       1029       1047       1048       1031       1030       1048       1049       1032       1031       1049       1050       1033       1032       1050       1051       1034       1033       1051       1052       1035       1034       1052       1053       1036       1035       1054       1055       1038       1037       1055       1056       1039       1038       1056       1057       1040       1039       1057       1058       1041       1040       1058       1059       1042       1041       1059       1060       1043       1042       1060       1061       1044       1043       1061       1062       1045       1044       1062       1063       1046       1045       1063       1064       1047       1046       1064       1065       1048       1047       1065       1066       1049       1048       1066       1067       1050       1049       1067       1068       1051       1050       1068       1069       1052       1051       1069       1070       1053       1052       1071       1072       1055       1054       1072       1073       1056       1055       1073       1074       1057       1056       1074       1075       1058       1057       1075       1076       1059       1058       1076       1077       1060       1059       1077       1078       1061       1060       1078       1079       1062       1061       1079       1080       1063       1062       1080       1081       1064       1063       1081       1082       1065       1064       1082       1083       1066       1065       1083       1084       1067       1066       1084       1085       1068       1067       1085       1086       1069       1068       1086       1087       1070       1069       1088       1089       1072       1071       1089       1090       1073       1072       1090       1091       1074       1073       1091       1092       1075       1074       1092       1093       1076       1075       1093       1094       1077       1076       1094       1095       1078       1077       1095       1096       1079       1078       1096       1097       1080       1079       1097       1098       1081       1080       1098       1099       1082       1081       1099       1100       1083       1082       1100       1101       1084       1083       1101       1102       1085       1084       1102       1103       1086       1085       1103       1104       1087       1086       1105       1106       1089       1088       1106       1107       1090       1089       1107       1108       1091       1090       1108       1109       1092       1091       1109       1110       1093       1092       1110       1111       1094       1093       1111       1112       1095       1094       1112       1113       1096       1095       1113       1114       1097       1096       1114       1115       1098       1097       1115       1116       1099       1098       1116       1117       1100       1099       1117       1118       1101       1100       1118       1119       1102       1101       1119       1120       1103       1102       1120       1121       1104       1103       1122       1123       1106       1105       1123       1124       1107       1106       1124       1125       1108       1107       1125       1126       1109       1108       1126       1127       1110       1109       1127       1128       1111       1110       1128       1129       1112       1111       1129       1130       1113       1112       1130       1131       1114       1113       1131       1132       1115       1114       1132       1133       1116       1115       1133       1134       1117       1116       1134       1135       1118       1117       1135       1136       1119       1118       1136       1137       1120       1119       1137       1138       1121       1120        272        273       1123       1122        273        274       1124       1123        274        275       1125       1124        275        276       1126       1125        276        277       1127       1126        277        278       1128       1127        278        279       1129       1128        279        280       1130       1129        280        281       1131       1130        281        282       1132       1131        282        283       1133       1132        283        284       1134       1133        284        285       1135       1134        285        286       1136       1135        286        287       1137       1136        287        288       1138       1137 </DataArray>
<DataArray type="Int32"                                    Name="offsets"                                                      NumberOfComponents=" 1" format="ascii">
         4          8         12         16         20         24         28         32         36         40         44         48         52         56         60         64         68         72         76         80         84         88         92         96        100        104        108        112        116        120        124        128        132        136        140        144        148        152        156        160        164        168        172        176        180        184        188        192        196        200        204        208        212        216        220        224        228        232        236        240        244        248        252        256        260        264        268        272        276        280        284        288        292        296        300        304        308        312        316        320        324        328        332        336        340        344        348        352        356        360        364        368        372        376        380        384        388        392        396        400        404        408        412        416        420        424        428        432        436        440        444        448        452        456        460        464        468        472        476        480        484        488        492        496        500        504        508        512        516        520        524        528        532        536        540        544        548        552        556        560        564        568        572        576        580        584        588        592        596        600        604        608        612        616        620        624        628        632        636        640        644        648        652        656        660        664        668        672        676        680        684        688        692        696        700        704        708        712        716        720        724        728        732        736        740        744        748        752        756        760        764        768        772        776        780        784        788        792        796        800        804        808        812        816        820        824        828        832        836        840        844        848        852        856        860        864        868        872        876        880        884        888        892        896        900        904        908        912        916        920        924        928        932        936        940        944        948        952        956        960        964        968        972        976        980        984        988        992        996       1000       1004       1008       1012       1016       1020       1024       1028       1032       1036       1040       1044       1048       1052       1056       1060       1064       1068       1072       1076       1080       1084       1088       1092       1096       1100       1104       1108       1112       1116       1120       1124       1128       1132       1136       1140       1144       1148       1152       1156       1160       1164       1168       1172       1176       1180       1184       1188       1192       1196       1200       1204       1208       1212       1216       1220       1224       1228       1232       1236       1240       1244       1248       1252       1256       1260       1264       1268       1272       1276       1280       1284       1288       1292       1296       1300       1304       1308       1312       1316       1320       1324       1328       1332       1336       1340       1344       1348       1352       1356       1360       1364       1368       1372       1376       1380       1384       1388       1392       1396       1400       1404       1408       1412       1416       1420       1424       1428       1432       1436       1440       1444       1448       1452       1456       1460       1464       1468       1472       1476       1480       1484       1488       1492       1496       1500       1504       1508       1512       1516       1520       1524       1528       1532       1536       1540       1544       1548       1552       1556       1560       1564       1568       1572       1576       1580       1584       1588       1592       1596       1600       1604       1608       1612       1616       1620       1624       1628       1632       1636       1640       1644       1648       1652       1656       1660       1664       1668       1672       1676       1680       1684       1688       1692       1696       1700       1704       1708       1712       1716       1720       1724       1728       1732       1736       1740       1744       1748       1752       1756       1760       1764       1768       1772       1776       1780       1784       1788       1792       1796       1800       1804       1808       1812       1816       1820       1824       1828       1832       1836       1840       1844       1848       1852       1856       1860       1864       1868       1872       1876       1880       1884       1888       1892       1896       1900       1904       1908       1912       1916       1920       1924       1928       1932       1936       1940       1944       1948       1952       1956       1960       1964       1968       1972       1976       1980       1984       1988       1992       1996       2000       2004       2008       2012       2016       2020       2024       2028       2032       2036       2040       2044       2048       2052       2056       2060       2064       2068       2072       2076       2080       2084       2088       2092       2096       2100       2104       2108       2112       2116       2120       2124       2128       2132       2136       2140       2144       2148       2152       2156       2160       2164       2168       2172       2176       2180       2184       2188       2192       2196       2200       2204       2208       2212       2216       2220       2224       2228       2232       2236       2240       2244       2248       2252       2256       2260       2264       2268       2272       2276       2280       2284       2288       2292       2296       2300       2304       2308       2312       2316       2320       2324       2328       2332       2336       2340       2344       2348       2352       2356       2360       2364       2368       2372       2376       2380       2384       2388       2392       2396       2400       2404       2408       2412       2416       2420       2424       2428       2432       2436       2440       2444       2448       2452       2456       2460       2464       2468       2472       2476       2480       2484       2488       2492       2496       2500       2504       2508       2512       2516       2520       2524       2528       2532       2536       2540       2544       2548       2552       2556       2560       2564       2568       2572       2576       2580       2584       2588       2592       2596       2600       2604       2608       2612       2616       2620       2624       2628       2632       2636       2640       2644       2648       2652       2656       2660       2664       2668       2672       2676       2680       2684       2688       2692       2696       2700       2704       2708       2712       2716       2720       2724       2728       2732       2736       2740       2744       2748       2752       2756       2760       2764       2768       2772       2776       2780       2784       2788       2792       2796       2800       2804       2808       2812       2816       2820       2824       2828       2832       2836       2840       2844       2848       2852       2856       2860       2864       2868       2872       2876       2880       2884       2888       2892       2896       2900       2904       2908       2912       2916       2920       2924       2928       2932       2936       2940       2944       2948       2952       2956       2960       2964       2968       2972       2976       2980       2984       2988       2992       2996       3000       3004       3008       3012       3016       3020       3024       3028       3032       3036       3040       3044       3048       3052       3056       3060       3064       3068       3072       3076       3080       3084       3088       3092       3096       3100       3104       3108       3112       3116       3120       3124       3128       3132       3136       3140       3144       3148       3152       3156       3160       3164       3168       3172       3176       3180       3184       3188       3192       3196       3200       3204       3208       3212       3216       3220       3224       3228       3232       3236       3240       3244       3248       3252       3256       3260       3264       3268       3272       3276       3280       3284       3288       3292       3296       3300       3304       3308       3312       3316       3320       3324       3328       3332       3336       3340       3344       3348       3352       3356       3360       3364       3368       3372       3376       3380       3384       3388       3392       3396       3400       3404       3408       3412       3416       3420       3424       3428       3432       3436       3440       3444       3448       3452       3456       3460       3464       3468       3472       3476       3480       3484       3488       3492       3496       3500       3504       3508       3512       3516       3520       3524       3528       3532       3536       3540       3544       3548       3552       3556       3560       3564       3568       3572       3576       3580       3584       3588       3592       3596       3600       3604       3608       3612       3616       3620       3624       3628       3632       3636       3640       3644       3648       3652       3656       3660       3664       3668       3672       3676       3680       3684       3688       3692       3696       3700       3704       3708       3712       3716       3720       3724       3728       3732       3736       3740       3744       3748       3752       3756       3760       3764       3768       3772       3776       3780       3784       3788       3792       3796       3800       3804       3808       3812       3816       3820       3824       3828       3832       3836       3840       3844       3848       3852       3856       3860       3864       3868       3872       3876       3880       3884       3888       3892       3896       3900       3904       3908       3912       3916       3920       3924       3928       3932       3936       3940       3944       3948       3952       3956       3960       3964       3968       3972       3976       3980       3984       3988       3992       3996       4000       4004       4008       4012       4016       4020       4024       4028       4032       4036       4040       4044       4048       4052       4056       4060       4064       4068       4072       4076       4080       4084       4088       4092       4096 </DataArray>
<DataArray type="UInt8"                                    Name="types"                                                      NumberOfComponents=" 1" format="ascii">
         9          9          9          9          9          9          9          9          9          9          9          9          9          9          9          9          9          9          9          9          9          9          9          9          9          9          9          9          9          9          9          9          9          9          9          9          9          9          9          9          9          9          9          9          9          9          9          9          9          9          9          9          9          9          9          9          9          9          9          9          9          9          9          9          9          9          9          9          9          9          9          9          9          9          9          9          9          9          9          9          9          9          9          9          9          9          9          9          9          9          9          9          9          9          9          9          9          9          9          9          9          9          9          9          9          9          9          9          9          9          9          9          9          9          9          9          9          9          9          9          9          9          9          9          9          9          9          9          9          9          9          9          9          9          9          9          9          9          9          9          9          9          9          9          9          9          9          9          9          9          9          9          9          9          9          9          9          9          9          9          9          9          9          9          9          9          9          9          9          9          9          9          9          9          9          9          9          9          9          9          9          9          9          9          9          9          9          9          9          9          9          9          9          9          9          9          9          9          9          9          9          9          9          9          9          9          9          9          9          9          9          9          9          9          9          9          9          9          9          9          9          9          9          9          9          9          9          9          9          9          9          9          9          9          9          9          9          9          9          9          9          9          9          9          9          9          9          9          9          9          9          9          9          9          9          9          9          9          9          9          9          9          9          9          9          9          9          9          9          9          9          9          9          9          9          9          9          9          9          9          9          9          9          9          9          9          9          9          9          9          9          9          9          9          9          9          9          9          9          9          9          9          9          9          9          9          9          9          9          9          9          9          9          9          9          9          9          9          9          9          9          9          9          9          9          9          9          9          9          9          9          9          9          9          9          9          9          9          9          9          9          9          9          9          9          9          9          9          9          9          9          9          9          9          9          9          9          9          9          9          9          9          9          9          9          9          9          9          9          9          9          9          9          9          9          9          9          9          9          9          9          9          9          9          9          9          9          9          9          9          9          9          9          9          9          9          9          9          9          9          9          9          9          9          9          9          9          9          9          9          9          9          9          9          9          9          9          9          9          9          9          9          9          9          9          9          9          9          9          9          9          9          9          9          9          9          9          9          9          9          9          9          9          9          9          9          9          9          9          9          9          9          9          9          9          9          9          9          9          9          9          9          9          9          9          9          9          9          9          9          9          9          9          9          9          9          9          9          9          9          9          9          9          9          9          9          9          9          9          9          9          9          9          9          9          9          9          9          9          9          9          9          9          9          9          9          9          9          9          9          9          9          9          9          9          9          9          9          9          9          9          9          9          9          9          9          9          9          9          9          9          9          9          9          9          9          9          9          9          9          9          9          9          9          9          9          9          9          9          9          9          9          9          9          9          9          9          9          9          9          9          9          9          9          9          9          9          9          9          9          9          9          9          9          9          9          9          9          9          9          9          9          9          9          9          9          9          9          9          9          9          9          9          9          9          9          9          9          9          9          9          9          9          9          9          9          9          9          9          9          9          9          9          9          9          9          9          9          9          9          9          9          9          9          9          9          9          9          9          9          9          9          9          9          9          9          9          9          9          9          9          9          9          9          9          9          9          9          9          9          9          9          9          9          9          9          9          9          9          9          9          9          9          9          9          9          9          9          9          9          9          9          9          9          9          9          9          9          9          9          9          9          9          9          9          9          9          9          9          9          9          9          9          9          9          9          9          9          9          9          9          9          9          9          9          9          9          9          9          9          9          9          9          9          9          9          9          9          9          9          9          9          9          9          9          9          9          9          9          9          9          9          9          9          9          9          9          9          9          9          9          9          9          9          9          9          9          9          9          9          9          9          9          9          9          9          9          9          9          9          9          9          9          9          9          9          9          9          9          9          9          9          9          9          9          9          9          9          9          9          9          9          9          9          9          9          9          9          9          9          9          9          9          9          9          9          9          9          9          9          9          9          9          9          9          9          9          9          9          9          9          9          9          9          9          9          9          9          9          9          9          9          9          9          9          9          9          9          9          9          9          9          9          9          9          9          9          9          9          9          9          9          9          9          9          9          9          9          9          9          9          9          9          9          9          9          9          9          9          9          9          9          9          9          9          9          9          9          9          9          9          9          9          9          9          9          9          9          9          9          9          9          9          9          9          9          9          9          9          9          9          9          9          9          9          9          9          9          9          9          9          9          9          9          9          9          9          9          9          9          9          9          9          9          9          9          9          9          9          9          9          9          9          9          9          9          9          9          9          9          9          9          9          9          9          9          9          9          9          9          9          9          9          9          9          9          9          9          9          9          9          9          9          9          9          9          9          9          9          9          9          9          9          9          9          9          9          9          9          9          9          9          9          9          9          9          9          9          9          9          9          9          9          9          9          9          9          9          9          9          9          9          9          9          9          9          9          9          9          9          9          9          9          9          9          9          9          9          9          9          9          9          9          9          9          9          9          9          9          9          9          9          9          9 </DataArray>
</Cells>
<CellData>
<DataArray type="Int32"                                    Name="material"                                                      NumberOfComponents=" 1" format="ascii">
         1          1          1          1          1          1          1          1          1          1          1          1          1          1          1          1          1          1          1          1          1          1          1          1          1          1          1          1          1          1          1          1          1          1          1          1          1          1          1          1          1          1          1          1          1          1          1          1          1          1          1          1          1          1          1          1          1          1          1          1          1          1          1          1          1          1          1          1          1          1          1          1          1          1          1          1          1          1          1          1          1          1          1          1          1          1          1          1          1          1          1          1          1          1          1          1          1          1          1          1          1          1          1          1          1          1          1          1          1          1          1          1          1          1          1          1          1          1          1          1          1          1          1          1          1          1          1          1          1          1          1          1          1          1          1          1          1          1          1          1          1          1          1          1          1          1          1          1          1          1          1          1          1          1          1          1          1          1          1          1          1          1          1          1          1          1          1          1          1          1          1          1          1          1          1          1          1          1          1          1          1          1          1          1          1          1          1          1          1          1          1          1          1          1          1          1          1          1          1          1          1          1          1          1          1          1          1          1          1          1          1          1          1          1          1          1          1          1          1          1          1          1          1          1          1          1          1          1          1          1          1          1          1          1          1          1          1          1          1          1          1          1          1          1          1          1          1          1          1          1          1          1          1          1          1          1          1          1          1          1          1          1          1          1          1          1          1          1          1          1          1          1          1          1          1          1          1          1          1          1          1          1          1          1          1          1          1          1          1          1          1          1          1          1          1          1          1          1          1          1          1          1          1          1          1          1          1          1          1          1          1          1          1          1          1          1          1          1          1          1          1          1          1          1          1          1          1          1          1          1          1          1          1          1          1          1          1          1          1          1          1          1          1          1          1          1          1          1          1          1          1          1          1          1          1          1          1          1          1          1          1          1          1          1          1          1          1          1          1          1          1          1          1          1          1          1          1          1          1          1          1          1          1          1          1          1          1          1          1          1          1          1          1          1          1          1          1          1          1          1          1          1          1          1          1          1          1          1          1          1          1          1          1          1          1          1          1          1          1          1          1          1          1          1          1          1          1          1          1          1          1          1          1          1          1          1          1          1          1          1          1          1          1          1          1          1          1          1          1          1          1          1          1          1          1          1          1          1          1          1          1          1          1          1          1          1          1          1          1          1          1          1          1          1          1          1          1          1          1          1          1          1          1          1          1          1          1          1          1          1          1          1          1          1          1          1          1          1          1          1          1          1          1          1          1          1          1          1          1          1          1          1          1          1          1          1          1          1          1          1          1          1          1          1          1          1          1          1          1          1          1          1          1          1          1          1          1          1          1          1          1          1          1          1          1          1          1          1          1          1          1          1          1          1          1          1          1          1          1          1          1          1          1          1          1          1          1          1          1          1          1          1          1          1          1          1          1          1          1          1          1          1          1          1          1          1          1          1          1          1          1          1          1          1          1          1          1          1          1          1          1          1          1          1          1          1          1          1          1          1          1          1          1          1          1          1          1          1          1          1          1          1          1          1          1          1          1          1          1          1          1          1          1          1          1          1          1          1          1          1          1          1          1          1          1          1          1          1          1          1          1          1          1          1          1          1          1          1          1          1          1          1          1          1          1          1          1          1          1          1          1          1          1          1          1          1          1          1          1          1          1          1          1          1          1          1          1          1          1          1          1          1          1          1          1          1          1          1          1          1          1          1          1          1          1          1          1          1          1          1          1          1          1          1          1          1          1          1          1          1          1          1          1          1          1          1          1          1          1          1          1          1          1          1          1          1          1          1          1          1          1          1          1          1          1          1          1          1          1          1          1          1          1          1          1          1          1          1          1          1          1          1          1          1          1          1          1          1          1          1          1          1          1          1          1          1          1          1          1          1          1          1          1          1          1          1          1          1          1          1          1          1          1          1          1          1          1          1          1          1          1          1          1          1          1          1          1          1          1          1          1          1          1          1          1          1          1          1          1          1          1          1          1          1          1          1          1          1          1          1          1          1          1          1          1          1          1          1          1          1          1          1          1          1          1          1          1          1          1          1          1          1          1          1          1          1          1          1          1          1          1          1          1          1          1          1          1          1          1          1          1          1          1          1          1          1          1          1          1          1          1          1          1          1          1          1          1          1          1          1          1          1          1          1          1          1          1          1          1          1          1          1          1          1          1          1          1          1          1          1          1          1          1          1          1          1          1          1          1          1          1          1          1          1          1          1          1          1          1          1          1          1          1          1          1          1          1          1          1          1          1          1          1          1          1          1          1          1          1          1          1          1          1          1          1          1          1          1          1          1          1          1          1          1          1          1          1          1          1          1          1          1          1          1          1          1          1          1          1          1          1          1          1          1          1          1          1          1          1          1          1          1          1          1          1          1          1          1          1          1          1          1          1          1          1          1          1          1          1          1          1          1          1          1          1          1          1          1          1          1          1          1          1          1 </DataArray>
</CellData>
<PointData>
<DataArray type="Float64"                                    Name="u"                                                      NumberOfComponents=" 3" format="ascii">
              0.000003635              -0.000000000               1.000000000               0.000001392               0.000000000               1.000000000               0.000000410               0.000000000               1.000000000               0.000000032               0.000000000               1.000000000              -0.000000113               0.000000000               1.000000000              -0.000000159               0.000000000               1.000000000              -0.000000193               0.000000000               1.000000000              -0.000000175               0.000000000               1.000000000              -0.000000056               0.000000000               1.000000000               0.000000091               0.000000000               1.000000000               0.000000215               0.000000000               1.000000000               0.000000277               0.000000000               1.000000000               0.000000134               0.000000000               1.000000000              -0.000000317               0.000000000               1.000000000              -0.000001133               0.000000000               1.000000000              -0.000002417               0.000000000               1.000000000              -0.000004231               0.000000000               1.000000000               0.000003526               0.000005555               1.000000000               0.000001388               0.000005179               1.000000000               0.000000469               0.000005154               1.000000000               0.000000067               0.000005434               1.000000000              -0.000000066               0.000005873               1.000000000              -0.000000109               0.000006496               1.000000000              -0.000000184               0.000007113               1.000000000              -0.000000273               0.000007668               1.000000000              -0.000000258               0.000008016               1.000000000              -0.000000174               0.000008468               1.000000000              -0.000000201               0.000009055               1.000000000              -0.000000401               0.000009775               1.000000000              -0.000000821               0.000010753               1.000000000              -0.000001567               0.000011967               1.000000000              -0.000002691               0.000013421               1.000000000              -0.000004227               0.000015132               1.000000000              -0.000006228               0.000017112               1.000000000               0.000003367               0.000011108               1.000000000               0.000001398               0.000010242               1.000000000               0.000000556               0.000010288               1.000000000               0.000000197               0.000010836               1.000000000               0.000000057               0.000011751               1.000000000              -0.000000080               0.000012963               1.000000000              -0.000000231               0.000014293               1.000000000              -0.000000410               0.000015449               1.000000000              -0.000000627               0.000016269               1.000000000              -0.000000962               0.000017314               1.000000000              -0.000001474               0.000018598               1.000000000              -0.000002179               0.000020159               1.000000000              -0.000003166               0.000022149               1.000000000              -0.000004506               0.000024559               1.000000000              -0.000006210               0.000027411               1.000000000              -0.000008301               0.000030706               1.000000000              -0.000010827               0.000034416               1.000000000               0.000003123               0.000016573               1.000000000               0.000001413               0.000015190               1.000000000               0.000000710               0.000015297               1.000000000               0.000000406               0.000016155               1.000000000               0.000000191               0.000017608               1.000000000              -0.000000058               0.000019491               1.000000000              -0.000000404               0.000021532               1.000000000              -0.000000822               0.000023332               1.000000000              -0.000001361               0.000024899               1.000000000              -0.000002092               0.000026843               1.000000000              -0.000003104               0.000029077               1.000000000              -0.000004527               0.000031700               1.000000000              -0.000006355               0.000034861               1.000000000              -0.000008595               0.000038560               1.000000000              -0.000011252               0.000042849               1.000000000              -0.000014275               0.000047745               1.000000000              -0.000017704               0.000053283               1.000000000               0.000002734               0.000021841               1.000000000               0.000001517               0.000019997               1.000000000               0.000000982               0.000020214               1.000000000               0.000000648               0.000021427               1.000000000               0.000000335               0.000023482               1.000000000              -0.000000162               0.000026069               1.000000000              -0.000000822               0.000028872               1.000000000              -0.000001511               0.000031493               1.000000000              -0.000002425               0.000034067               1.000000000              -0.000003686               0.000037167               1.000000000              -0.000005414               0.000040755               1.000000000              -0.000007634               0.000044854               1.000000000              -0.000010337               0.000049587               1.000000000              -0.000013567               0.000054963               1.000000000              -0.000017242               0.000061036               1.000000000              -0.000021329               0.000067852               1.000000000              -0.000025839               0.000075419               1.000000000               0.000002354               0.000026935               1.000000000               0.000001676               0.000024601               1.000000000               0.000001304               0.000025006               1.000000000               0.000000977               0.000026692               1.000000000               0.000000389               0.000029427               1.000000000              -0.000000455               0.000032775               1.000000000              -0.000001440               0.000036505               1.000000000              -0.000002635               0.000040072               1.000000000              -0.000004093               0.000044009               1.000000000              -0.000005926               0.000048671               1.000000000              -0.000008299               0.000054048               1.000000000              -0.000011255               0.000060103               1.000000000              -0.000014816               0.000066932               1.000000000              -0.000018928               0.000074542               1.000000000              -0.000023526               0.000082921               1.000000000              -0.000028594               0.000092090               1.000000000              -0.000034109               0.000102020               1.000000000               0.000001990               0.000031817               1.000000000               0.000001926               0.000029014               1.000000000               0.000001748               0.000029681               1.000000000               0.000001270               0.000031971               1.000000000               0.000000359               0.000035522               1.000000000              -0.000000879               0.000039831               1.000000000              -0.000002359               0.000044584               1.000000000              -0.000003908               0.000049668               1.000000000              -0.000005784               0.000055322               1.000000000              -0.000008223               0.000062031               1.000000000              -0.000011329               0.000069556               1.000000000              -0.000015063               0.000077955               1.000000000              -0.000019442               0.000087257               1.000000000              -0.000024383               0.000097431               1.000000000              -0.000029807               0.000108478               1.000000000              -0.000035771               0.000120289               1.000000000              -0.000042220               0.000132858               1.000000000               0.000001628               0.000036372               1.000000000               0.000002332               0.000033293               1.000000000               0.000002213               0.000034289               1.000000000               0.000001474               0.000037320               1.000000000               0.000000184               0.000041805               1.000000000              -0.000001436               0.000047359               1.000000000              -0.000003150               0.000053712               1.000000000              -0.000005075               0.000060597               1.000000000              -0.000007494               0.000068348               1.000000000              -0.000010594               0.000077405               1.000000000              -0.000014421               0.000087400               1.000000000              -0.000018926               0.000098355               1.000000000              -0.000024035               0.000110400               1.000000000              -0.000029693               0.000123378               1.000000000              -0.000035897               0.000137258               1.000000000              -0.000042686               0.000152016               1.000000000              -0.000049914               0.000167439               1.000000000               0.000001335               0.000040565               1.000000000               0.000002788               0.000037418               1.000000000               0.000002604               0.000038845               1.000000000               0.000001581               0.000042736               1.000000000              -0.000000083               0.000048462               1.000000000              -0.000002014               0.000055558               1.000000000              -0.000004101               0.000063707               1.000000000              -0.000006433               0.000072689               1.000000000              -0.000009295               0.000082949               1.000000000              -0.000013016               0.000094532               1.000000000              -0.000017444               0.000107187               1.000000000              -0.000022551               0.000120978               1.000000000              -0.000028239               0.000136001               1.000000000              -0.000034494               0.000152176               1.000000000              -0.000041375               0.000169364               1.000000000              -0.000048701               0.000187483               1.000000000              -0.000056321               0.000206339               1.000000000               0.000001077               0.000044627               1.000000000               0.000003066               0.000041620               1.000000000               0.000003129               0.000042633               1.000000000               0.000002217               0.000046083               1.000000000               0.000000715               0.000051430               1.000000000              -0.000001147               0.000058230               1.000000000              -0.000003185               0.000066227               1.000000000              -0.000005103               0.000075089               1.000000000              -0.000007238               0.000084850               1.000000000              -0.000009993               0.000095718               1.000000000              -0.000013384               0.000107640               1.000000000              -0.000017187               0.000120502               1.000000000              -0.000021527               0.000134430               1.000000000              -0.000026344               0.000149432               1.000000000              -0.000031619               0.000165591               1.000000000              -0.000037404               0.000182652               1.000000000              -0.000043621               0.000200750               1.000000000               0.000000844               0.000048378               1.000000000               0.000003213               0.000045726               1.000000000               0.000003488               0.000046499               1.000000000               0.000002735               0.000049639               1.000000000               0.000001402               0.000054566               1.000000000              -0.000000311               0.000061064               1.000000000              -0.000002128               0.000068828               1.000000000              -0.000003860               0.000077464               1.000000000              -0.000005463               0.000086900               1.000000000              -0.000007385               0.000097271               1.000000000              -0.000009799               0.000108596               1.000000000              -0.000012549               0.000120781               1.000000000              -0.000015742               0.000133827               1.000000000              -0.000019326               0.000147819               1.000000000              -0.000023191               0.000162792               1.000000000              -0.000027500               0.000178768               1.000000000              -0.000032236               0.000195700               1.000000000               0.000000659               0.000051747               1.000000000               0.000003205               0.000049657               1.000000000               0.000003617               0.000050383               1.000000000               0.000003010               0.000053250               1.000000000               0.000001917               0.000057847               1.000000000               0.000000520               0.000064061               1.000000000              -0.000001079               0.000071483               1.000000000              -0.000002578               0.000079848               1.000000000              -0.000003898               0.000088965               1.000000000              -0.000005257               0.000098969               1.000000000              -0.000006891               0.000109851               1.000000000              -0.000008813               0.000121610               1.000000000              -0.000010987               0.000134099               1.000000000              -0.000013441               0.000147322               1.000000000              -0.000016130               0.000161390               1.000000000              -0.000019028               0.000176392               1.000000000              -0.000022164               0.000192236               1.000000000               0.000000557               0.000054703               1.000000000               0.000002951               0.000053246               1.000000000               0.000003430               0.000054054               1.000000000               0.000003033               0.000056776               1.000000000               0.000002230               0.000061165               1.000000000               0.000001093               0.000066992               1.000000000              -0.000000218               0.000073981               1.000000000              -0.000001478               0.000081987               1.000000000              -0.000002587               0.000090929               1.000000000              -0.000003569               0.000100717               1.000000000              -0.000004624               0.000111377               1.000000000              -0.000005884               0.000122815               1.000000000              -0.000007243               0.000134950               1.000000000              -0.000008757               0.000147730               1.000000000              -0.000010447               0.000161176               1.000000000              -0.000012164               0.000175327               1.000000000              -0.000013978               0.000190260               1.000000000               0.000000441               0.000057094               1.000000000               0.000002442               0.000056302               1.000000000               0.000002942               0.000057282               1.000000000               0.000002743               0.000059962               1.000000000               0.000002131               0.000064133               1.000000000               0.000001304               0.000069611               1.000000000               0.000000371               0.000076302               1.000000000              -0.000000610               0.000084047               1.000000000              -0.000001521               0.000092792               1.000000000              -0.000002274               0.000102405               1.000000000              -0.000002919               0.000112846               1.000000000              -0.000003643               0.000124023               1.000000000              -0.000004427               0.000135925               1.000000000              -0.000005276               0.000148492               1.000000000              -0.000006191               0.000161607               1.000000000              -0.000007115               0.000175254               1.000000000              -0.000008015               0.000189611               1.000000000               0.000000303               0.000058876               1.000000000               0.000001758               0.000058679               1.000000000               0.000002165               0.000059827               1.000000000               0.000002057               0.000062470               1.000000000               0.000001667               0.000066499               1.000000000               0.000001195               0.000071782               1.000000000               0.000000561               0.000078224               1.000000000              -0.000000137               0.000085787               1.000000000              -0.000000766               0.000094349               1.000000000              -0.000001248               0.000103776               1.000000000              -0.000001623               0.000114002               1.000000000              -0.000002010               0.000124989               1.000000000              -0.000002434               0.000136767               1.000000000              -0.000002870               0.000149165               1.000000000              -0.000003297               0.000162079               1.000000000              -0.000003748               0.000175493               1.000000000              -0.000004142               0.000189510               1.000000000               0.000000160               0.000059974               1.000000000               0.000000926               0.000060169               1.000000000               0.000001136               0.000061446               1.000000000               0.000001096               0.000064093               1.000000000               0.000000958               0.000068036               1.000000000               0.000000684               0.000073211               1.000000000               0.000000369               0.000079530               1.000000000               0.000000033               0.000086937               1.000000000              -0.000000282               0.000095303               1.000000000              -0.000000523               0.000104595               1.000000000              -0.000000704               0.000114725               1.000000000              -0.000000877               0.000125583               1.000000000              -0.000001059               0.000137213               1.000000000              -0.000001233               0.000149444               1.000000000              -0.000001407               0.000162217               1.000000000              -0.000001603               0.000175525               1.000000000              -0.000001773               0.000189358               1.000000000               0.000000000               0.000060317               1.000000000               0.000000000               0.000060644               1.000000000               0.000000000               0.000062010               1.000000000               0.000000000               0.000064684               1.000000000              -0.000000000               0.000068555               1.000000000              -0.000000000               0.000073707               1.000000000               0.000000000               0.000080001               1.000000000               0.000000000               0.000087330               1.000000000              -0.000000000               0.000095659               1.000000000              -0.000000000               0.000104911               1.000000000              -0.000000000               0.000114948               1.000000000              -0.000000000               0.000125730               1.000000000              -0.000000000               0.000137315               1.000000000               0.000000000               0.000149486               1.000000000               0.000000000               0.000162201               1.000000000              -0.000000000               0.000175472               1.000000000              -0.000000000               0.000189244               1.000000000               0.000003635              -0.000000000               1.000000000               0.000001392               0.000000000               1.000000000               0.000000410               0.000000000               1.000000000               0.000000032               0.000000000               1.000000000              -0.000000113               0.000000000               1.000000000              -0.000000159               0.000000000               1.000000000              -0.000000193               0.000000000               1.000000000              -0.000000175               0.000000000               1.000000000              -0.000000056               0.000000000               1.000000000               0.000000091               0.000000000               1.000000000               0.000000215               0.000000000               1.000000000               0.000000277               0.000000000               1.000000000               0.000000134               0.000000000               1.000000000              -0.000000317               0.000000000               1.000000000              -0.000001133               0.000000000               1.000000000              -0.000002417               0.000000000               1.000000000              -0.000004231               0.000000000               1.000000000               0.000003526              -0.000005555               1.000000000               0.000001388              -0.000005179               1.000000000               0.000000469              -0.000005154               1.000000000               0.000000067              -0.000005434               1.000000000              -0.000000066              -0.000005873               1.000000000              -0.000000109              -0.000006496               1.000000000              -0.000000184              -0.000007113               1.000000000              -0.000000273              -0.000007668               1.000000000              -0.000000258              -0.000008016               1.000000000              -0.000000174              -0.000008468               1.000000000              -0.000000201              -0.000009055               1.000000000              -0.000000401              -0.000009775               1.000000000              -0.000000821              -0.000010753               1.000000000              -0.000001567              -0.000011967               1.000000000              -0.000002691              -0.000013421               1.000000000              -0.000004227              -0.000015132               1.000000000              -0.000006228              -0.000017112               1.000000000               0.000003367              -0.000011108               1.000000000               0.000001398              -0.000010242               1.000000000               0.000000556              -0.000010288               1.000000000               0.000000197              -0.000010836               1.000000000               0.000000057              -0.000011751               1.000000000              -0.000000080              -0.000012963               1.000000000              -0.000000231              -0.000014293               1.000000000              -0.000000410              -0.000015449               1.000000000              -0.000000627              -0.000016269               1.000000000              -0.000000962              -0.000017314               1.000000000              -0.000001474              -0.000018598               1.000000000              -0.000002179              -0.000020159               1.000000000              -0.000003166              -0.000022149               1.000000000              -0.000004506              -0.000024559               1.000000000              -0.000006210              -0.000027411               1.000000000              -0.000008301              -0.000030706               1.000000000              -0.000010827              -0.000034416               1.000000000               0.000003123              -0.000016573               1.000000000               0.000001413              -0.000015190               1.000000000               0.000000710              -0.000015297               1.000000000               0.000000406              -0.000016155               1.000000000               0.000000191              -0.000017608               1.000000000              -0.000000058              -0.000019491               1.000000000              -0.000000404              -0.000021532               1.000000000              -0.000000822              -0.000023332               1.000000000              -0.000001361              -0.000024899               1.000000000              -0.000002092              -0.000026843               1.000000000              -0.000003104              -0.000029077               1.000000000              -0.000004527              -0.000031700               1.000000000              -0.000006355              -0.000034861               1.000000000              -0.000008595              -0.000038560               1.000000000              -0.000011252              -0.000042849               1.000000000              -0.000014275              -0.000047745               1.000000000              -0.000017704              -0.000053283               1.000000000               0.000002734              -0.000021841               1.000000000               0.000001517              -0.000019997               1.000000000               0.000000982              -0.000020214               1.000000000               0.000000648              -0.000021427               1.000000000               0.000000335              -0.000023482               1.000000000              -0.000000162              -0.000026069               1.000000000              -0.000000822              -0.000028872               1.000000000              -0.000001511              -0.000031493               1.000000000              -0.000002425              -0.000034067               1.000000000              -0.000003686              -0.000037167               1.000000000              -0.000005414              -0.000040755               1.000000000              -0.000007634              -0.000044854               1.000000000              -0.000010337              -0.000049587               1.000000000              -0.000013567              -0.000054963               1.000000000              -0.000017242              -0.000061036               1.000000000              -0.000021329              -0.000067852               1.000000000              -0.000025839              -0.000075419               1.000000000               0.000002354              -0.000026935               1.000000000               0.000001676              -0.000024601               1.000000000               0.000001304              -0.000025006               1.000000000               0.000000977              -0.000026692               1.000000000               0.000000389              -0.000029427               1.000000000              -0.000000455              -0.000032775               1.000000000              -0.000001440              -0.000036505               1.000000000              -0.000002635              -0.000040072               1.000000000              -0.000004093              -0.000044009               1.000000000              -0.000005926              -0.000048671               1.000000000              -0.000008299              -0.000054048               1.000000000              -0.000011255              -0.000060103               1.000000000              -0.000014816              -0.000066932               1.000000000              -0.000018928              -0.000074542               1.000000000              -0.000023526              -0.000082921               1.000000000              -0.000028594              -0.000092090               1.000000000              -0.000034109              -0.000102020               1.000000000               0.000001990              -0.000031817               1.000000000               0.000001926              -0.000029014               1.000000000               0.000001748              -0.000029681               1.000000000               0.000001270              -0.000031971               1.000000000               0.000000359              -0.000035522               1.000000000              -0.000000879              -0.000039831               1.000000000              -0.000002359              -0.000044584               1.000000000              -0.000003908              -0.000049668               1.000000000              -0.000005784              -0.000055322               1.000000000              -0.000008223              -0.000062031               1.000000000              -0.000011329              -0.000069556               1.000000000              -0.000015063              -0.000077955               1.000000000              -0.000019442              -0.000087257               1.000000000              -0.000024383              -0.000097431               1.000000000              -0.000029807              -0.000108478               1.000000000              -0.000035771              -0.000120289               1.000000000              -0.000042220              -0.000132858               1.000000000               0.000001628              -0.000036372               1.000000000               0.000002332              -0.000033293               1.000000000               0.000002213              -0.000034289               1.000000000               0.000001474              -0.000037320               1.000000000               0.000000184              -0.000041805               1.000000000              -0.000001436              -0.000047359               1.000000000              -0.000003150              -0.000053712               1.000000000              -0.000005075              -0.000060597               1.000000000              -0.000007494              -0.000068348               1.000000000              -0.000010594              -0.000077405               1.000000000              -0.000014421              -0.000087400               1.000000000              -0.000018926              -0.000098355               1.000000000              -0.000024035              -0.000110400               1.000000000              -0.000029693              -0.000123378               1.000000000              -0.000035897              -0.000137258               1.000000000              -0.000042686              -0.000152016               1.000000000              -0.000049914              -0.000167439               1.000000000               0.000001335              -0.000040565               1.000000000               0.000002788              -0.000037418               1.000000000               0.000002604              -0.000038845               1.000000000               0.000001581              -0.000042736               1.000000000              -0.000000083              -0.000048462               1.000000000              -0.000002014              -0.000055558               1.000000000              -0.000004101              -0.000063707               1.000000000              -0.000006433              -0.000072689               1.000000000              -0.000009295              -0.000082949               1.000000000              -0.000013016              -0.000094532               1.000000000              -0.000017444              -0.000107187               1.000000000              -0.000022551              -0.000120978               1.000000000              -0.000028239              -0.000136001               1.000000000              -0.000034494              -0.000152176               1.000000000              -0.000041375              -0.000169364               1.000000000              -0.000048701              -0.000187483               1.000000000              -0.000056321              -0.000206339               1.000000000               0.000001077              -0.000044627               1.000000000               0.000003066              -0.000041620               1.000000000               0.000003129              -0.000042633               1.000000000               0.000002217              -0.000046083               1.000000000               0.000000715              -0.000051430               1.000000000              -0.000001147              -0.000058230               1.000000000              -0.000003185              -0.000066227               1.000000000              -0.000005103              -0.000075089               1.000000000              -0.000007238              -0.000084850               1.000000000              -0.000009993              -0.000095718               1.000000000              -0.000013384              -0.000107640               1.000000000              -0.000017187              -0.000120502               1.000000000              -0.000021527              -0.000134430               1.000000000              -0.000026344              -0.000149432               1.000000000              -0.000031619              -0.000165591               1.000000000              -0.000037404              -0.000182652               1.000000000              -0.000043621              -0.000200750               1.000000000               0.000000844              -0.000048378               1.000000000               0.000003213              -0.000045726               1.000000000               0.000003488              -0.000046499               1.000000000               0.000002735              -0.000049639               1.000000000               0.000001402              -0.000054566               1.000000000              -0.000000311              -0.000061064               1.000000000              -0.000002128              -0.000068828               1.000000000              -0.000003860              -0.000077464               1.000000000              -0.000005463              -0.000086900               1.000000000              -0.000007385              -0.000097271               1.000000000              -0.000009799              -0.000108596               1.000000000              -0.000012549              -0.000120781               1.000000000              -0.000015742              -0.000133827               1.000000000              -0.000019326              -0.000147819               1.000000000              -0.000023191              -0.000162792               1.000000000              -0.000027500              -0.000178768               1.000000000              -0.000032236              -0.000195700               1.000000000               0.000000659              -0.000051747               1.000000000               0.000003205              -0.000049657               1.000000000               0.000003617              -0.000050383               1.000000000               0.000003010              -0.000053250               1.000000000               0.000001917              -0.000057847               1.000000000               0.000000520              -0.000064061               1.000000000              -0.000001079              -0.000071483               1.000000000              -0.000002578              -0.000079848               1.000000000              -0.000003898              -0.000088965               1.000000000              -0.000005257              -0.000098969               1.000000000              -0.000006891              -0.000109851               1.000000000              -0.000008813              -0.000121610               1.000000000              -0.000010987              -0.000134099               1.000000000              -0.000013441              -0.000147322               1.000000000              -0.000016130              -0.000161390               1.000000000              -0.000019028              -0.000176392               1.000000000              -0.000022164              -0.000192236               1.000000000               0.000000557              -0.000054703               1.000000000               0.000002951              -0.000053246               1.000000000               0.000003430              -0.000054054               1.000000000               0.000003033              -0.000056776               1.000000000               0.000002230              -0.000061165               1.000000000               0.000001093              -0.000066992               1.000000000              -0.000000218              -0.000073981               1.000000000              -0.000001478              -0.000081987               1.000000000              -0.000002587              -0.000090929               1.000000000              -0.000003569              -0.000100717               1.000000000              -0.000004624              -0.000111377               1.000000000              -0.000005884              -0.000122815               1.000000000              -0.000007243              -0.000134950               1.000000000              -0.000008757              -0.000147730               1.000000000              -0.000010447              -0.000161176               1.000000000              -0.000012164              -0.000175327               1.000000000              -0.000013978              -0.000190260               1.000000000               0.000000441              -0.000057094               1.000000000               0.000002442              -0.000056302               1.000000000               0.000002942              -0.000057282               1.000000000               0.000002743              -0.000059962               1.000000000               0.000002131              -0.000064133               1.000000000               0.000001304              -0.000069611               1.000000000               0.000000371              -0.000076302               1.000000000              -0.000000610              -0.000084047               1.000000000              -0.000001521              -0.000092792               1.000000000              -0.000002274              -0.000102405               1.000000000              -0.000002919              -0.000112846               1.000000000              -0.000003643              -0.000124023               1.000000000              -0.000004427              -0.000135925               1.000000000              -0.000005276              -0.000148492               1.000000000              -0.000006191              -0.000161607               1.000000000              -0.000007115              -0.000175254               1.000000000              -0.000008015              -0.000189611               1.000000000               0.000000303              -0.000058876               1.000000000               0.000001758              -0.000058679               1.000000000               0.000002165              -0.000059827               1.000000000               0.000002057              -0.000062470               1.000000000               0.000001667              -0.000066499               1.000000000               0.000001195              -0.000071782               1.000000000               0.000000561              -0.000078224               1.000000000              -0.000000137              -0.000085787               1.000000000              -0.000000766              -0.000094349               1.000000000              -0.000001248              -0.000103776               1.000000000              -0.000001623              -0.000114002               1.000000000              -0.000002010              -0.000124989               1.000000000              -0.000002434              -0.000136767               1.000000000              -0.000002870              -0.000149165               1.000000000              -0.000003297              -0.000162079               1.000000000              -0.000003748              -0.000175493               1.000000000              -0.000004142              -0.000189510               1.000000000               0.000000160              -0.000059974               1.000000000               0.000000926              -0.000060169               1.000000000               0.000001136              -0.000061446               1.000000000               0.000001096              -0.000064093               1.000000000               0.000000958              -0.000068036               1.000000000               0.000000684              -0.000073211               1.000000000               0.000000369              -0.000079530               1.000000000               0.000000033              -0.000086937               1.000000000              -0.000000282              -0.000095303               1.000000000              -0.000000523              -0.000104595               1.000000000              -0.000000704              -0.000114725               1.000000000              -0.000000877              -0.000125583               1.000000000              -0.000001059              -0.000137213               1.000000000              -0.000001233              -0.000149444               1.000000000              -0.000001407              -0.000162217               1.000000000              -0.000001603              -0.000175525               1.000000000              -0.000001773              -0.000189358               1.000000000              -0.000000000              -0.000060317               1.000000000               0.000000000              -0.000060644               1.000000000               0.000000000              -0.000062010               1.000000000              -0.000000000              -0.000064684               1.000000000               0.000000000              -0.000068555               1.000000000               0.000000000              -0.000073707               1.000000000               0.000000000              -0.000080001               1.000000000              -0.000000000              -0.000087330               1.000000000              -0.000000000              -0.000095659               1.000000000              -0.000000000              -0.000104911               1.000000000              -0.000000000              -0.000114948               1.000000000              -0.000000000              -0.000125730               1.000000000              -0.000000000              -0.000137315               1.000000000               0.000000000              -0.000149486               1.000000000               0.000000000              -0.000162201               1.000000000               0.000000000              -0.000175472               1.000000000               0.000000000              -0.000189244               1.000000000              -0.000003635               0.000000000               1.000000000              -0.000001392              -0.000000000               1.000000000              -0.000000410               0.000000000               1.000000000              -0.000000032              -0.000000000               1.000000000               0.000000113              -0.000000000               1.000000000               0.000000159              -0.000000000               1.000000000               0.000000193               0.000000000               1.000000000               0.000000175               0.000000000               1.000000000               0.000000056               0.000000000               1.000000000              -0.000000091               0.000000000               1.000000000              -0.000000215              -0.000000000               1.000000000              -0.000000277              -0.000000000               1.000000000              -0.000000134              -0.000000000               1.000000000               0.000000317              -0.000000000               1.000000000               0.000001133              -0.000000000               1.000000000               0.000002417              -0.000000000               1.000000000               0.000004231              -0.000000000               1.000000000              -0.000003526              -0.000005555               1.000000000              -0.000001388              -0.000005179               1.000000000              -0.000000469              -0.000005154               1.000000000              -0.000000067              -0.000005434               1.000000000               0.000000066              -0.000005873               1.000000000               0.000000109              -0.000006496               1.000000000               0.000000184              -0.000007113               1.000000000               0.000000273              -0.000007668               1.000000000               0.000000258              -0.000008016               1.000000000               0.000000174              -0.000008468               1.000000000               0.000000201              -0.000009055               1.000000000               0.000000401              -0.000009775               1.000000000               0.000000821              -0.000010753               1.000000000               0.000001567              -0.000011967               1.000000000               0.000002691              -0.000013421               1.000000000               0.000004227              -0.000015132               1.000000000               0.000006228              -0.000017112               1.000000000              -0.000003367              -0.000011108               1.000000000              -0.000001398              -0.000010242               1.000000000              -0.000000556              -0.000010288               1.000000000              -0.000000197              -0.000010836               1.000000000              -0.000000057              -0.000011751               1.000000000               0.000000080              -0.000012963               1.000000000               0.000000231              -0.000014293               1.000000000               0.000000410              -0.000015449               1.000000000               0.000000627              -0.000016269               1.000000000               0.000000962              -0.000017314               1.000000000               0.000001474              -0.000018598               1.000000000               0.000002179              -0.000020159               1.000000000               0.000003166              -0.000022149               1.000000000               0.000004506              -0.000024559               1.000000000               0.000006210              -0.000027411               1.000000000               0.000008301              -0.000030706               1.000000000               0.000010827              -0.000034416               1.000000000              -0.000003123              -0.000016573               1.000000000              -0.000001413              -0.000015190               1.000000000              -0.000000710              -0.000015297               1.000000000              -0.000000406              -0.000016155               1.000000000              -0.000000191              -0.000017608               1.000000000               0.000000058              -0.000019491               1.000000000               0.000000404              -0.000021532               1.000000000               0.000000822              -0.000023332               1.000000000               0.000001361              -0.000024899               1.000000000               0.000002092              -0.000026843               1.000000000               0.000003104              -0.000029077               1.000000000               0.000004527              -0.000031700               1.000000000               0.000006355              -0.000034861               1.000000000               0.000008595              -0.000038560               1.000000000               0.000011252              -0.000042849               1.000000000               0.000014275              -0.000047745               1.000000000               0.000017704              -0.000053283               1.000000000              -0.000002734              -0.000021841               1.000000000              -0.000001517              -0.000019997               1.000000000              -0.000000982              -0.000020214               1.000000000              -0.000000648              -0.000021427               1.000000000              -0.000000335              -0.000023482               1.000000000               0.000000162              -0.000026069               1.000000000               0.000000822              -0.000028872               1.000000000               0.000001511              -0.000031493               1.000000000               0.000002425              -0.000034067               1.000000000               0.000003686              -0.000037167               1.000000000               0.000005414              -0.000040755               1.000000000               0.000007634              -0.000044854               1.000000000               0.000010337              -0.000049587               1.000000000               0.000013567              -0.000054963               1.000000000               0.000017242              -0.000061036               1.000000000               0.000021329              -0.000067852               1.000000000               0.000025839              -0.000075419               1.000000000              -0.000002354              -0.000026935               1.000000000              -0.000001676              -0.000024601               1.000000000              -0.000001304              -0.000025006               1.000000000              -0.000000977              -0.000026692               1.000000000              -0.000000389              -0.000029427               1.000000000               0.000000455              -0.000032775               1.000000000               0.000001440              -0.000036505               1.000000000               0.000002635              -0.000040072               1.000000000               0.000004093              -0.000044009               1.000000000               0.000005926              -0.000048671               1.000000000               0.000008299              -0.000054048               1.000000000               0.000011255              -0.000060103               1.000000000               0.000014816              -0.000066932               1.000000000               0.000018928              -0.000074542               1.000000000               0.000023526              -0.000082921               1.000000000               0.000028594              -0.000092090               1.000000000               0.000034109              -0.000102020               1.000000000              -0.000001990              -0.000031817               1.000000000              -0.000001926              -0.000029014               1.000000000              -0.000001748              -0.000029681               1.000000000              -0.000001270              -0.000031971               1.000000000              -0.000000359              -0.000035522               1.000000000               0.000000879              -0.000039831               1.000000000               0.000002359              -0.000044584               1.000000000               0.000003908              -0.000049668               1.000000000               0.000005784              -0.000055322               1.000000000               0.000008223              -0.000062031               1.000000000               0.000011329              -0.000069556               1.000000000               0.000015063              -0.000077955               1.000000000               0.000019442              -0.000087257               1.000000000               0.000024383              -0.000097431               1.000000000               0.000029807              -0.000108478               1.000000000               0.000035771              -0.000120289               1.000000000               0.000042220              -0.000132858               1.000000000              -0.000001628              -0.000036372               1.000000000              -0.000002332              -0.000033293               1.000000000              -0.000002213              -0.000034289               1.000000000              -0.000001474              -0.000037320               1.000000000              -0.000000184              -0.000041805               1.000000000               0.000001436              -0.000047359               1.000000000               0.000003150              -0.000053712               1.000000000               0.000005075              -0.000060597               1.000000000               0.000007494              -0.000068348               1.000000000               0.000010594              -0.000077405               1.000000000               0.000014421              -0.000087400               1.000000000               0.000018926              -0.000098355               1.000000000               0.000024035              -0.000110400               1.000000000               0.000029693              -0.000123378               1.000000000               0.000035897              -0.000137258               1.000000000               0.000042686              -0.000152016               1.000000000               0.000049914              -0.000167439               1.000000000              -0.000001335              -0.000040565               1.000000000              -0.000002788              -0.000037418               1.000000000              -0.000002604              -0.000038845               1.000000000              -0.000001581              -0.000042736               1.000000000               0.000000083              -0.000048462               1.000000000               0.000002014              -0.000055558               1.000000000               0.000004101              -0.000063707               1.000000000               0.000006433              -0.000072689               1.000000000               0.000009295              -0.000082949               1.000000000               0.000013016              -0.000094532               1.000000000               0.000017444              -0.000107187               1.000000000               0.000022551              -0.000120978               1.000000000               0.000028239              -0.000136001               1.000000000               0.000034494              -0.000152176               1.000000000               0.000041375              -0.000169364               1.000000000               0.000048701              -0.000187483               1.000000000               0.000056321              -0.000206339               1.000000000              -0.000001077              -0.000044627               1.000000000              -0.000003066              -0.000041620               1.000000000              -0.000003129              -0.000042633               1.000000000              -0.000002217              -0.000046083               1.000000000              -0.000000715              -0.000051430               1.000000000               0.000001147              -0.000058230               1.000000000               0.000003185              -0.000066227               1.000000000               0.000005103              -0.000075089               1.000000000               0.000007238              -0.000084850               1.000000000               0.000009993              -0.000095718               1.000000000               0.000013384              -0.000107640               1.000000000               0.000017187              -0.000120502               1.000000000               0.000021527              -0.000134430               1.000000000               0.000026344              -0.000149432               1.000000000               0.000031619              -0.000165591               1.000000000               0.000037404              -0.000182652               1.000000000               0.000043621              -0.000200750               1.000000000              -0.000000844              -0.000048378               1.000000000              -0.000003213              -0.000045726               1.000000000              -0.000003488              -0.000046499               1.000000000              -0.000002735              -0.000049639               1.000000000              -0.000001402              -0.000054566               1.000000000               0.000000311              -0.000061064               1.000000000               0.000002128              -0.000068828               1.000000000               0.000003860              -0.000077464               1.000000000               0.000005463              -0.000086900               1.000000000               0.000007385              -0.000097271               1.000000000               0.000009799              -0.000108596               1.000000000               0.000012549              -0.000120781               1.000000000               0.000015742              -0.000133827               1.000000000               0.000019326              -0.000147819               1.000000000               0.000023191              -0.000162792               1.000000000               0.000027500              -0.000178768               1.000000000               0.000032236              -0.000195700               1.000000000              -0.000000659              -0.000051747               1.000000000              -0.000003205              -0.000049657               1.000000000              -0.000003617              -0.000050383               1.000000000              -0.000003010              -0.000053250               1.000000000              -0.000001917              -0.000057847               1.000000000              -0.000000520              -0.000064061               1.000000000               0.000001079              -0.000071483               1.000000000               0.000002578              -0.000079848               1.000000000               0.000003898              -0.000088965               1.000000000               0.000005257              -0.000098969               1.000000000               0.000006891              -0.000109851               1.000000000               0.000008813              -0.000121610               1.000000000               0.000010987              -0.000134099               1.000000000               0.000013441              -0.000147322               1.000000000               0.000016130              -0.000161390               1.000000000               0.000019028              -0.000176392               1.000000000               0.000022164              -0.000192236               1.000000000              -0.000000557              -0.000054703               1.000000000              -0.000002951              -0.000053246               1.000000000              -0.000003430              -0.000054054               1.000000000              -0.000003033              -0.000056776               1.000000000              -0.000002230              -0.000061165               1.000000000              -0.000001093              -0.000066992               1.000000000               0.000000218              -0.000073981               1.000000000               0.000001478              -0.000081987               1.000000000               0.000002587              -0.000090929               1.000000000               0.000003569              -0.000100717               1.000000000               0.000004624              -0.000111377               1.000000000               0.000005884              -0.000122815               1.000000000               0.000007243              -0.000134950               1.000000000               0.000008757              -0.000147730               1.000000000               0.000010447              -0.000161176               1.000000000               0.000012164              -0.000175327               1.000000000               0.000013978              -0.000190260               1.000000000              -0.000000441              -0.000057094               1.000000000              -0.000002442              -0.000056302               1.000000000              -0.000002942              -0.000057282               1.000000000              -0.000002743              -0.000059962               1.000000000              -0.000002131              -0.000064133               1.000000000              -0.000001304              -0.000069611               1.000000000              -0.000000371              -0.000076302               1.000000000               0.000000610              -0.000084047               1.000000000               0.000001521              -0.000092792               1.000000000               0.000002274              -0.000102405               1.000000000               0.000002919              -0.000112846               1.000000000               0.000003643              -0.000124023               1.000000000               0.000004427              -0.000135925               1.000000000               0.000005276              -0.000148492               1.000000000               0.000006191              -0.000161607               1.000000000               0.000007115              -0.000175254               1.000000000               0.000008015              -0.000189611               1.000000000              -0.000000303              -0.000058876               1.000000000              -0.000001758              -0.000058679               1.000000000              -0.000002165              -0.000059827               1.000000000              -0.000002057              -0.000062470               1.000000000              -0.000001667              -0.000066499               1.000000000              -0.000001195              -0.000071782               1.000000000              -0.000000561              -0.000078224               1.000000000               0.000000137              -0.000085787               1.000000000               0.000000766              -0.000094349               1.000000000               0.000001248              -0.000103776               1.000000000               0.000001623              -0.000114002               1.000000000               0.000002010              -0.000124989               1.000000000               0.000002434              -0.000136767               1.000000000               0.000002870              -0.000149165               1.000000000               0.000003297              -0.000162079               1.000000000               0.000003748              -0.000175493               1.000000000               0.000004142              -0.000189510               1.000000000              -0.000000160              -0.000059974               1.000000000              -0.000000926              -0.000060169               1.000000000              -0.000001136              -0.000061446               1.000000000              -0.000001096              -0.000064093               1.000000000              -0.000000958              -0.000068036               1.000000000              -0.000000684              -0.000073211               1.000000000              -0.000000369              -0.000079530               1.000000000              -0.000000033              -0.000086937               1.000000000               0.000000282              -0.000095303               1.000000000               0.000000523              -0.000104595               1.000000000               0.000000704              -0.000114725               1.000000000               0.000000877              -0.000125583               1.000000000               0.000001059              -0.000137213               1.000000000               0.000001233              -0.000149444               1.000000000               0.000001407              -0.000162217               1.000000000               0.000001603              -0.000175525               1.000000000               0.000001773              -0.000189358               1.000000000              -0.000000000              -0.000060317               1.000000000               0.000000000              -0.000060644               1.000000000               0.000000000              -0.000062010               1.000000000              -0.000000000              -0.000064684               1.000000000               0.000000000              -0.000068555               1.000000000               0.000000000              -0.000073707               1.000000000               0.000000000              -0.000080001               1.000000000              -0.000000000              -0.000087330               1.000000000              -0.000000000              -0.000095659               1.000000000              -0.000000000              -0.000104911               1.000000000              -0.000000000              -0.000114948               1.000000000              -0.000000000              -0.000125730               1.000000000              -0.000000000              -0.000137315               1.000000000               0.000000000              -0.000149486               1.000000000               0.000000000              -0.000162201               1.000000000               0.000000000              -0.000175472               1.000000000               0.000000000              -0.000189244               1.000000000              -0.000003635               0.000000000               1.000000000              -0.000001392              -0.000000000               1.000000000              -0.000000410               0.000000000               1.000000000              -0.000000032              -0.000000000               1.000000000               0.000000113              -0.000000000               1.000000000               0.000000159              -0.000000000               1.000000000               0.000000193               0.000000000               1.000000000               0.000000175               0.000000000               1.000000000               0.000000056               0.000000000               1.000000000              -0.000000091               0.000000000               1.000000000              -0.000000215              -0.000000000               1.000000000              -0.000000277              -0.000000000               1.000000000              -0.000000134              -0.000000000               1.000000000               0.000000317              -0.000000000               1.000000000               0.000001133              -0.000000000               1.000000000               0.000002417              -0.000000000               1.000000000               0.000004231              -0.000000000               1.000000000              -0.000003526               0.000005555               1.000000000              -0.000001388               0.000005179               1.000000000              -0.000000469               0.000005154               1.000000000              -0.000000067               0.000005434               1.000000000               0.000000066               0.000005873               1.000000000               0.000000109               0.000006496               1.000000000               0.000000184               0.000007113               1.000000000               0.000000273               0.000007668               1.000000000               0.000000258               0.000008016               1.000000000               0.000000174               0.000008468               1.000000000               0.000000201               0.000009055               1.000000000               0.000000401               0.000009775               1.000000000               0.000000821               0.000010753               1.000000000               0.000001567               0.000011967               1.000000000               0.000002691               0.000013421               1.000000000               0.000004227               0.000015132               1.000000000               0.000006228               0.000017112               1.000000000              -0.000003367               0.000011108               1.000000000              -0.000001398               0.000010242               1.000000000              -0.000000556               0.000010288               1.000000000              -0.000000197               0.000010836               1.000000000              -0.000000057               0.000011751               1.000000000               0.000000080               0.000012963               1.000000000               0.000000231               0.000014293               1.000000000               0.000000410               0.000015449               1.000000000               0.000000627               0.000016269               1.000000000               0.000000962               0.000017314               1.000000000               0.000001474               0.000018598               1.000000000               0.000002179               0.000020159               1.000000000               0.000003166               0.000022149               1.000000000               0.000004506               0.000024559               1.000000000               0.000006210               0.000027411               1.000000000               0.000008301               0.000030706               1.000000000               0.000010827               0.000034416               1.000000000              -0.000003123               0.000016573               1.000000000              -0.000001413               0.000015190               1.000000000              -0.000000710               0.000015297               1.000000000              -0.000000406               0.000016155               1.000000000              -0.000000191               0.000017608               1.000000000               0.000000058               0.000019491               1.000000000               0.000000404               0.000021532               1.000000000               0.000000822               0.000023332               1.000000000               0.000001361               0.000024899               1.000000000               0.000002092               0.000026843               1.000000000               0.000003104               0.000029077               1.000000000               0.000004527               0.000031700               1.000000000               0.000006355               0.000034861               1.000000000               0.000008595               0.000038560               1.000000000               0.000011252               0.000042849               1.000000000               0.000014275               0.000047745               1.000000000               0.000017704               0.000053283               1.000000000              -0.000002734               0.000021841               1.000000000              -0.000001517               0.000019997               1.000000000              -0.000000982               0.000020214               1.000000000              -0.000000648               0.000021427               1.000000000              -0.000000335               0.000023482               1.000000000               0.000000162               0.000026069               1.000000000               0.000000822               0.000028872               1.000000000               0.000001511               0.000031493               1.000000000               0.000002425               0.000034067               1.000000000               0.000003686               0.000037167               1.000000000               0.000005414               0.000040755               1.000000000               0.000007634               0.000044854               1.000000000               0.000010337               0.000049587               1.000000000               0.000013567               0.000054963               1.000000000               0.000017242               0.000061036               1.000000000               0.000021329               0.000067852               1.000000000               0.000025839               0.000075419               1.000000000              -0.000002354               0.000026935               1.000000000              -0.000001676               0.000024601               1.000000000              -0.000001304               0.000025006               1.000000000              -0.000000977               0.000026692               1.000000000              -0.000000389               0.000029427               1.000000000               0.000000455               0.000032775               1.000000000               0.000001440               0.000036505               1.000000000               0.000002635               0.000040072               1.000000000               0.000004093               0.000044009               1.000000000               0.000005926               0.000048671               1.000000000               0.000008299               0.000054048               1.000000000               0.000011255               0.000060103               1.000000000               0.000014816               0.000066932               1.000000000               0.000018928               0.000074542               1.000000000               0.000023526               0.000082921               1.000000000               0.000028594               0.000092090               1.000000000               0.000034109               0.000102020               1.000000000              -0.000001990               0.000031817               1.000000000              -0.000001926               0.000029014               1.000000000              -0.000001748               0.000029681               1.000000000              -0.000001270               0.000031971               1.000000000              -0.000000359               0.000035522               1.000000000               0.000000879               0.000039831               1.000000000               0.000002359               0.000044584               1.000000000               0.000003908               0.000049668               1.000000000               0.000005784               0.000055322               1.000000000               0.000008223               0.000062031               1.000000000               0.000011329               0.000069556               1.000000000               0.000015063               0.000077955               1.000000000               0.000019442               0.000087257               1.000000000               0.000024383               0.000097431               1.000000000               0.000029807               0.000108478               1.000000000               0.000035771               0.000120289               1.000000000               0.000042220               0.000132858               1.000000000              -0.000001628               0.000036372               1.000000000              -0.000002332               0.000033293               1.000000000              -0.000002213               0.000034289               1.000000000              -0.000001474               0.000037320               1.000000000              -0.000000184               0.000041805               1.000000000               0.000001436               0.000047359               1.000000000               0.000003150               0.000053712               1.000000000               0.000005075               0.000060597               1.000000000               0.000007494               0.000068348               1.000000000               0.000010594               0.000077405               1.000000000               0.000014421               0.000087400               1.000000000               0.000018926               0.000098355               1.000000000               0.000024035               0.000110400               1.000000000               0.000029693               0.000123378               1.000000000               0.000035897               0.000137258               1.000000000               0.000042686               0.000152016               1.000000000               0.000049914               0.000167439               1.000000000              -0.000001335               0.000040565               1.000000000              -0.000002788               0.000037418               1.000000000              -0.000002604               0.000038845               1.000000000              -0.000001581               0.000042736               1.000000000               0.000000083               0.000048462               1.000000000               0.000002014               0.000055558               1.000000000               0.000004101               0.000063707               1.000000000               0.000006433               0.000072689               1.000000000               0.000009295               0.000082949               1.000000000               0.000013016               0.000094532               1.000000000               0.000017444               0.000107187               1.000000000               0.000022551               0.000120978               1.000000000               0.000028239               0.000136001               1.000000000               0.000034494               0.000152176               1.000000000               0.000041375               0.000169364               1.000000000               0.000048701               0.000187483               1.000000000               0.000056321               0.000206339               1.000000000              -0.000001077               0.000044627               1.000000000              -0.000003066               0.000041620               1.000000000              -0.000003129               0.000042633               1.000000000              -0.000002217               0.000046083               1.000000000              -0.000000715               0.000051430               1.000000000               0.000001147               0.000058230               1.000000000               0.000003185               0.000066227               1.000000000               0.000005103               0.000075089               1.000000000               0.000007238               0.000084850               1.000000000               0.000009993               0.000095718               1.000000000               0.000013384               0.000107640               1.000000000               0.000017187               0.000120502               1.000000000               0.000021527               0.000134430               1.000000000               0.000026344               0.000149432               1.000000000               0.000031619               0.000165591               1.000000000               0.000037404               0.000182652               1.000000000               0.000043621               0.000200750               1.000000000              -0.000000844               0.000048378               1.000000000              -0.000003213               0.000045726               1.000000000              -0.000003488               0.000046499               1.000000000              -0.000002735               0.000049639               1.000000000              -0.000001402               0.000054566               1.000000000               0.000000311               0.000061064               1.000000000               0.000002128               0.000068828               1.000000000               0.000003860               0.000077464               1.000000000               0.000005463               0.000086900               1.000000000               0.000007385               0.000097271               1.000000000               0.000009799               0.000108596               1.000000000               0.000012549               0.000120781               1.000000000               0.000015742               0.000133827               1.000000000               0.000019326               0.000147819               1.000000000               0.000023191               0.000162792               1.000000000               0.000027500               0.000178768               1.000000000               0.000032236               0.000195700               1.000000000              -0.000000659               0.000051747               1.000000000              -0.000003205               0.000049657               1.000000000              -0.000003617               0.000050383               1.000000000              -0.000003010               0.000053250               1.000000000              -0.000001917               0.000057847               1.000000000              -0.000000520               0.000064061               1.000000000               0.000001079               0.000071483               1.000000000               0.000002578               0.000079848               1.000000000               0.000003898               0.000088965               1.000000000               0.000005257               0.000098969               1.000000000               0.000006891               0.000109851               1.000000000               0.000008813               0.000121610               1.000000000               0.000010987               0.000134099               1.000000000               0.000013441               0.000147322               1.000000000               0.000016130               0.000161390               1.000000000               0.000019028               0.000176392               1.000000000               0.000022164               0.000192236               1.000000000              -0.000000557               0.000054703               1.000000000              -0.000002951               0.000053246               1.000000000              -0.000003430               0.000054054               1.000000000              -0.000003033               0.000056776               1.000000000              -0.000002230               0.000061165               1.000000000              -0.000001093               0.000066992               1.000000000               0.000000218               0.000073981               1.000000000               0.000001478               0.000081987               1.000000000               0.000002587               0.000090929               1.000000000               0.000003569               0.000100717               1.000000000               0.000004624               0.000111377               1.000000000               0.000005884               0.000122815               1.000000000               0.000007243               0.000134950               1.000000000               0.000008757               0.000147730               1.000000000               0.000010447               0.000161176               1.000000000               0.000012164               0.000175327               1.000000000               0.000013978               0.000190260               1.000000000              -0.000000441               0.000057094               1.000000000              -0.000002442               0.000056302               1.000000000              -0.000002942               0.000057282               1.000000000              -0.000002743               0.000059962               1.000000000              -0.000002131               0.000064133               1.000000000              -0.000001304               0.000069611               1.000000000              -0.000000371               0.000076302               1.000000000               0.000000610               0.000084047               1.000000000               0.000001521               0.000092792               1.000000000               0.000002274               0.000102405               1.000000000               0.000002919               0.000112846               1.000000000               0.000003643               0.000124023               1.000000000               0.000004427               0.000135925               1.000000000               0.000005276               0.000148492               1.000000000               0.000006191               0.000161607               1.000000000               0.000007115               0.000175254               1.000000000               0.000008015               0.000189611               1.000000000              -0.000000303               0.000058876               1.000000000              -0.000001758               0.000058679               1.000000000              -0.000002165               0.000059827               1.000000000              -0.000002057               0.000062470               1.000000000              -0.000001667               0.000066499               1.000000000              -0.000001195               0.000071782               1.000000000              -0.000000561               0.000078224               1.000000000               0.000000137               0.000085787               1.000000000               0.000000766               0.000094349               1.000000000               0.000001248               0.000103776               1.000000000               0.000001623               0.000114002               1.000000000               0.000002010               0.000124989               1.000000000               0.000002434               0.000136767               1.000000000               0.000002870               0.000149165               1.000000000               0.000003297               0.000162079               1.000000000               0.000003748               0.000175493               1.000000000               0.000004142               0.000189510               1.000000000              -0.000000160               0.000059974               1.000000000              -0.000000926               0.000060169               1.000000000              -0.000001136               0.000061446               1.000000000              -0.000001096               0.000064093               1.000000000              -0.000000958               0.000068036               1.000000000              -0.000000684               0.000073211               1.000000000              -0.000000369               0.000079530               1.000000000              -0.000000033               0.000086937               1.000000000               0.000000282               0.000095303               1.000000000               0.000000523               0.000104595               1.000000000               0.000000704               0.000114725               1.000000000               0.000000877               0.000125583               1.000000000               0.000001059               0.000137213               1.000000000               0.000001233               0.000149444               1.000000000               0.000001407               0.000162217               1.000000000               0.000001603               0.000175525               1.000000000               0.000001773               0.000189358               1.000000000               0.000000000               0.000060317               1.000000000               0.000000000               0.000060644               1.000000000               0.000000000               0.000062010               1.000000000               0.000000000               0.000064684               1.000000000              -0.000000000               0.000068555               1.000000000              -0.000000000               0.000073707               1.000000000               0.000000000               0.000080001               1.000000000               0.000000000               0.000087330               1.000000000              -0.000000000               0.000095659               1.000000000              -0.000000000               0.000104911               1.000000000              -0.000000000               0.000114948               1.000000000              -0.000000000               0.000125730               1.000000000              -0.000000000               0.000137315               1.000000000               0.000000000               0.000149486               1.000000000               0.000000000               0.000162201               1.000000000              -0.000000000               0.000175472               1.000000000              -0.000000000               0.000189244               1.000000000 </DataArray>
<DataArray type="Float64"                                    Name="defo"                                                      NumberOfComponents=" 3" format="ascii">
              0.000003635              -0.000000000               1.000000000               0.000001392               0.000000000               1.000000000               0.000000410               0.000000000               1.000000000               0.000000032               0.000000000               1.000000000              -0.000000113               0.000000000               1.000000000              -0.000000159               0.000000000               1.000000000              -0.000000193               0.000000000               1.000000000              -0.000000175               0.000000000               1.000000000              -0.000000056               0.000000000               1.000000000               0.000000091               0.000000000               1.000000000               0.000000215               0.000000000               1.000000000               0.000000277               0.000000000               1.000000000               0.000000134               0.000000000               1.000000000              -0.000000317               0.000000000               1.000000000              -0.000001133               0.000000000               1.000000000              -0.000002417               0.000000000               1.000000000              -0.000004231               0.000000000               1.000000000               0.000003526               0.000005555               1.000000000               0.000001388               0.000005179               1.000000000               0.000000469               0.000005154               1.000000000               0.000000067               0.000005434               1.000000000              -0.000000066               0.000005873               1.000000000              -0.000000109               0.000006496               1.000000000              -0.000000184               0.000007113               1.000000000              -0.000000273               0.000007668               1.000000000              -0.000000258               0.000008016               1.000000000              -0.000000174               0.000008468               1.000000000              -0.000000201               0.000009055               1.000000000              -0.000000401               0.000009775               1.000000000              -0.000000821               0.000010753               1.000000000              -0.000001567               0.000011967               1.000000000              -0.000002691               0.000013421               1.000000000              -0.000004227               0.000015132               1.000000000              -0.000006228               0.000017112               1.000000000               0.000003367               0.000011108               1.000000000               0.000001398               0.000010242               1.000000000               0.000000556               0.000010288               1.000000000               0.000000197               0.000010836               1.000000000               0.000000057               0.000011751               1.000000000              -0.000000080               0.000012963               1.000000000              -0.000000231               0.000014293               1.000000000              -0.000000410               0.000015449               1.000000000              -0.000000627               0.000016269               1.000000000              -0.000000962               0.000017314               1.000000000              -0.000001474               0.000018598               1.000000000              -0.000002179               0.000020159               1.000000000              -0.000003166               0.000022149               1.000000000              -0.000004506               0.000024559               1.000000000              -0.000006210               0.000027411               1.000000000              -0.000008301               0.000030706               1.000000000              -0.000010827               0.000034416               1.000000000               0.000003123               0.000016573               1.000000000               0.000001413               0.000015190               1.000000000               0.000000710               0.000015297               1.000000000               0.000000406               0.000016155               1.000000000               0.000000191               0.000017608               1.000000000              -0.000000058               0.000019491               1.000000000              -0.000000404               0.000021532               1.000000000              -0.000000822               0.000023332               1.000000000              -0.000001361               0.000024899               1.000000000              -0.000002092               0.000026843               1.000000000              -0.000003104               0.000029077               1.000000000              -0.000004527               0.000031700               1.000000000              -0.000006355               0.000034861               1.000000000              -0.000008595               0.000038560               1.000000000              -0.000011252               0.000042849               1.000000000              -0.000014275               0.000047745               1.000000000              -0.000017704               0.000053283               1.000000000               0.000002734               0.000021841               1.000000000               0.000001517               0.000019997               1.000000000               0.000000982               0.000020214               1.000000000               0.000000648               0.000021427               1.000000000               0.000000335               0.000023482               1.000000000              -0.000000162               0.000026069               1.000000000              -0.000000822               0.000028872               1.000000000              -0.000001511               0.000031493               1.000000000              -0.000002425               0.000034067               1.000000000              -0.000003686               0.000037167               1.000000000              -0.000005414               0.000040755               1.000000000              -0.000007634               0.000044854               1.000000000              -0.000010337               0.000049587               1.000000000              -0.000013567               0.000054963               1.000000000              -0.000017242               0.000061036               1.000000000              -0.000021329               0.000067852               1.000000000              -0.000025839               0.000075419               1.000000000               0.000002354               0.000026935               1.000000000               0.000001676               0.000024601               1.000000000               0.000001304               0.000025006               1.000000000               0.000000977               0.000026692               1.000000000               0.000000389               0.000029427               1.000000000              -0.000000455               0.000032775               1.000000000              -0.000001440               0.000036505               1.000000000              -0.000002635               0.000040072               1.000000000              -0.000004093               0.000044009               1.000000000              -0.000005926               0.000048671               1.000000000              -0.000008299               0.000054048               1.000000000              -0.000011255               0.000060103               1.000000000              -0.000014816               0.000066932               1.000000000              -0.000018928               0.000074542               1.000000000              -0.000023526               0.000082921               1.000000000              -0.000028594               0.000092090               1.000000000              -0.000034109               0.000102020               1.000000000               0.000001990               0.000031817               1.000000000               0.000001926               0.000029014               1.000000000               0.000001748               0.000029681               1.000000000               0.000001270               0.000031971               1.000000000               0.000000359               0.000035522               1.000000000              -0.000000879               0.000039831               1.000000000              -0.000002359               0.000044584               1.000000000              -0.000003908               0.000049668               1.000000000              -0.000005784               0.000055322               1.000000000              -0.000008223               0.000062031               1.000000000              -0.000011329               0.000069556               1.000000000              -0.000015063               0.000077955               1.000000000              -0.000019442               0.000087257               1.000000000              -0.000024383               0.000097431               1.000000000              -0.000029807               0.000108478               1.000000000              -0.000035771               0.000120289               1.000000000              -0.000042220               0.000132858               1.000000000               0.000001628               0.000036372               1.000000000               0.000002332               0.000033293               1.000000000               0.000002213               0.000034289               1.000000000               0.000001474               0.000037320               1.000000000               0.000000184               0.000041805               1.000000000              -0.000001436               0.000047359               1.000000000              -0.000003150               0.000053712               1.000000000              -0.000005075               0.000060597               1.000000000              -0.000007494               0.000068348               1.000000000              -0.000010594               0.000077405               1.000000000              -0.000014421               0.000087400               1.000000000              -0.000018926               0.000098355               1.000000000              -0.000024035               0.000110400               1.000000000              -0.000029693               0.000123378               1.000000000              -0.000035897               0.000137258               1.000000000              -0.000042686               0.000152016               1.000000000              -0.000049914               0.000167439               1.000000000               0.000001335               0.000040565               1.000000000               0.000002788               0.000037418               1.000000000               0.000002604               0.000038845               1.000000000               0.000001581               0.000042736               1.000000000              -0.000000083               0.000048462               1.000000000              -0.000002014               0.000055558               1.000000000              -0.000004101               0.000063707               1.000000000              -0.000006433               0.000072689               1.000000000              -0.000009295               0.000082949               1.000000000              -0.000013016               0.000094532               1.000000000              -0.000017444               0.000107187               1.000000000              -0.000022551               0.000120978               1.000000000              -0.000028239               0.000136001               1.000000000              -0.000034494               0.000152176               1.000000000              -0.000041375               0.000169364               1.000000000              -0.000048701               0.000187483               1.000000000              -0.000056321               0.000206339               1.000000000               0.000001077               0.000044627               1.000000000               0.000003066               0.000041620               1.000000000               0.000003129               0.000042633               1.000000000               0.000002217               0.000046083               1.000000000               0.000000715               0.000051430               1.000000000              -0.000001147               0.000058230               1.000000000              -0.000003185               0.000066227               1.000000000              -0.000005103               0.000075089               1.000000000              -0.000007238               0.000084850               1.000000000              -0.000009993               0.000095718               1.000000000              -0.000013384               0.000107640               1.000000000              -0.000017187               0.000120502               1.000000000              -0.000021527               0.000134430               1.000000000              -0.000026344               0.000149432               1.000000000              -0.000031619               0.000165591               1.000000000              -0.000037404               0.000182652               1.000000000              -0.000043621               0.000200750               1.000000000               0.000000844               0.000048378               1.000000000               0.000003213               0.000045726               1.000000000               0.000003488               0.000046499               1.000000000               0.000002735               0.000049639               1.000000000               0.000001402               0.000054566               1.000000000              -0.000000311               0.000061064               1.000000000              -0.000002128               0.000068828               1.000000000              -0.000003860               0.000077464               1.000000000              -0.000005463               0.000086900               1.000000000              -0.000007385               0.000097271               1.000000000              -0.000009799               0.000108596               1.000000000              -0.000012549               0.000120781               1.000000000              -0.000015742               0.000133827               1.000000000              -0.000019326               0.000147819               1.000000000              -0.000023191               0.000162792               1.000000000              -0.000027500               0.000178768               1.000000000              -0.000032236               0.000195700               1.000000000               0.000000659               0.000051747               1.000000000               0.000003205               0.000049657               1.000000000               0.000003617               0.000050383               1.000000000               0.000003010               0.000053250               1.000000000               0.000001917               0.000057847               1.000000000               0.000000520               0.000064061               1.000000000              -0.000001079               0.000071483               1.000000000              -0.000002578               0.000079848               1.000000000              -0.000003898               0.000088965               1.000000000              -0.000005257               0.000098969               1.000000000              -0.000006891               0.000109851               1.000000000              -0.000008813               0.000121610               1.000000000              -0.000010987               0.000134099               1.000000000              -0.000013441               0.000147322               1.000000000              -0.000016130               0.000161390               1.000000000              -0.000019028               0.000176392               1.000000000              -0.000022164               0.000192236               1.000000000               0.000000557               0.000054703               1.000000000               0.000002951               0.000053246               1.000000000               0.000003430               0.000054054               1.000000000               0.000003033               0.000056776               1.000000000               0.000002230               0.000061165               1.000000000               0.000001093               0.000066992               1.000000000              -0.000000218               0.000073981               1.000000000              -0.000001478               0.000081987               1.000000000              -0.000002587               0.000090929               1.000000000              -0.000003569               0.000100717               1.000000000              -0.000004624               0.000111377               1.000000000              -0.000005884               0.000122815               1.000000000              -0.000007243               0.000134950               1.000000000              -0.000008757               0.000147730               1.000000000              -0.000010447               0.000161176               1.000000000              -0.000012164               0.000175327               1.000000000              -0.000013978               0.000190260               1.000000000               0.000000441               0.000057094               1.000000000               0.000002442               0.000056302               1.000000000               0.000002942               0.000057282               1.000000000               0.000002743               0.000059962               1.000000000               0.000002131               0.000064133               1.000000000               0.000001304               0.000069611               1.000000000               0.000000371               0.000076302               1.000000000              -0.000000610               0.000084047               1.000000000              -0.000001521               0.000092792               1.000000000              -0.000002274               0.000102405               1.000000000              -0.000002919               0.000112846               1.000000000              -0.000003643               0.000124023               1.000000000              -0.000004427               0.000135925               1.000000000              -0.000005276               0.000148492               1.000000000              -0.000006191               0.000161607               1.000000000              -0.000007115               0.000175254               1.000000000              -0.000008015               0.000189611               1.000000000               0.000000303               0.000058876               1.000000000               0.000001758               0.000058679               1.000000000               0.000002165               0.000059827               1.000000000               0.000002057               0.000062470               1.000000000               0.000001667               0.000066499               1.000000000               0.000001195               0.000071782               1.000000000               0.000000561               0.000078224               1.000000000              -0.000000137               0.000085787               1.000000000              -0.000000766               0.000094349               1.000000000              -0.000001248               0.000103776               1.000000000              -0.000001623               0.000114002               1.000000000              -0.000002010               0.000124989               1.000000000              -0.000002434               0.000136767               1.000000000              -0.000002870               0.000149165               1.000000000              -0.000003297               0.000162079               1.000000000              -0.000003748               0.000175493               1.000000000              -0.000004142               0.000189510               1.000000000               0.000000160               0.000059974               1.000000000               0.000000926               0.000060169               1.000000000               0.000001136               0.000061446               1.000000000               0.000001096               0.000064093               1.000000000               0.000000958               0.000068036               1.000000000               0.000000684               0.000073211               1.000000000               0.000000369               0.000079530               1.000000000               0.000000033               0.000086937               1.000000000              -0.000000282               0.000095303               1.000000000              -0.000000523               0.000104595               1.000000000              -0.000000704               0.000114725               1.000000000              -0.000000877               0.000125583               1.000000000              -0.000001059               0.000137213               1.000000000              -0.000001233               0.000149444               1.000000000              -0.000001407               0.000162217               1.000000000              -0.000001603               0.000175525               1.000000000              -0.000001773               0.000189358               1.000000000               0.000000000               0.000060317               1.000000000               0.000000000               0.000060644               1.000000000               0.000000000               0.000062010               1.000000000               0.000000000               0.000064684               1.000000000              -0.000000000               0.000068555               1.000000000              -0.000000000               0.000073707               1.000000000               0.000000000               0.000080001               1.000000000               0.000000000               0.000087330               1.000000000              -0.000000000               0.000095659               1.000000000              -0.000000000               0.000104911               1.000000000              -0.000000000               0.000114948               1.000000000              -0.000000000               0.000125730               1.000000000              -0.000000000               0.000137315               1.000000000               0.000000000               0.000149486               1.000000000               0.000000000               0.000162201               1.000000000              -0.000000000               0.000175472               1.000000000              -0.000000000               0.000189244               1.000000000               0.000003635              -0.000000000               1.000000000               0.000001392               0.000000000               1.000000000               0.000000410               0.000000000               1.000000000               0.000000032               0.000000000               1.000000000              -0.000000113               0.000000000               1.000000000              -0.000000159               0.000000000               1.000000000              -0.000000193               0.000000000               1.000000000              -0.000000175               0.000000000               1.000000000              -0.000000056               0.000000000               1.000000000               0.000000091               0.000000000               1.000000000               0.000000215               0.000000000               1.000000000               0.000000277               0.000000000               1.000000000               0.000000134               0.000000000               1.000000000              -0.000000317               0.000000000               1.000000000              -0.000001133               0.000000000               1.000000000              -0.000002417               0.000000000               1.000000000              -0.000004231               0.000000000               1.000000000               0.000003526              -0.000005555               1.000000000               0.000001388              -0.000005179               1.000000000               0.000000469              -0.000005154               1.000000000               0.000000067              -0.000005434               1.000000000              -0.000000066              -0.000005873               1.000000000              -0.000000109              -0.000006496               1.000000000              -0.000000184              -0.000007113               1.000000000              -0.000000273              -0.000007668               1.000000000              -0.000000258              -0.000008016               1.000000000              -0.000000174              -0.000008468               1.000000000              -0.000000201              -0.000009055               1.000000000              -0.000000401              -0.000009775               1.000000000              -0.000000821              -0.000010753               1.000000000              -0.000001567              -0.000011967               1.000000000              -0.000002691              -0.000013421               1.000000000              -0.000004227              -0.000015132               1.000000000              -0.000006228              -0.000017112               1.000000000               0.000003367              -0.000011108               1.000000000               0.000001398              -0.000010242               1.000000000               0.000000556              -0.000010288               1.000000000               0.000000197              -0.000010836               1.000000000               0.000000057              -0.000011751               1.000000000              -0.000000080              -0.000012963               1.000000000              -0.000000231              -0.000014293               1.000000000              -0.000000410              -0.000015449               1.000000000              -0.000000627              -0.000016269               1.000000000              -0.000000962              -0.000017314               1.000000000              -0.000001474              -0.000018598               1.000000000              -0.000002179              -0.000020159               1.000000000              -0.000003166              -0.000022149               1.000000000              -0.000004506              -0.000024559               1.000000000              -0.000006210              -0.000027411               1.000000000              -0.000008301              -0.000030706               1.000000000              -0.000010827              -0.000034416               1.000000000               0.000003123              -0.000016573               1.000000000               0.000001413              -0.000015190               1.000000000               0.000000710              -0.000015297               1.000000000               0.000000406              -0.000016155               1.000000000               0.000000191              -0.000017608               1.000000000              -0.000000058              -0.000019491               1.000000000              -0.000000404              -0.000021532               1.000000000              -0.000000822              -0.000023332               1.000000000              -0.000001361              -0.000024899               1.000000000              -0.000002092              -0.000026843               1.000000000              -0.000003104              -0.000029077               1.000000000              -0.000004527              -0.000031700               1.000000000              -0.000006355              -0.000034861               1.000000000              -0.000008595              -0.000038560               1.000000000              -0.000011252              -0.000042849               1.000000000              -0.000014275              -0.000047745               1.000000000              -0.000017704              -0.000053283               1.000000000               0.000002734              -0.000021841               1.000000000               0.000001517              -0.000019997               1.000000000               0.000000982              -0.000020214               1.000000000               0.000000648              -0.000021427               1.000000000               0.000000335              -0.000023482               1.000000000              -0.000000162              -0.000026069               1.000000000              -0.000000822              -0.000028872               1.000000000              -0.000001511              -0.000031493               1.000000000              -0.000002425              -0.000034067               1.000000000              -0.000003686              -0.000037167               1.000000000              -0.000005414              -0.000040755               1.000000000              -0.000007634              -0.000044854               1.000000000              -0.000010337              -0.000049587               1.000000000              -0.000013567              -0.000054963               1.000000000              -0.000017242              -0.000061036               1.000000000              -0.000021329              -0.000067852               1.000000000              -0.000025839              -0.000075419               1.000000000               0.000002354              -0.000026935               1.000000000               0.000001676              -0.000024601               1.000000000               0.000001304              -0.000025006               1.000000000               0.000000977              -0.000026692               1.000000000               0.000000389              -0.000029427               1.000000000              -0.000000455              -0.000032775               1.000000000              -0.000001440              -0.000036505               1.000000000              -0.000002635              -0.000040072               1.000000000              -0.000004093              -0.000044009               1.000000000              -0.000005926              -0.000048671               1.000000000              -0.000008299              -0.000054048               1.000000000              -0.000011255              -0.000060103               1.000000000              -0.000014816              -0.000066932               1.000000000              -0.000018928              -0.000074542               1.000000000              -0.000023526              -0.000082921               1.000000000              -0.000028594              -0.000092090               1.000000000              -0.000034109              -0.000102020               1.000000000               0.000001990              -0.000031817               1.000000000               0.000001926              -0.000029014               1.000000000               0.000001748              -0.000029681               1.000000000               0.000001270              -0.000031971               1.000000000               0.000000359              -0.000035522               1.000000000              -0.000000879              -0.000039831               1.000000000              -0.000002359              -0.000044584               1.000000000              -0.000003908              -0.000049668               1.000000000              -0.000005784              -0.000055322               1.000000000              -0.000008223              -0.000062031               1.000000000              -0.000011329              -0.000069556               1.000000000              -0.000015063              -0.000077955               1.000000000              -0.000019442              -0.000087257               1.000000000              -0.000024383              -0.000097431               1.000000000              -0.000029807              -0.000108478               1.000000000              -0.000035771              -0.000120289               1.000000000              -0.000042220              -0.000132858               1.000000000               0.000001628              -0.000036372               1.000000000               0.000002332              -0.000033293               1.000000000               0.000002213              -0.000034289               1.000000000               0.000001474              -0.000037320               1.000000000               0.000000184              -0.000041805               1.000000000              -0.000001436              -0.000047359               1.000000000              -0.000003150              -0.000053712               1.000000000              -0.000005075              -0.000060597               1.000000000              -0.000007494              -0.000068348               1.000000000              -0.000010594              -0.000077405               1.000000000              -0.000014421              -0.000087400               1.000000000              -0.000018926              -0.000098355               1.000000000              -0.000024035              -0.000110400               1.000000000              -0.000029693              -0.000123378               1.000000000              -0.000035897              -0.000137258               1.000000000              -0.000042686              -0.000152016               1.000000000              -0.000049914              -0.000167439               1.000000000               0.000001335              -0.000040565               1.000000000               0.000002788              -0.000037418               1.000000000               0.000002604              -0.000038845               1.000000000               0.000001581              -0.000042736               1.000000000              -0.000000083              -0.000048462               1.000000000              -0.000002014              -0.000055558               1.000000000              -0.000004101              -0.000063707               1.000000000              -0.000006433              -0.000072689               1.000000000              -0.000009295              -0.000082949               1.000000000              -0.000013016              -0.000094532               1.000000000              -0.000017444              -0.000107187               1.000000000              -0.000022551              -0.000120978               1.000000000              -0.000028239              -0.000136001               1.000000000              -0.000034494              -0.000152176               1.000000000              -0.000041375              -0.000169364               1.000000000              -0.000048701              -0.000187483               1.000000000              -0.000056321              -0.000206339               1.000000000               0.000001077              -0.000044627               1.000000000               0.000003066              -0.000041620               1.000000000               0.000003129              -0.000042633               1.000000000               0.000002217              -0.000046083               1.000000000               0.000000715              -0.000051430               1.000000000              -0.000001147              -0.000058230               1.000000000              -0.000003185              -0.000066227               1.000000000              -0.000005103              -0.000075089               1.000000000              -0.000007238              -0.000084850               1.000000000              -0.000009993              -0.000095718               1.000000000              -0.000013384              -0.000107640               1.000000000              -0.000017187              -0.000120502               1.000000000              -0.000021527              -0.000134430               1.000000000              -0.000026344              -0.000149432               1.000000000              -0.000031619              -0.000165591               1.000000000              -0.000037404              -0.000182652               1.000000000              -0.000043621              -0.000200750               1.000000000               0.000000844              -0.000048378               1.000000000               0.000003213              -0.000045726               1.000000000               0.000003488              -0.000046499               1.000000000               0.000002735              -0.000049639               1.000000000               0.000001402              -0.000054566               1.000000000              -0.000000311              -0.000061064               1.000000000              -0.000002128              -0.000068828               1.000000000              -0.000003860              -0.000077464               1.000000000              -0.000005463              -0.000086900               1.000000000              -0.000007385              -0.000097271               1.000000000              -0.000009799              -0.000108596               1.000000000              -0.000012549              -0.000120781               1.000000000              -0.000015742              -0.000133827               1.000000000              -0.000019326              -0.000147819               1.000000000              -0.000023191              -0.000162792               1.000000000              -0.000027500              -0.000178768               1.000000000              -0.000032236              -0.000195700               1.000000000               0.000000659              -0.000051747               1.000000000               0.000003205              -0.000049657               1.000000000               0.000003617              -0.000050383               1.000000000               0.000003010              -0.000053250               1.000000000               0.000001917              -0.000057847               1.000000000               0.000000520              -0.000064061               1.000000000              -0.000001079              -0.000071483               1.000000000              -0.000002578              -0.000079848               1.000000000              -0.000003898              -0.000088965               1.000000000              -0.000005257              -0.000098969               1.000000000              -0.000006891              -0.000109851               1.000000000              -0.000008813              -0.000121610               1.000000000              -0.000010987              -0.000134099               1.000000000              -0.000013441              -0.000147322               1.000000000              -0.000016130              -0.000161390               1.000000000              -0.000019028              -0.000176392               1.000000000              -0.000022164              -0.000192236               1.000000000               0.000000557              -0.000054703               1.000000000               0.000002951              -0.000053246               1.000000000               0.000003430              -0.000054054               1.000000000               0.000003033              -0.000056776               1.000000000               0.000002230              -0.000061165               1.000000000               0.000001093              -0.000066992               1.000000000              -0.000000218              -0.000073981               1.000000000              -0.000001478              -0.000081987               1.000000000              -0.000002587              -0.000090929               1.000000000              -0.000003569              -0.000100717               1.000000000              -0.000004624              -0.000111377               1.000000000              -0.000005884              -0.000122815               1.000000000              -0.000007243              -0.000134950               1.000000000              -0.000008757              -0.000147730               1.000000000              -0.000010447              -0.000161176               1.000000000              -0.000012164              -0.000175327               1.000000000              -0.000013978              -0.000190260               1.000000000               0.000000441              -0.000057094               1.000000000               0.000002442              -0.000056302               1.000000000               0.000002942              -0.000057282               1.000000000               0.000002743              -0.000059962               1.000000000               0.000002131              -0.000064133               1.000000000               0.000001304              -0.000069611               1.000000000               0.000000371              -0.000076302               1.000000000              -0.000000610              -0.000084047               1.000000000              -0.000001521              -0.000092792               1.000000000              -0.000002274              -0.000102405               1.000000000              -0.000002919              -0.000112846               1.000000000              -0.000003643              -0.000124023               1.000000000              -0.000004427              -0.000135925               1.000000000              -0.000005276              -0.000148492               1.000000000              -0.000006191              -0.000161607               1.000000000              -0.000007115              -0.000175254               1.000000000              -0.000008015              -0.000189611               1.000000000               0.000000303              -0.000058876               1.000000000               0.000001758              -0.000058679               1.000000000               0.000002165              -0.000059827               1.000000000               0.000002057              -0.000062470               1.000000000               0.000001667              -0.000066499               1.000000000               0.000001195              -0.000071782               1.000000000               0.000000561              -0.000078224               1.000000000              -0.000000137              -0.000085787               1.000000000              -0.000000766              -0.000094349               1.000000000              -0.000001248              -0.000103776               1.000000000              -0.000001623              -0.000114002               1.000000000              -0.000002010              -0.000124989               1.000000000              -0.000002434              -0.000136767               1.000000000              -0.000002870              -0.000149165               1.000000000              -0.000003297              -0.000162079               1.000000000              -0.000003748              -0.000175493               1.000000000              -0.000004142              -0.000189510               1.000000000               0.000000160              -0.000059974               1.000000000               0.000000926              -0.000060169               1.000000000               0.000001136              -0.000061446               1.000000000               0.000001096              -0.000064093               1.000000000               0.000000958              -0.000068036               1.000000000               0.000000684              -0.000073211               1.000000000               0.000000369              -0.000079530               1.000000000               0.000000033              -0.000086937               1.000000000              -0.000000282              -0.000095303               1.000000000              -0.000000523              -0.000104595               1.000000000              -0.000000704              -0.000114725               1.000000000              -0.000000877              -0.000125583               1.000000000              -0.000001059              -0.000137213               1.000000000              -0.000001233              -0.000149444               1.000000000              -0.000001407              -0.000162217               1.000000000              -0.000001603              -0.000175525               1.000000000              -0.000001773              -0.000189358               1.000000000              -0.000000000              -0.000060317               1.000000000               0.000000000              -0.000060644               1.000000000               0.000000000              -0.000062010               1.000000000              -0.000000000              -0.000064684               1.000000000               0.000000000              -0.000068555               1.000000000               0.000000000              -0.000073707               1.000000000               0.000000000              -0.000080001               1.000000000              -0.000000000              -0.000087330               1.000000000              -0.000000000              -0.000095659               1.000000000              -0.000000000              -0.000104911               1.000000000              -0.000000000              -0.000114948               1.000000000              -0.000000000              -0.000125730               1.000000000              -0.000000000              -0.000137315               1.000000000               0.000000000              -0.000149486               1.000000000               0.000000000              -0.000162201               1.000000000               0.000000000              -0.000175472               1.000000000               0.000000000              -0.000189244               1.000000000              -0.000003635               0.000000000               1.000000000              -0.000001392              -0.000000000               1.000000000              -0.000000410               0.000000000               1.000000000              -0.000000032              -0.000000000               1.000000000               0.000000113              -0.000000000               1.000000000               0.000000159              -0.000000000               1.000000000               0.000000193               0.000000000               1.000000000               0.000000175               0.000000000               1.000000000               0.000000056               0.000000000               1.000000000              -0.000000091               0.000000000               1.000000000              -0.000000215              -0.000000000               1.000000000              -0.000000277              -0.000000000               1.000000000              -0.000000134              -0.000000000               1.000000000               0.000000317              -0.000000000               1.000000000               0.000001133              -0.000000000               1.000000000               0.000002417              -0.000000000               1.000000000               0.000004231              -0.000000000               1.000000000              -0.000003526              -0.000005555               1.000000000              -0.000001388              -0.000005179               1.000000000              -0.000000469              -0.000005154               1.000000000              -0.000000067              -0.000005434               1.000000000               0.000000066              -0.000005873               1.000000000               0.000000109              -0.000006496               1.000000000               0.000000184              -0.000007113               1.000000000               0.000000273              -0.000007668               1.000000000               0.000000258              -0.000008016               1.000000000               0.000000174              -0.000008468               1.000000000               0.000000201              -0.000009055               1.000000000               0.000000401              -0.000009775               1.000000000               0.000000821              -0.000010753               1.000000000               0.000001567              -0.000011967               1.000000000               0.000002691              -0.000013421               1.000000000               0.000004227              -0.000015132               1.000000000               0.000006228              -0.000017112               1.000000000              -0.000003367              -0.000011108               1.000000000              -0.000001398              -0.000010242               1.000000000              -0.000000556              -0.000010288               1.000000000              -0.000000197              -0.000010836               1.000000000              -0.000000057              -0.000011751               1.000000000               0.000000080              -0.000012963               1.000000000               0.000000231              -0.000014293               1.000000000               0.000000410              -0.000015449               1.000000000               0.000000627              -0.000016269               1.000000000               0.000000962              -0.000017314               1.000000000               0.000001474              -0.000018598               1.000000000               0.000002179              -0.000020159               1.000000000               0.000003166              -0.000022149               1.000000000               0.000004506              -0.000024559               1.000000000               0.000006210              -0.000027411               1.000000000               0.000008301              -0.000030706               1.000000000               0.000010827              -0.000034416               1.000000000              -0.000003123              -0.000016573               1.000000000              -0.000001413              -0.000015190               1.000000000              -0.000000710              -0.000015297               1.000000000              -0.000000406              -0.000016155               1.000000000              -0.000000191              -0.000017608               1.000000000               0.000000058              -0.000019491               1.000000000               0.000000404              -0.000021532               1.000000000               0.000000822              -0.000023332               1.000000000               0.000001361              -0.000024899               1.000000000               0.000002092              -0.000026843               1.000000000               0.000003104              -0.000029077               1.000000000               0.000004527              -0.000031700               1.000000000               0.000006355              -0.000034861               1.000000000               0.000008595              -0.000038560               1.000000000               0.000011252              -0.000042849               1.000000000               0.000014275              -0.000047745               1.000000000               0.000017704              -0.000053283               1.000000000              -0.000002734              -0.000021841               1.000000000              -0.000001517              -0.000019997               1.000000000              -0.000000982              -0.000020214               1.000000000              -0.000000648              -0.000021427               1.000000000              -0.000000335              -0.000023482               1.000000000               0.000000162              -0.000026069               1.000000000               0.000000822              -0.000028872               1.000000000               0.000001511              -0.000031493               1.000000000               0.000002425              -0.000034067               1.000000000               0.000003686              -0.000037167               1.000000000               0.000005414              -0.000040755               1.000000000               0.000007634              -0.000044854               1.000000000               0.000010337              -0.000049587               1.000000000               0.000013567              -0.000054963               1.000000000               0.000017242              -0.000061036               1.000000000               0.000021329              -0.000067852               1.000000000               0.000025839              -0.000075419               1.000000000              -0.000002354              -0.000026935               1.000000000              -0.000001676              -0.000024601               1.000000000              -0.000001304              -0.000025006               1.000000000              -0.000000977              -0.000026692               1.000000000              -0.000000389              -0.000029427               1.000000000               0.000000455              -0.000032775               1.000000000               0.000001440              -0.000036505               1.000000000               0.000002635              -0.000040072               1.000000000               0.000004093              -0.000044009               1.000000000               0.000005926              -0.000048671               1.000000000               0.000008299              -0.000054048               1.000000000               0.000011255              -0.000060103               1.000000000               0.000014816              -0.000066932               1.000000000               0.000018928              -0.000074542               1.000000000               0.000023526              -0.000082921               1.000000000               0.000028594              -0.000092090               1.000000000               0.000034109              -0.000102020               1.000000000              -0.000001990              -0.000031817               1.000000000              -0.000001926              -0.000029014               1.000000000              -0.000001748              -0.000029681               1.000000000              -0.000001270              -0.000031971               1.000000000              -0.000000359              -0.000035522               1.000000000               0.000000879              -0.000039831               1.000000000               0.000002359              -0.000044584               1.000000000               0.000003908              -0.000049668               1.000000000               0.000005784              -0.000055322               1.000000000               0.000008223              -0.000062031               1.000000000               0.000011329              -0.000069556               1.000000000               0.000015063              -0.000077955               1.000000000               0.000019442              -0.000087257               1.000000000               0.000024383              -0.000097431               1.000000000               0.000029807              -0.000108478               1.000000000               0.000035771              -0.000120289               1.000000000               0.000042220              -0.000132858               1.000000000              -0.000001628              -0.000036372               1.000000000              -0.000002332              -0.000033293               1.000000000              -0.000002213              -0.000034289               1.000000000              -0.000001474              -0.000037320               1.000000000              -0.000000184              -0.000041805               1.000000000               0.000001436              -0.000047359               1.000000000               0.000003150              -0.000053712               1.000000000               0.000005075              -0.000060597               1.000000000               0.000007494              -0.000068348               1.000000000               0.000010594              -0.000077405               1.000000000               0.000014421              -0.000087400               1.000000000               0.000018926              -0.000098355               1.000000000               0.000024035              -0.000110400               1.000000000               0.000029693              -0.000123378               1.000000000               0.000035897              -0.000137258               1.000000000               0.000042686              -0.000152016               1.000000000               0.000049914              -0.000167439               1.000000000              -0.000001335              -0.000040565               1.000000000              -0.000002788              -0.000037418               1.000000000              -0.000002604              -0.000038845               1.000000000              -0.000001581              -0.000042736               1.000000000               0.000000083              -0.000048462               1.000000000               0.000002014              -0.000055558               1.000000000               0.000004101              -0.000063707               1.000000000               0.000006433              -0.000072689               1.000000000               0.000009295              -0.000082949               1.000000000               0.000013016              -0.000094532               1.000000000               0.000017444              -0.000107187               1.000000000               0.000022551              -0.000120978               1.000000000               0.000028239              -0.000136001               1.000000000               0.000034494              -0.000152176               1.000000000               0.000041375              -0.000169364               1.000000000               0.000048701              -0.000187483               1.000000000               0.000056321              -0.000206339               1.000000000              -0.000001077              -0.000044627               1.000000000              -0.000003066              -0.000041620               1.000000000              -0.000003129              -0.000042633               1.000000000              -0.000002217              -0.000046083               1.000000000              -0.000000715              -0.000051430               1.000000000               0.000001147              -0.000058230               1.000000000               0.000003185              -0.000066227               1.000000000               0.000005103              -0.000075089               1.000000000               0.000007238              -0.000084850               1.000000000               0.000009993              -0.000095718               1.000000000               0.000013384              -0.000107640               1.000000000               0.000017187              -0.000120502               1.000000000               0.000021527              -0.000134430               1.000000000               0.000026344              -0.000149432               1.000000000               0.000031619              -0.000165591               1.000000000               0.000037404              -0.000182652               1.000000000               0.000043621              -0.000200750               1.000000000              -0.000000844              -0.000048378               1.000000000              -0.000003213              -0.000045726               1.000000000              -0.000003488              -0.000046499               1.000000000              -0.000002735              -0.000049639               1.000000000              -0.000001402              -0.000054566               1.000000000               0.000000311              -0.000061064               1.000000000               0.000002128              -0.000068828               1.000000000               0.000003860              -0.000077464               1.000000000               0.000005463              -0.000086900               1.000000000               0.000007385              -0.000097271               1.000000000               0.000009799              -0.000108596               1.000000000               0.000012549              -0.000120781               1.000000000               0.000015742              -0.000133827               1.000000000               0.000019326              -0.000147819               1.000000000               0.000023191              -0.000162792               1.000000000               0.000027500              -0.000178768               1.000000000               0.000032236              -0.000195700               1.000000000              -0.000000659              -0.000051747               1.000000000              -0.000003205              -0.000049657               1.000000000              -0.000003617              -0.000050383               1.000000000              -0.000003010              -0.000053250               1.000000000              -0.000001917              -0.000057847               1.000000000              -0.000000520              -0.000064061               1.000000000               0.000001079              -0.000071483               1.000000000               0.000002578              -0.000079848               1.000000000               0.000003898              -0.000088965               1.000000000               0.000005257              -0.000098969               1.000000000               0.000006891              -0.000109851               1.000000000               0.000008813              -0.000121610               1.000000000               0.000010987              -0.000134099               1.000000000               0.000013441              -0.000147322               1.000000000               0.000016130              -0.000161390               1.000000000               0.000019028              -0.000176392               1.000000000               0.000022164              -0.000192236               1.000000000              -0.000000557              -0.000054703               1.000000000              -0.000002951              -0.000053246               1.000000000              -0.000003430              -0.000054054               1.000000000              -0.000003033              -0.000056776               1.000000000              -0.000002230              -0.000061165               1.000000000              -0.000001093              -0.000066992               1.000000000               0.000000218              -0.000073981               1.000000000               0.000001478              -0.000081987               1.000000000               0.000002587              -0.000090929               1.000000000               0.000003569              -0.000100717               1.000000000               0.000004624              -0.000111377               1.000000000               0.000005884              -0.000122815               1.000000000               0.000007243              -0.000134950               1.000000000               0.000008757              -0.000147730               1.000000000               0.000010447              -0.000161176               1.000000000               0.000012164              -0.000175327               1.000000000               0.000013978              -0.000190260               1.000000000              -0.000000441              -0.000057094               1.000000000              -0.000002442              -0.000056302               1.000000000              -0.000002942              -0.000057282               1.000000000              -0.000002743              -0.000059962               1.000000000              -0.000002131              -0.000064133               1.000000000              -0.000001304              -0.000069611               1.000000000              -0.000000371              -0.000076302               1.000000000               0.000000610              -0.000084047               1.000000000               0.000001521              -0.000092792               1.000000000               0.000002274              -0.000102405               1.000000000               0.000002919              -0.000112846               1.000000000               0.000003643              -0.000124023               1.000000000               0.000004427              -0.000135925               1.000000000               0.000005276              -0.000148492               1.000000000               0.000006191              -0.000161607               1.000000000               0.000007115              -0.000175254               1.000000000               0.000008015              -0.000189611               1.000000000              -0.000000303              -0.000058876               1.000000000              -0.000001758              -0.000058679               1.000000000              -0.000002165              -0.000059827               1.000000000              -0.000002057              -0.000062470               1.000000000              -0.000001667              -0.000066499               1.000000000              -0.000001195              -0.000071782               1.000000000              -0.000000561              -0.000078224               1.000000000               0.000000137              -0.000085787               1.000000000               0.000000766              -0.000094349               1.000000000               0.000001248              -0.000103776               1.000000000               0.000001623              -0.000114002               1.000000000               0.000002010              -0.000124989               1.000000000               0.000002434              -0.000136767               1.000000000               0.000002870              -0.000149165               1.000000000               0.000003297              -0.000162079               1.000000000               0.000003748              -0.000175493               1.000000000               0.000004142              -0.000189510               1.000000000              -0.000000160              -0.000059974               1.000000000              -0.000000926              -0.000060169               1.000000000              -0.000001136              -0.000061446               1.000000000              -0.000001096              -0.000064093               1.000000000              -0.000000958              -0.000068036               1.000000000              -0.000000684              -0.000073211               1.000000000              -0.000000369              -0.000079530               1.000000000              -0.000000033              -0.000086937               1.000000000               0.000000282              -0.000095303               1.000000000               0.000000523              -0.000104595               1.000000000               0.000000704              -0.000114725               1.000000000               0.000000877              -0.000125583               1.000000000               0.000001059              -0.000137213               1.000000000               0.000001233              -0.000149444               1.000000000               0.000001407              -0.000162217               1.000000000               0.000001603              -0.000175525               1.000000000               0.000001773              -0.000189358               1.000000000              -0.000000000              -0.000060317               1.000000000               0.000000000              -0.000060644               1.000000000               0.000000000              -0.000062010               1.000000000              -0.000000000              -0.000064684               1.000000000               0.000000000              -0.000068555               1.000000000               0.000000000              -0.000073707               1.000000000               0.000000000              -0.000080001               1.000000000              -0.000000000              -0.000087330               1.000000000              -0.000000000              -0.000095659               1.000000000              -0.000000000              -0.000104911               1.000000000              -0.000000000              -0.000114948               1.000000000              -0.000000000              -0.000125730               1.000000000              -0.000000000              -0.000137315               1.000000000               0.000000000              -0.000149486               1.000000000               0.000000000              -0.000162201               1.000000000               0.000000000              -0.000175472               1.000000000               0.000000000              -0.000189244               1.000000000              -0.000003635               0.000000000               1.000000000              -0.000001392              -0.000000000               1.000000000              -0.000000410               0.000000000               1.000000000              -0.000000032              -0.000000000               1.000000000               0.000000113              -0.000000000               1.000000000               0.000000159              -0.000000000               1.000000000               0.000000193               0.000000000               1.000000000               0.000000175               0.000000000               1.000000000               0.000000056               0.000000000               1.000000000              -0.000000091               0.000000000               1.000000000              -0.000000215              -0.000000000               1.000000000              -0.000000277              -0.000000000               1.000000000              -0.000000134              -0.000000000               1.000000000               0.000000317              -0.000000000               1.000000000               0.000001133              -0.000000000               1.000000000               0.000002417              -0.000000000               1.000000000               0.000004231              -0.000000000               1.000000000              -0.000003526               0.000005555               1.000000000              -0.000001388               0.000005179               1.000000000              -0.000000469               0.000005154               1.000000000              -0.000000067               0.000005434               1.000000000               0.000000066               0.000005873               1.000000000               0.000000109               0.000006496               1.000000000               0.000000184               0.000007113               1.000000000               0.000000273               0.000007668               1.000000000               0.000000258               0.000008016               1.000000000               0.000000174               0.000008468               1.000000000               0.000000201               0.000009055               1.000000000               0.000000401               0.000009775               1.000000000               0.000000821               0.000010753               1.000000000               0.000001567               0.000011967               1.000000000               0.000002691               0.000013421               1.000000000               0.000004227               0.000015132               1.000000000               0.000006228               0.000017112               1.000000000              -0.000003367               0.000011108               1.000000000              -0.000001398               0.000010242               1.000000000              -0.000000556               0.000010288               1.000000000              -0.000000197               0.000010836               1.000000000              -0.000000057               0.000011751               1.000000000               0.000000080               0.000012963               1.000000000               0.000000231               0.000014293               1.000000000               0.000000410               0.000015449               1.000000000               0.000000627               0.000016269               1.000000000               0.000000962               0.000017314               1.000000000               0.000001474               0.000018598               1.000000000               0.000002179               0.000020159               1.000000000               0.000003166               0.000022149               1.000000000               0.000004506               0.000024559               1.000000000               0.000006210               0.000027411               1.000000000               0.000008301               0.000030706               1.000000000               0.000010827               0.000034416               1.000000000              -0.000003123               0.000016573               1.000000000              -0.000001413               0.000015190               1.000000000              -0.000000710               0.000015297               1.000000000              -0.000000406               0.000016155               1.000000000              -0.000000191               0.000017608               1.000000000               0.000000058               0.000019491               1.000000000               0.000000404               0.000021532               1.000000000               0.000000822               0.000023332               1.000000000               0.000001361               0.000024899               1.000000000               0.000002092               0.000026843               1.000000000               0.000003104               0.000029077               1.000000000               0.000004527               0.000031700               1.000000000               0.000006355               0.000034861               1.000000000               0.000008595               0.000038560               1.000000000               0.000011252               0.000042849               1.000000000               0.000014275               0.000047745               1.000000000               0.000017704               0.000053283               1.000000000              -0.000002734               0.000021841               1.000000000              -0.000001517               0.000019997               1.000000000              -0.000000982               0.000020214               1.000000000              -0.000000648               0.000021427               1.000000000              -0.000000335               0.000023482               1.000000000               0.000000162               0.000026069               1.000000000               0.000000822               0.000028872               1.000000000               0.000001511               0.000031493               1.000000000               0.000002425               0.000034067               1.000000000               0.000003686               0.000037167               1.000000000               0.000005414               0.000040755               1.000000000               0.000007634               0.000044854               1.000000000               0.000010337               0.000049587               1.000000000               0.000013567               0.000054963               1.000000000               0.000017242               0.000061036               1.000000000               0.000021329               0.000067852               1.000000000               0.000025839               0.000075419               1.000000000              -0.000002354               0.000026935               1.000000000              -0.000001676               0.000024601               1.000000000              -0.000001304               0.000025006               1.000000000              -0.000000977               0.000026692               1.000000000              -0.000000389               0.000029427               1.000000000               0.000000455               0.000032775               1.000000000               0.000001440               0.000036505               1.000000000               0.000002635               0.000040072               1.000000000               0.000004093               0.000044009               1.000000000               0.000005926               0.000048671               1.000000000               0.000008299               0.000054048               1.000000000               0.000011255               0.000060103               1.000000000               0.000014816               0.000066932               1.000000000               0.000018928               0.000074542               1.000000000               0.000023526               0.000082921               1.000000000               0.000028594               0.000092090               1.000000000               0.000034109               0.000102020               1.000000000              -0.000001990               0.000031817               1.000000000              -0.000001926               0.000029014               1.000000000              -0.000001748               0.000029681               1.000000000              -0.000001270               0.000031971               1.000000000              -0.000000359               0.000035522               1.000000000               0.000000879               0.000039831               1.000000000               0.000002359               0.000044584               1.000000000               0.000003908               0.000049668               1.000000000               0.000005784               0.000055322               1.000000000               0.000008223               0.000062031               1.000000000               0.000011329               0.000069556               1.000000000               0.000015063               0.000077955               1.000000000               0.000019442               0.000087257               1.000000000               0.000024383               0.000097431               1.000000000               0.000029807               0.000108478               1.000000000               0.000035771               0.000120289               1.000000000               0.000042220               0.000132858               1.000000000              -0.000001628               0.000036372               1.000000000              -0.000002332               0.000033293               1.000000000              -0.000002213               0.000034289               1.000000000              -0.000001474               0.000037320               1.000000000              -0.000000184               0.000041805               1.000000000               0.000001436               0.000047359               1.000000000               0.000003150               0.000053712               1.000000000               0.000005075               0.000060597               1.000000000               0.000007494               0.000068348               1.000000000               0.000010594               0.000077405               1.000000000               0.000014421               0.000087400               1.000000000               0.000018926               0.000098355               1.000000000               0.000024035               0.000110400               1.000000000               0.000029693               0.000123378               1.000000000               0.000035897               0.000137258               1.000000000               0.000042686               0.000152016               1.000000000               0.000049914               0.000167439               1.000000000              -0.000001335               0.000040565               1.000000000              -0.000002788               0.000037418               1.000000000              -0.000002604               0.000038845               1.000000000              -0.000001581               0.000042736               1.000000000               0.000000083               0.000048462               1.000000000               0.000002014               0.000055558               1.000000000               0.000004101               0.000063707               1.000000000               0.000006433               0.000072689               1.000000000               0.000009295               0.000082949               1.000000000               0.000013016               0.000094532               1.000000000               0.000017444               0.000107187               1.000000000               0.000022551               0.000120978               1.000000000               0.000028239               0.000136001               1.000000000               0.000034494               0.000152176               1.000000000               0.000041375               0.000169364               1.000000000               0.000048701               0.000187483               1.000000000               0.000056321               0.000206339               1.000000000              -0.000001077               0.000044627               1.000000000              -0.000003066               0.000041620               1.000000000              -0.000003129               0.000042633               1.000000000              -0.000002217               0.000046083               1.000000000              -0.000000715               0.000051430               1.000000000               0.000001147               0.000058230               1.000000000               0.000003185               0.000066227               1.000000000               0.000005103               0.000075089               1.000000000               0.000007238               0.000084850               1.000000000               0.000009993               0.000095718               1.000000000               0.000013384               0.000107640               1.000000000               0.000017187               0.000120502               1.000000000               0.000021527               0.000134430               1.000000000               0.000026344               0.000149432               1.000000000               0.000031619               0.000165591               1.000000000               0.000037404               0.000182652               1.000000000               0.000043621               0.000200750               1.000000000              -0.000000844               0.000048378               1.000000000              -0.000003213               0.000045726               1.000000000              -0.000003488               0.000046499               1.000000000              -0.000002735               0.000049639               1.000000000              -0.000001402               0.000054566               1.000000000               0.000000311               0.000061064               1.000000000               0.000002128               0.000068828               1.000000000               0.000003860               0.000077464               1.000000000               0.000005463               0.000086900               1.000000000               0.000007385               0.000097271               1.000000000               0.000009799               0.000108596               1.000000000               0.000012549               0.000120781               1.000000000               0.000015742               0.000133827               1.000000000               0.000019326               0.000147819               1.000000000               0.000023191               0.000162792               1.000000000               0.000027500               0.000178768               1.000000000               0.000032236               0.000195700               1.000000000              -0.000000659               0.000051747               1.000000000              -0.000003205               0.000049657               1.000000000              -0.000003617               0.000050383               1.000000000              -0.000003010               0.000053250               1.000000000              -0.000001917               0.000057847               1.000000000              -0.000000520               0.000064061               1.000000000               0.000001079               0.000071483               1.000000000               0.000002578               0.000079848               1.000000000               0.000003898               0.000088965               1.000000000               0.000005257               0.000098969               1.000000000               0.000006891               0.000109851               1.000000000               0.000008813               0.000121610               1.000000000               0.000010987               0.000134099               1.000000000               0.000013441               0.000147322               1.000000000               0.000016130               0.000161390               1.000000000               0.000019028               0.000176392               1.000000000               0.000022164               0.000192236               1.000000000              -0.000000557               0.000054703               1.000000000              -0.000002951               0.000053246               1.000000000              -0.000003430               0.000054054               1.000000000              -0.000003033               0.000056776               1.000000000              -0.000002230               0.000061165               1.000000000              -0.000001093               0.000066992               1.000000000               0.000000218               0.000073981               1.000000000               0.000001478               0.000081987               1.000000000               0.000002587               0.000090929               1.000000000               0.000003569               0.000100717               1.000000000               0.000004624               0.000111377               1.000000000               0.000005884               0.000122815               1.000000000               0.000007243               0.000134950               1.000000000               0.000008757               0.000147730               1.000000000               0.000010447               0.000161176               1.000000000               0.000012164               0.000175327               1.000000000               0.000013978               0.000190260               1.000000000              -0.000000441               0.000057094               1.000000000              -0.000002442               0.000056302               1.000000000              -0.000002942               0.000057282               1.000000000              -0.000002743               0.000059962               1.000000000              -0.000002131               0.000064133               1.000000000              -0.000001304               0.000069611               1.000000000              -0.000000371               0.000076302               1.000000000               0.000000610               0.000084047               1.000000000               0.000001521               0.000092792               1.000000000               0.000002274               0.000102405               1.000000000               0.000002919               0.000112846               1.000000000               0.000003643               0.000124023               1.000000000               0.000004427               0.000135925               1.000000000               0.000005276               0.000148492               1.000000000               0.000006191               0.000161607               1.000000000               0.000007115               0.000175254               1.000000000               0.000008015               0.000189611               1.000000000              -0.000000303               0.000058876               1.000000000              -0.000001758               0.000058679               1.000000000              -0.000002165               0.000059827               1.000000000              -0.000002057               0.000062470               1.000000000              -0.000001667               0.000066499               1.000000000              -0.000001195               0.000071782               1.000000000              -0.000000561               0.000078224               1.000000000               0.000000137               0.000085787               1.000000000               0.000000766               0.000094349               1.000000000               0.000001248               0.000103776               1.000000000               0.000001623               0.000114002               1.000000000               0.000002010               0.000124989               1.000000000               0.000002434               0.000136767               1.000000000               0.000002870               0.000149165               1.000000000               0.000003297               0.000162079               1.000000000               0.000003748               0.000175493               1.000000000               0.000004142               0.000189510               1.000000000              -0.000000160               0.000059974               1.000000000              -0.000000926               0.000060169               1.000000000              -0.000001136               0.000061446               1.000000000              -0.000001096               0.000064093               1.000000000              -0.000000958               0.000068036               1.000000000              -0.000000684               0.000073211               1.000000000              -0.000000369               0.000079530               1.000000000              -0.000000033               0.000086937               1.000000000               0.000000282               0.000095303               1.000000000               0.000000523               0.000104595               1.000000000               0.000000704               0.000114725               1.000000000               0.000000877               0.000125583               1.000000000               0.000001059               0.000137213               1.000000000               0.000001233               0.000149444               1.000000000               0.000001407               0.000162217               1.000000000               0.000001603               0.000175525               1.000000000               0.000001773               0.000189358               1.000000000               0.000000000               0.000060317               1.000000000               0.000000000               0.000060644               1.000000000               0.000000000               0.000062010               1.000000000               0.000000000               0.000064684               1.000000000              -0.000000000               0.000068555               1.000000000              -0.000000000               0.000073707               1.000000000               0.000000000               0.000080001               1.000000000               0.000000000               0.000087330               1.000000000              -0.000000000               0.000095659               1.000000000              -0.000000000               0.000104911               1.000000000              -0.000000000               0.000114948               1.000000000              -0.000000000               0.000125730               1.000000000              -0.000000000               0.000137315               1.000000000               0.000000000               0.000149486               1.000000000               0.000000000               0.000162201               1.000000000              -0.000000000               0.000175472               1.000000000              -0.000000000               0.000189244               1.000000000 </DataArray>
<DataArray type="Float64"                                    Name="stress"                                                      NumberOfComponents="10" format="ascii">
              0.000097567               0.001059097               0.000000000              -0.000095799               0.000384962               0.000289163               0.000000000               0.000000000               0.000000000               0.000000000               0.000122595               0.000905115               0.000000000              -0.000067166               0.000324091               0.000256925               0.000000000               0.000000000               0.000000000               0.000000000               0.000184305               0.000782831               0.000000000              -0.000028739               0.000270521               0.000241782               0.000000000               0.000000000               0.000000000               0.000000000               0.000210703               0.000722568               0.000000000              -0.000011307               0.000244623               0.000233315               0.000000000               0.000000000               0.000000000               0.000000000               0.000220238               0.000693027               0.000000000              -0.000004039               0.000232353               0.000228314               0.000000000               0.000000000               0.000000000               0.000000000               0.000221675               0.000681697               0.000000000              -0.000002084               0.000227925               0.000225841               0.000000000               0.000000000               0.000000000               0.000000000               0.000220664               0.000673147               0.000000000              -0.000001394               0.000224845               0.000223451               0.000000000               0.000000000               0.000000000               0.000000000               0.000225041               0.000661924              -0.000000000               0.000001650               0.000220089               0.000221739               0.000000000               0.000000000               0.000000000               0.000000000               0.000227162               0.000642820               0.000000000               0.000004833               0.000212660               0.000217493               0.000000000               0.000000000               0.000000000               0.000000000               0.000221645               0.000627954               0.000000000               0.000004623               0.000207775               0.000212398               0.000000000               0.000000000               0.000000000               0.000000000               0.000210844               0.000621011              -0.000000000               0.000001440               0.000206522               0.000207962               0.000000000               0.000000000               0.000000000               0.000000000               0.000193323               0.000621021              -0.000000000              -0.000005132               0.000208715               0.000203584               0.000000000               0.000000000               0.000000000               0.000000000               0.000166176               0.000629493               0.000000000              -0.000016370               0.000215286               0.000198915               0.000000000               0.000000000               0.000000000               0.000000000               0.000132402               0.000645752               0.000000000              -0.000031068               0.000225605               0.000194536               0.000000000               0.000000000               0.000000000               0.000000000               0.000092818               0.000668531              -0.000000000              -0.000048760               0.000239095               0.000190335               0.000000000               0.000000000               0.000000000               0.000000000               0.000046939               0.000696939              -0.000000000              -0.000069515               0.000255482               0.000185967               0.000000000               0.000000000               0.000000000               0.000000000               0.000026651               0.000722632              -0.000000000              -0.000080335               0.000267653               0.000187319               0.000000000               0.000000000               0.000000000               0.000000000               0.000107970               0.001047051              -0.000082381              -0.000090392               0.000379144               0.000288752               0.000000000               0.000000000               0.000000000               0.000000000               0.000127789               0.000893042              -0.000056392              -0.000063709               0.000318914               0.000255205               0.000000000               0.000000000               0.000000000               0.000000000               0.000184400               0.000777549              -0.000028274              -0.000028044               0.000268528               0.000240485               0.000000000               0.000000000               0.000000000               0.000000000               0.000208759               0.000719841              -0.000013792              -0.000011695               0.000243843               0.000232148               0.000000000               0.000000000               0.000000000               0.000000000               0.000218469               0.000692428              -0.000005153              -0.000004628               0.000232350               0.000227722               0.000000000               0.000000000               0.000000000               0.000000000               0.000218392               0.000680923              -0.000002293              -0.000003219               0.000228045               0.000224827               0.000000000               0.000000000               0.000000000               0.000000000               0.000215550               0.000674413              -0.000005426              -0.000003470               0.000225959               0.000222489               0.000000000               0.000000000               0.000000000               0.000000000               0.000217740               0.000664451              -0.000013600              -0.000001404               0.000221949               0.000220546               0.000000000               0.000000000               0.000000000               0.000000000               0.000220652               0.000649157              -0.000018649               0.000001600               0.000215850               0.000217450               0.000000000               0.000000000               0.000000000               0.000000000               0.000214658               0.000638039              -0.000018440               0.000000742               0.000212430               0.000213172               0.000000000               0.000000000               0.000000000               0.000000000               0.000200062               0.000632646              -0.000019021              -0.000004058               0.000212232               0.000208175               0.000000000               0.000000000               0.000000000               0.000000000               0.000180873               0.000634167              -0.000018006              -0.000011443               0.000215201               0.000203758               0.000000000               0.000000000               0.000000000               0.000000000               0.000154154               0.000642866              -0.000015466              -0.000022550               0.000221803               0.000199253               0.000000000               0.000000000               0.000000000               0.000000000               0.000121007               0.000657927              -0.000013108              -0.000036863               0.000231595               0.000194731               0.000000000               0.000000000               0.000000000               0.000000000               0.000084437               0.000679281              -0.000009935              -0.000053246               0.000244173               0.000190927               0.000000000               0.000000000               0.000000000               0.000000000               0.000043370               0.000705391              -0.000005532              -0.000071910               0.000259098               0.000187188               0.000000000               0.000000000               0.000000000               0.000000000               0.000025115               0.000728149              -0.000003893              -0.000081600               0.000269914               0.000188314               0.000000000               0.000000000               0.000000000               0.000000000               0.000127044               0.001005473              -0.000157622              -0.000078042               0.000361168               0.000283126               0.000000000               0.000000000               0.000000000               0.000000000               0.000136488               0.000859555              -0.000107295              -0.000056261               0.000305269               0.000249008               0.000000000               0.000000000               0.000000000               0.000000000               0.000184060               0.000759677              -0.000053801              -0.000025937               0.000261869               0.000235932               0.000000000               0.000000000               0.000000000               0.000000000               0.000203726               0.000710402              -0.000026322              -0.000012403               0.000240933               0.000228530               0.000000000               0.000000000               0.000000000               0.000000000               0.000210039               0.000689439              -0.000011364              -0.000007415               0.000232282               0.000224867               0.000000000               0.000000000               0.000000000               0.000000000               0.000209119               0.000681750              -0.000005947              -0.000006799               0.000229514               0.000222715               0.000000000               0.000000000               0.000000000               0.000000000               0.000207702               0.000678727              -0.000011550              -0.000006953               0.000228558               0.000221605               0.000000000               0.000000000               0.000000000               0.000000000               0.000205301               0.000671189              -0.000025790              -0.000006911               0.000226031               0.000219120               0.000000000               0.000000000               0.000000000               0.000000000               0.000200660               0.000664929              -0.000033291              -0.000007869               0.000224264               0.000216395               0.000000000               0.000000000               0.000000000               0.000000000               0.000190472               0.000665048              -0.000032544              -0.000011704               0.000225582               0.000213878               0.000000000               0.000000000               0.000000000               0.000000000               0.000174955               0.000668523              -0.000032387              -0.000017957               0.000228824               0.000210867               0.000000000               0.000000000               0.000000000               0.000000000               0.000155510               0.000676412              -0.000029653              -0.000026235               0.000234214               0.000207978               0.000000000               0.000000000               0.000000000               0.000000000               0.000129982               0.000687816              -0.000024979              -0.000037234               0.000241681               0.000204447               0.000000000               0.000000000               0.000000000               0.000000000               0.000100680               0.000703029              -0.000019991              -0.000050123               0.000251049               0.000200925               0.000000000               0.000000000               0.000000000               0.000000000               0.000070652               0.000723083              -0.000013892              -0.000063891               0.000262322               0.000198431               0.000000000               0.000000000               0.000000000               0.000000000               0.000037233               0.000746578              -0.000006970              -0.000079360               0.000275310               0.000195951               0.000000000               0.000000000               0.000000000               0.000000000               0.000022931               0.000766843              -0.000005212              -0.000087256               0.000284697               0.000197441               0.000000000               0.000000000               0.000000000               0.000000000               0.000153425               0.000935213              -0.000221231              -0.000059367               0.000331524               0.000272156               0.000000000               0.000000000               0.000000000               0.000000000               0.000148278               0.000811858              -0.000148320              -0.000045878               0.000285909               0.000240031               0.000000000               0.000000000               0.000000000               0.000000000               0.000181349               0.000734499              -0.000073188              -0.000023807               0.000252766               0.000228959               0.000000000               0.000000000               0.000000000               0.000000000               0.000194293               0.000698502              -0.000036884              -0.000014453               0.000237649               0.000223196               0.000000000               0.000000000               0.000000000               0.000000000               0.000197204               0.000687372              -0.000017343              -0.000011970               0.000233112               0.000221142               0.000000000               0.000000000               0.000000000               0.000000000               0.000195423               0.000685489              -0.000011501              -0.000012402               0.000232628               0.000220226               0.000000000               0.000000000               0.000000000               0.000000000               0.000194786               0.000685317              -0.000020455              -0.000012620               0.000232644               0.000220024               0.000000000               0.000000000               0.000000000               0.000000000               0.000191612               0.000685244              -0.000036999              -0.000013801               0.000233013               0.000219212               0.000000000               0.000000000               0.000000000               0.000000000               0.000184167               0.000693932              -0.000043110              -0.000017679               0.000237201               0.000219523               0.000000000               0.000000000               0.000000000               0.000000000               0.000171303               0.000709733              -0.000041218              -0.000024478               0.000244735               0.000220257               0.000000000               0.000000000               0.000000000               0.000000000               0.000150608               0.000727466              -0.000041528              -0.000034455               0.000253971               0.000219516               0.000000000               0.000000000               0.000000000               0.000000000               0.000126116               0.000747202              -0.000038898              -0.000046107               0.000264434               0.000218327               0.000000000               0.000000000               0.000000000               0.000000000               0.000100666               0.000768541              -0.000033903              -0.000058318               0.000275617               0.000217299               0.000000000               0.000000000               0.000000000               0.000000000               0.000074764               0.000791460              -0.000027979              -0.000070896               0.000287449               0.000216553               0.000000000               0.000000000               0.000000000               0.000000000               0.000051549               0.000817456              -0.000020122              -0.000082851               0.000300100               0.000217249               0.000000000               0.000000000               0.000000000               0.000000000               0.000027885               0.000846022              -0.000010642              -0.000095296               0.000313770               0.000218474               0.000000000               0.000000000               0.000000000               0.000000000               0.000019549               0.000868821              -0.000008182              -0.000101271               0.000323361               0.000222090               0.000000000               0.000000000               0.000000000               0.000000000               0.000187964               0.000850039              -0.000263143              -0.000035768               0.000295266               0.000259498               0.000000000               0.000000000               0.000000000               0.000000000               0.000162722               0.000754114              -0.000175705              -0.000033243               0.000262450               0.000229206               0.000000000               0.000000000               0.000000000               0.000000000               0.000174649               0.000707396              -0.000087284              -0.000022931               0.000243440               0.000220509               0.000000000               0.000000000               0.000000000               0.000000000               0.000180224               0.000690180              -0.000045659              -0.000018688               0.000236287               0.000217599               0.000000000               0.000000000               0.000000000               0.000000000               0.000180941               0.000690438              -0.000025109              -0.000018452               0.000236294               0.000217843               0.000000000               0.000000000               0.000000000               0.000000000               0.000179003               0.000694799              -0.000020425              -0.000019724               0.000238172               0.000218448               0.000000000               0.000000000               0.000000000               0.000000000               0.000183161               0.000703490              -0.000030607              -0.000019251               0.000240911               0.000221660               0.000000000               0.000000000               0.000000000               0.000000000               0.000184927               0.000716073              -0.000046657              -0.000020161               0.000245409               0.000225248               0.000000000               0.000000000               0.000000000               0.000000000               0.000177826               0.000742978              -0.000051394              -0.000026187               0.000256386               0.000230199               0.000000000               0.000000000               0.000000000               0.000000000               0.000160704               0.000776356              -0.000048676              -0.000036780               0.000271043               0.000234263               0.000000000               0.000000000               0.000000000               0.000000000               0.000136632               0.000812971              -0.000048384              -0.000050384               0.000287782               0.000237398               0.000000000               0.000000000               0.000000000               0.000000000               0.000111235               0.000851534              -0.000045628              -0.000064728               0.000305418               0.000240690               0.000000000               0.000000000               0.000000000               0.000000000               0.000084959               0.000890087              -0.000040328              -0.000079401               0.000323160               0.000243759               0.000000000               0.000000000               0.000000000               0.000000000               0.000060771               0.000929025              -0.000033509              -0.000093339               0.000340785               0.000247446               0.000000000               0.000000000               0.000000000               0.000000000               0.000041041               0.000968186              -0.000023959              -0.000105633               0.000357937               0.000252304               0.000000000               0.000000000               0.000000000               0.000000000               0.000021230               0.001005733              -0.000012560              -0.000117755               0.000374493               0.000256737               0.000000000               0.000000000               0.000000000               0.000000000               0.000015834               0.001031997              -0.000009579              -0.000123061               0.000385016               0.000261955               0.000000000               0.000000000               0.000000000               0.000000000               0.000213940               0.000755805              -0.000285303              -0.000014249               0.000256682               0.000242433               0.000000000               0.000000000               0.000000000               0.000000000               0.000171971               0.000690789              -0.000190835              -0.000021860               0.000237547               0.000215688               0.000000000               0.000000000               0.000000000               0.000000000               0.000165508               0.000681089              -0.000095280              -0.000023071               0.000234718               0.000211647               0.000000000               0.000000000               0.000000000               0.000000000               0.000163206               0.000687070              -0.000053609              -0.000024681               0.000237248               0.000212567               0.000000000               0.000000000               0.000000000               0.000000000               0.000162198               0.000702657              -0.000035355              -0.000027008               0.000243219               0.000216211               0.000000000               0.000000000               0.000000000               0.000000000               0.000166975               0.000720737              -0.000031490              -0.000027476               0.000249402               0.000221926               0.000000000               0.000000000               0.000000000               0.000000000               0.000175948               0.000742575              -0.000041672              -0.000026841               0.000256470               0.000229628               0.000000000               0.000000000               0.000000000               0.000000000               0.000181118               0.000777299              -0.000054582              -0.000029243               0.000268845               0.000239602               0.000000000               0.000000000               0.000000000               0.000000000               0.000178085               0.000827683              -0.000054769              -0.000036678               0.000288118               0.000251439               0.000000000               0.000000000               0.000000000               0.000000000               0.000163087               0.000883319              -0.000050952              -0.000049257               0.000310856               0.000261599               0.000000000               0.000000000               0.000000000               0.000000000               0.000138979               0.000937307              -0.000049241              -0.000065046               0.000334115               0.000269068               0.000000000               0.000000000               0.000000000               0.000000000               0.000112075               0.000991181              -0.000045848              -0.000081869               0.000357680               0.000275811               0.000000000               0.000000000               0.000000000               0.000000000               0.000085700               0.001044205              -0.000039953              -0.000098388               0.000380861               0.000282473               0.000000000               0.000000000               0.000000000               0.000000000               0.000063317               0.001096189              -0.000032313              -0.000113280               0.000403152               0.000289873               0.000000000               0.000000000               0.000000000               0.000000000               0.000042560               0.001145114              -0.000022792              -0.000127179               0.000424094               0.000296915               0.000000000               0.000000000               0.000000000               0.000000000               0.000020948               0.001188131              -0.000011908              -0.000140661               0.000442927               0.000302266               0.000000000               0.000000000               0.000000000               0.000000000               0.000015604               0.001216742              -0.000009417              -0.000146241               0.000454324               0.000308083               0.000000000               0.000000000               0.000000000               0.000000000               0.000230922               0.000656219              -0.000289301               0.000004568               0.000217215               0.000221783               0.000000000               0.000000000               0.000000000               0.000000000               0.000174855               0.000631150              -0.000194784              -0.000013323               0.000214822               0.000201499               0.000000000               0.000000000               0.000000000               0.000000000               0.000153169               0.000662222              -0.000100406              -0.000025340               0.000229185               0.000203846               0.000000000               0.000000000               0.000000000               0.000000000               0.000148560               0.000693493              -0.000062947              -0.000030977               0.000241488               0.000210511               0.000000000               0.000000000               0.000000000               0.000000000               0.000150291               0.000728450              -0.000046120              -0.000034697               0.000254380               0.000219683               0.000000000               0.000000000               0.000000000               0.000000000               0.000160707               0.000768873              -0.000043127              -0.000035844               0.000268236               0.000232392               0.000000000               0.000000000               0.000000000               0.000000000               0.000178177               0.000818332              -0.000049213              -0.000035475               0.000284600               0.000249125               0.000000000               0.000000000               0.000000000               0.000000000               0.000190276               0.000880940              -0.000056477              -0.000038764               0.000306565               0.000267801               0.000000000               0.000000000               0.000000000               0.000000000               0.000185189               0.000950304              -0.000053731              -0.000049342               0.000333212               0.000283870               0.000000000               0.000000000               0.000000000               0.000000000               0.000167562               0.001020950              -0.000050015              -0.000064783               0.000361908               0.000297125               0.000000000               0.000000000               0.000000000               0.000000000               0.000144240               0.001085856              -0.000049041              -0.000081642               0.000389162               0.000307521               0.000000000               0.000000000               0.000000000               0.000000000               0.000119061               0.001147630              -0.000044369              -0.000098806               0.000415475               0.000316669               0.000000000               0.000000000               0.000000000               0.000000000               0.000093636               0.001207131              -0.000037223              -0.000115778               0.000440965               0.000325188               0.000000000               0.000000000               0.000000000               0.000000000               0.000071546               0.001263114              -0.000028350              -0.000131059               0.000464720               0.000333661               0.000000000               0.000000000               0.000000000               0.000000000               0.000047372               0.001313415              -0.000018999              -0.000146412               0.000486605               0.000340193               0.000000000               0.000000000               0.000000000               0.000000000               0.000021791               0.001357641              -0.000010114              -0.000161533               0.000506387               0.000344854               0.000000000               0.000000000               0.000000000               0.000000000               0.000014867               0.001386544              -0.000008510              -0.000167743               0.000518091               0.000350348               0.000000000               0.000000000               0.000000000               0.000000000               0.000242073               0.000562457              -0.000274109               0.000020470               0.000180660               0.000201130               0.000000000               0.000000000               0.000000000               0.000000000               0.000174762               0.000579772              -0.000191175              -0.000006936               0.000195567               0.000188631               0.000000000               0.000000000               0.000000000               0.000000000               0.000142926               0.000653112              -0.000107316              -0.000028042               0.000227049               0.000199007               0.000000000               0.000000000               0.000000000               0.000000000               0.000139780               0.000711516              -0.000073288              -0.000036522               0.000249344               0.000212822               0.000000000               0.000000000               0.000000000               0.000000000               0.000149731               0.000773548              -0.000056894              -0.000040544               0.000271361               0.000230817               0.000000000               0.000000000               0.000000000               0.000000000               0.000172564               0.000843576              -0.000050647              -0.000040735               0.000294768               0.000254032               0.000000000               0.000000000               0.000000000               0.000000000               0.000197244               0.000919742              -0.000053740              -0.000041001               0.000320245               0.000279244               0.000000000               0.000000000               0.000000000               0.000000000               0.000207730               0.000999346              -0.000058623              -0.000047020               0.000348785               0.000301766               0.000000000               0.000000000               0.000000000               0.000000000               0.000198148               0.001083527              -0.000054993              -0.000061135               0.000381551               0.000320415               0.000000000               0.000000000               0.000000000               0.000000000               0.000176341               0.001160257              -0.000050647              -0.000078904               0.000413050               0.000334146               0.000000000               0.000000000               0.000000000               0.000000000               0.000150093               0.001228864              -0.000048560              -0.000097323               0.000442058               0.000344735               0.000000000               0.000000000               0.000000000               0.000000000               0.000124684               0.001294464              -0.000040862              -0.000115051               0.000469834               0.000354783               0.000000000               0.000000000               0.000000000               0.000000000               0.000100293               0.001358082              -0.000030844              -0.000132150               0.000496739               0.000364590               0.000000000               0.000000000               0.000000000               0.000000000               0.000075262               0.001418190              -0.000022023              -0.000149050               0.000522409               0.000373358               0.000000000               0.000000000               0.000000000               0.000000000               0.000047655               0.001472692              -0.000013200              -0.000166215               0.000546298               0.000380082               0.000000000               0.000000000               0.000000000               0.000000000               0.000021751               0.001522930              -0.000005732              -0.000182209               0.000568374               0.000386165               0.000000000               0.000000000               0.000000000               0.000000000               0.000014305               0.001556188              -0.000005687              -0.000189159               0.000581777               0.000392618               0.000000000               0.000000000               0.000000000               0.000000000               0.000244625               0.000483453              -0.000250280               0.000031302               0.000150715               0.000182017               0.000000000               0.000000000               0.000000000               0.000000000               0.000175894               0.000536135              -0.000186237              -0.000001057               0.000179062               0.000178005               0.000000000               0.000000000               0.000000000               0.000000000               0.000138651               0.000648409              -0.000117286              -0.000029057               0.000225820               0.000196763               0.000000000               0.000000000               0.000000000               0.000000000               0.000140531               0.000734744              -0.000084673              -0.000039144               0.000257960               0.000218816               0.000000000               0.000000000               0.000000000               0.000000000               0.000159058               0.000823409              -0.000067117              -0.000043279               0.000288893               0.000245614               0.000000000               0.000000000               0.000000000               0.000000000               0.000190072               0.000913490              -0.000058607              -0.000042909               0.000318797               0.000275887               0.000000000               0.000000000               0.000000000               0.000000000               0.000220283               0.001001244              -0.000058076              -0.000042549               0.000347928               0.000305379               0.000000000               0.000000000               0.000000000               0.000000000               0.000230719               0.001091206              -0.000057278              -0.000049881               0.000380359               0.000330478               0.000000000               0.000000000               0.000000000               0.000000000               0.000217523               0.001181721              -0.000053092              -0.000066144               0.000415951               0.000349807               0.000000000               0.000000000               0.000000000               0.000000000               0.000192362               0.001258546              -0.000049060              -0.000085182               0.000447905               0.000362723               0.000000000               0.000000000               0.000000000               0.000000000               0.000166178               0.001328537              -0.000044068              -0.000103750               0.000477424               0.000373674               0.000000000               0.000000000               0.000000000               0.000000000               0.000139322               0.001399021              -0.000033936              -0.000122632               0.000507213               0.000384581               0.000000000               0.000000000               0.000000000               0.000000000               0.000114708               0.001469632              -0.000022158              -0.000140688               0.000536769               0.000396080               0.000000000               0.000000000               0.000000000               0.000000000               0.000089067               0.001538213              -0.000013024              -0.000158876               0.000565691               0.000406815               0.000000000               0.000000000               0.000000000               0.000000000               0.000064250               0.001604349              -0.000005812              -0.000176450               0.000593594               0.000417145               0.000000000               0.000000000               0.000000000               0.000000000               0.000045440               0.001667186               0.000000729              -0.000191358               0.000619509               0.000428151               0.000000000               0.000000000               0.000000000               0.000000000               0.000037423               0.001703368               0.000002312              -0.000198887               0.000634079               0.000435192               0.000000000               0.000000000               0.000000000               0.000000000               0.000239633               0.000401360              -0.000226065               0.000039692               0.000120555               0.000160246               0.000000000               0.000000000               0.000000000               0.000000000               0.000178357               0.000477837              -0.000183217               0.000007154               0.000156892               0.000164047               0.000000000               0.000000000               0.000000000               0.000000000               0.000143537               0.000620519              -0.000133830              -0.000023739               0.000214750               0.000191012               0.000000000               0.000000000               0.000000000               0.000000000               0.000151077               0.000733324              -0.000104852              -0.000035011               0.000256109               0.000221098               0.000000000               0.000000000               0.000000000               0.000000000               0.000173010               0.000839771              -0.000086091              -0.000040092               0.000293285               0.000253193               0.000000000               0.000000000               0.000000000               0.000000000               0.000205164               0.000944676              -0.000075430              -0.000041148               0.000328605               0.000287457               0.000000000               0.000000000               0.000000000               0.000000000               0.000235509               0.001039021              -0.000066582              -0.000041562               0.000360191               0.000318629               0.000000000               0.000000000               0.000000000               0.000000000               0.000250409               0.001123436              -0.000057968              -0.000046526               0.000389984               0.000343458               0.000000000               0.000000000               0.000000000               0.000000000               0.000243770               0.001206419              -0.000052442              -0.000059389               0.000421932               0.000362543               0.000000000               0.000000000               0.000000000               0.000000000               0.000223560               0.001284959              -0.000049089              -0.000076785               0.000453910               0.000377126               0.000000000               0.000000000               0.000000000               0.000000000               0.000200138               0.001355849              -0.000042809              -0.000094429               0.000483421               0.000388992               0.000000000               0.000000000               0.000000000               0.000000000               0.000175676               0.001426396              -0.000033867              -0.000112421               0.000512934               0.000400513               0.000000000               0.000000000               0.000000000               0.000000000               0.000154147               0.001500929              -0.000025006              -0.000129811               0.000543575               0.000413764               0.000000000               0.000000000               0.000000000               0.000000000               0.000135113               0.001579615              -0.000015408              -0.000146784               0.000575461               0.000428677               0.000000000               0.000000000               0.000000000               0.000000000               0.000114024               0.001654205              -0.000007599              -0.000164016               0.000606068               0.000442052               0.000000000               0.000000000               0.000000000               0.000000000               0.000097590               0.001729445              -0.000002799              -0.000179584               0.000636337               0.000456753               0.000000000               0.000000000               0.000000000               0.000000000               0.000085982               0.001766674               0.000001539              -0.000188591               0.000651749               0.000463158               0.000000000               0.000000000               0.000000000               0.000000000               0.000228521               0.000320912              -0.000196584               0.000045581               0.000091776               0.000137357               0.000000000               0.000000000               0.000000000               0.000000000               0.000182509               0.000417449              -0.000177591               0.000016259               0.000133728               0.000149988               0.000000000               0.000000000               0.000000000               0.000000000               0.000158573               0.000584829              -0.000150713              -0.000013639               0.000199487               0.000185848               0.000000000               0.000000000               0.000000000               0.000000000               0.000168869               0.000715818              -0.000126097              -0.000026151               0.000247321               0.000221169               0.000000000               0.000000000               0.000000000               0.000000000               0.000188701               0.000835453              -0.000105484              -0.000033669               0.000289705               0.000256036               0.000000000               0.000000000               0.000000000               0.000000000               0.000213997               0.000950689              -0.000089509              -0.000038587               0.000329756               0.000291168               0.000000000               0.000000000               0.000000000               0.000000000               0.000239206               0.001045385              -0.000073992              -0.000040971               0.000362115               0.000321144               0.000000000               0.000000000               0.000000000               0.000000000               0.000260008               0.001125053              -0.000059178              -0.000043128               0.000389390               0.000346262               0.000000000               0.000000000               0.000000000               0.000000000               0.000267538               0.001205535              -0.000049595              -0.000050365               0.000418629               0.000368264               0.000000000               0.000000000               0.000000000               0.000000000               0.000260009               0.001287641              -0.000046237              -0.000063452               0.000450360               0.000386908               0.000000000               0.000000000               0.000000000               0.000000000               0.000245072               0.001363465              -0.000041874              -0.000078531               0.000480661               0.000402130               0.000000000               0.000000000               0.000000000               0.000000000               0.000229493               0.001435637              -0.000037283              -0.000093395               0.000509672               0.000416278               0.000000000               0.000000000               0.000000000               0.000000000               0.000212668               0.001507836              -0.000032015              -0.000108729               0.000538850               0.000430121               0.000000000               0.000000000               0.000000000               0.000000000               0.000197061               0.001583817              -0.000022723              -0.000124079               0.000569293               0.000445214               0.000000000               0.000000000               0.000000000               0.000000000               0.000181171               0.001661013              -0.000013370              -0.000139687               0.000600228               0.000460541               0.000000000               0.000000000               0.000000000               0.000000000               0.000163872               0.001738364              -0.000006767              -0.000155843               0.000631396               0.000475553               0.000000000               0.000000000               0.000000000               0.000000000               0.000145668               0.001769250               0.000000368              -0.000166530               0.000645254               0.000478724               0.000000000               0.000000000               0.000000000               0.000000000               0.000206634               0.000248903              -0.000161913               0.000046374               0.000067509               0.000113883               0.000000000               0.000000000               0.000000000               0.000000000               0.000187387               0.000359101              -0.000165975               0.000025382               0.000111238               0.000136621               0.000000000               0.000000000               0.000000000               0.000000000               0.000179245               0.000539529              -0.000160531              -0.000000224               0.000179916               0.000179692               0.000000000               0.000000000               0.000000000               0.000000000               0.000190903               0.000684304              -0.000140357              -0.000013949               0.000232749               0.000218800               0.000000000               0.000000000               0.000000000               0.000000000               0.000208323               0.000818310              -0.000118801              -0.000024168               0.000280823               0.000256655               0.000000000               0.000000000               0.000000000               0.000000000               0.000227341               0.000936808              -0.000099823              -0.000031848               0.000322882               0.000291034               0.000000000               0.000000000               0.000000000               0.000000000               0.000247079               0.001031345              -0.000080592              -0.000036263               0.000355866               0.000319603               0.000000000               0.000000000               0.000000000               0.000000000               0.000267837               0.001113790              -0.000061626              -0.000038785               0.000384188               0.000345403               0.000000000               0.000000000               0.000000000               0.000000000               0.000286957               0.001199526              -0.000049054              -0.000042332               0.000413949               0.000371617               0.000000000               0.000000000               0.000000000               0.000000000               0.000295022               0.001288739              -0.000043747              -0.000050459               0.000446395               0.000395936               0.000000000               0.000000000               0.000000000               0.000000000               0.000293115               0.001374022              -0.000041555              -0.000061835               0.000478614               0.000416780               0.000000000               0.000000000               0.000000000               0.000000000               0.000286633               0.001450632              -0.000039009              -0.000073841               0.000508153               0.000434312               0.000000000               0.000000000               0.000000000               0.000000000               0.000273844               0.001518748              -0.000035115              -0.000087152               0.000535295               0.000448143               0.000000000               0.000000000               0.000000000               0.000000000               0.000260399               0.001589130              -0.000028832              -0.000100992               0.000563369               0.000462377               0.000000000               0.000000000               0.000000000               0.000000000               0.000249227               0.001666200              -0.000019798              -0.000114815               0.000593666               0.000478851               0.000000000               0.000000000               0.000000000               0.000000000               0.000233341               0.001740759              -0.000009142              -0.000130091               0.000623611               0.000493519               0.000000000               0.000000000               0.000000000               0.000000000               0.000214085               0.001768878              -0.000000223              -0.000140828               0.000636563               0.000495735               0.000000000               0.000000000               0.000000000               0.000000000               0.000178529               0.000184255              -0.000127038               0.000043916               0.000046779               0.000090695               0.000000000               0.000000000               0.000000000               0.000000000               0.000192725               0.000300777              -0.000147421               0.000034674               0.000088700               0.000123374               0.000000000               0.000000000               0.000000000               0.000000000               0.000202829               0.000485461              -0.000156552               0.000015378               0.000156693               0.000172071               0.000000000               0.000000000               0.000000000               0.000000000               0.000216339               0.000641706              -0.000141611               0.000000914               0.000213595               0.000214509               0.000000000               0.000000000               0.000000000               0.000000000               0.000233222               0.000780923              -0.000122472              -0.000010157               0.000263691               0.000253534               0.000000000               0.000000000               0.000000000               0.000000000               0.000247523               0.000898659              -0.000103118              -0.000019511               0.000306054               0.000286542               0.000000000               0.000000000               0.000000000               0.000000000               0.000261237               0.001000283              -0.000083227              -0.000027072               0.000342448               0.000315377               0.000000000               0.000000000               0.000000000               0.000000000               0.000282408               0.001098277              -0.000064558              -0.000031381               0.000376549               0.000345168               0.000000000               0.000000000               0.000000000               0.000000000               0.000307690               0.001196418              -0.000050549              -0.000034169               0.000410192               0.000376023               0.000000000               0.000000000               0.000000000               0.000000000               0.000326792               0.001292443              -0.000042026              -0.000039008               0.000443813               0.000404804               0.000000000               0.000000000               0.000000000               0.000000000               0.000334953               0.001381675              -0.000038771              -0.000047102               0.000476254               0.000429153               0.000000000               0.000000000               0.000000000               0.000000000               0.000335562               0.001459569              -0.000035626              -0.000056610               0.000505388               0.000448778               0.000000000               0.000000000               0.000000000               0.000000000               0.000331678               0.001529857              -0.000032000              -0.000066853               0.000532232               0.000465379               0.000000000               0.000000000               0.000000000               0.000000000               0.000324932               0.001597247              -0.000028937              -0.000077806               0.000558346               0.000480540               0.000000000               0.000000000               0.000000000               0.000000000               0.000317324               0.001664817              -0.000021680              -0.000089105               0.000584635               0.000495530               0.000000000               0.000000000               0.000000000               0.000000000               0.000309307               0.001735382              -0.000010786              -0.000100932               0.000612099               0.000511167               0.000000000               0.000000000               0.000000000               0.000000000               0.000297911               0.001767140              -0.000003016              -0.000109175               0.000625433               0.000516257               0.000000000               0.000000000               0.000000000               0.000000000               0.000151176               0.000133259              -0.000093060               0.000040033               0.000031075               0.000071108               0.000000000               0.000000000               0.000000000               0.000000000               0.000194547               0.000247729              -0.000120373               0.000041989               0.000068579               0.000110568               0.000000000               0.000000000               0.000000000               0.000000000               0.000225547               0.000428941              -0.000136498               0.000030962               0.000132658               0.000163620               0.000000000               0.000000000               0.000000000               0.000000000               0.000244989               0.000588839              -0.000127701               0.000018266               0.000190189               0.000208455               0.000000000               0.000000000               0.000000000               0.000000000               0.000260469               0.000728913              -0.000112033               0.000006562               0.000240782               0.000247343               0.000000000               0.000000000               0.000000000               0.000000000               0.000270578               0.000853758              -0.000094415              -0.000005253               0.000286334               0.000281081               0.000000000               0.000000000               0.000000000               0.000000000               0.000283571               0.000969983              -0.000078536              -0.000014909               0.000328294               0.000313385               0.000000000               0.000000000               0.000000000               0.000000000               0.000303825               0.001082107              -0.000064180              -0.000021329               0.000367808               0.000346480               0.000000000               0.000000000               0.000000000               0.000000000               0.000327551               0.001187736              -0.000050021              -0.000025635               0.000404453               0.000378818               0.000000000               0.000000000               0.000000000               0.000000000               0.000349313               0.001285788              -0.000037932              -0.000029731               0.000438502               0.000408771               0.000000000               0.000000000               0.000000000               0.000000000               0.000364576               0.001375681              -0.000031094              -0.000035244               0.000470304               0.000435060               0.000000000               0.000000000               0.000000000               0.000000000               0.000374661               0.001459248              -0.000027598              -0.000041908               0.000500381               0.000458473               0.000000000               0.000000000               0.000000000               0.000000000               0.000382899               0.001538270              -0.000025054              -0.000048697               0.000528984               0.000480287               0.000000000               0.000000000               0.000000000               0.000000000               0.000386177               0.001606364              -0.000022884              -0.000055979               0.000554109               0.000498130               0.000000000               0.000000000               0.000000000               0.000000000               0.000385600               0.001666764              -0.000018538              -0.000063745               0.000576831               0.000513086               0.000000000               0.000000000               0.000000000               0.000000000               0.000388597               0.001735333              -0.000011440              -0.000071192               0.000602169               0.000530977               0.000000000               0.000000000               0.000000000               0.000000000               0.000386980               0.001770854              -0.000005963              -0.000076239               0.000615692               0.000539453               0.000000000               0.000000000               0.000000000               0.000000000               0.000125908               0.000098806              -0.000060036               0.000034864               0.000021313               0.000056178               0.000000000               0.000000000               0.000000000               0.000000000               0.000193208               0.000203963              -0.000085234               0.000046957               0.000052334               0.000099292               0.000000000               0.000000000               0.000000000               0.000000000               0.000244737               0.000375632              -0.000101885               0.000044822               0.000110269               0.000155091               0.000000000               0.000000000               0.000000000               0.000000000               0.000269806               0.000536499              -0.000097128               0.000034115               0.000167460               0.000201574               0.000000000               0.000000000               0.000000000               0.000000000               0.000282990               0.000680656              -0.000085231               0.000021039               0.000219870               0.000240909               0.000000000               0.000000000               0.000000000               0.000000000               0.000295341               0.000813921              -0.000073517               0.000009013               0.000268300               0.000277313               0.000000000               0.000000000               0.000000000               0.000000000               0.000309552               0.000940898              -0.000063454              -0.000001530               0.000314140               0.000312609               0.000000000               0.000000000               0.000000000               0.000000000               0.000326095               0.001060738              -0.000052315              -0.000010307               0.000357011               0.000346705               0.000000000               0.000000000               0.000000000               0.000000000               0.000344533               0.001169360              -0.000039399              -0.000016970               0.000395440               0.000378469               0.000000000               0.000000000               0.000000000               0.000000000               0.000365170               0.001269662              -0.000028033              -0.000021769               0.000430473               0.000408704               0.000000000               0.000000000               0.000000000               0.000000000               0.000386143               0.001363783              -0.000021503              -0.000025669               0.000463146               0.000437477               0.000000000               0.000000000               0.000000000               0.000000000               0.000406128               0.001456337              -0.000018568              -0.000029744               0.000495356               0.000465611               0.000000000               0.000000000               0.000000000               0.000000000               0.000423261               0.001541057              -0.000016321              -0.000033909               0.000524984               0.000491075               0.000000000               0.000000000               0.000000000               0.000000000               0.000434583               0.001609569              -0.000013525              -0.000038228               0.000549260               0.000511033               0.000000000               0.000000000               0.000000000               0.000000000               0.000443515               0.001671004              -0.000011059              -0.000042557               0.000571181               0.000528624               0.000000000               0.000000000               0.000000000               0.000000000               0.000455531               0.001738257              -0.000007598              -0.000046458               0.000594899               0.000548441               0.000000000               0.000000000               0.000000000               0.000000000               0.000460860               0.001773248              -0.000004322              -0.000048834               0.000607355               0.000558521               0.000000000               0.000000000               0.000000000               0.000000000               0.000108762               0.000077575              -0.000027939               0.000031088               0.000015495               0.000046584               0.000000000               0.000000000               0.000000000               0.000000000               0.000192910               0.000174689              -0.000043342               0.000050504               0.000041394               0.000091899               0.000000000               0.000000000               0.000000000               0.000000000               0.000256772               0.000338393              -0.000054676               0.000053990               0.000094800               0.000148790               0.000000000               0.000000000               0.000000000               0.000000000               0.000285013               0.000498411              -0.000052426               0.000044578               0.000151276               0.000195854               0.000000000               0.000000000               0.000000000               0.000000000               0.000300950               0.000646716              -0.000046260               0.000032016               0.000204898               0.000236914               0.000000000               0.000000000               0.000000000               0.000000000               0.000315540               0.000786735              -0.000041068               0.000019985               0.000255581               0.000275566               0.000000000               0.000000000               0.000000000               0.000000000               0.000327882               0.000917507              -0.000035570               0.000008267               0.000303077               0.000311344               0.000000000               0.000000000               0.000000000               0.000000000               0.000340401               0.001038461              -0.000028904              -0.000002157               0.000346869               0.000344712               0.000000000               0.000000000               0.000000000               0.000000000               0.000357031               0.001151449              -0.000021531              -0.000010044               0.000387161               0.000377116               0.000000000               0.000000000               0.000000000               0.000000000               0.000378874               0.001258103              -0.000015110              -0.000015185               0.000424425               0.000409240               0.000000000               0.000000000               0.000000000               0.000000000               0.000402230               0.001355254              -0.000011026              -0.000018570               0.000457937               0.000439367               0.000000000               0.000000000               0.000000000               0.000000000               0.000426133               0.001450384              -0.000008822              -0.000021498               0.000490622               0.000469124               0.000000000               0.000000000               0.000000000               0.000000000               0.000447284               0.001536639              -0.000006959              -0.000024348               0.000520324               0.000495976               0.000000000               0.000000000               0.000000000               0.000000000               0.000463878               0.001607488              -0.000004984              -0.000026982               0.000544818               0.000517836               0.000000000               0.000000000               0.000000000               0.000000000               0.000479925               0.001674449              -0.000003978              -0.000029334               0.000567922               0.000538588               0.000000000               0.000000000               0.000000000               0.000000000               0.000496589               0.001741616              -0.000002814              -0.000031481               0.000591027               0.000559545               0.000000000               0.000000000               0.000000000               0.000000000               0.000504455               0.001774422              -0.000001435              -0.000032632               0.000602345               0.000569713               0.000000000               0.000000000               0.000000000               0.000000000               0.000103425               0.000070572               0.000000000               0.000029963               0.000013536               0.000043499               0.000000000               0.000000000               0.000000000               0.000000000               0.000193496               0.000165766               0.000000000               0.000051840               0.000037975               0.000089815               0.000000000               0.000000000               0.000000000               0.000000000               0.000260578               0.000326584              -0.000000000               0.000056893               0.000089896               0.000146789               0.000000000               0.000000000               0.000000000               0.000000000               0.000290079               0.000483783               0.000000000               0.000048306               0.000145157               0.000193463               0.000000000               0.000000000               0.000000000               0.000000000               0.000309324               0.000634158              -0.000000000               0.000036727               0.000199142               0.000235868               0.000000000               0.000000000               0.000000000               0.000000000               0.000322298               0.000777355              -0.000000000               0.000023692               0.000251219               0.000274911               0.000000000               0.000000000               0.000000000               0.000000000               0.000333298               0.000907823               0.000000000               0.000011509               0.000298769               0.000310277               0.000000000               0.000000000               0.000000000               0.000000000               0.000345993               0.001029887              -0.000000000               0.000001011               0.000342955               0.000343966               0.000000000               0.000000000               0.000000000               0.000000000               0.000362888               0.001146019              -0.000000000              -0.000007169               0.000384392               0.000377223               0.000000000               0.000000000               0.000000000               0.000000000               0.000384110               0.001252939               0.000000000              -0.000012576               0.000421834               0.000409258               0.000000000               0.000000000               0.000000000               0.000000000               0.000407309               0.001349857              -0.000000000              -0.000015991               0.000455278               0.000439287               0.000000000               0.000000000               0.000000000               0.000000000               0.000432573               0.001447104              -0.000000000              -0.000018673               0.000488588               0.000469914               0.000000000               0.000000000               0.000000000               0.000000000               0.000455309               0.001534713               0.000000000              -0.000021098               0.000518599               0.000497500               0.000000000               0.000000000               0.000000000               0.000000000               0.000473733               0.001606508               0.000000000              -0.000023164               0.000543219               0.000520055               0.000000000               0.000000000               0.000000000               0.000000000               0.000491842               0.001675874              -0.000000000              -0.000025043               0.000566967               0.000541924               0.000000000               0.000000000               0.000000000               0.000000000               0.000509295               0.001743136              -0.000000000              -0.000026906               0.000590008               0.000563102               0.000000000               0.000000000               0.000000000               0.000000000               0.000517155               0.001774839              -0.000000000              -0.000027922               0.000600914               0.000572993               0.000000000               0.000000000               0.000000000               0.000000000               0.000000000               0.000000000               0.000000000               0.000000000               0.000000000               0.000000000               0.000000000               0.000000000               0.000000000               0.000000000               0.000000000               0.000000000               0.000000000               0.000000000               0.000000000               0.000000000               0.000000000               0.000000000               0.000000000               0.000000000               0.000000000               0.000000000               0.000000000               0.000000000               0.000000000               0.000000000               0.000000000               0.000000000               0.000000000               0.000000000               0.000000000               0.000000000               0.000000000               0.000000000               0.000000000               0.000000000               0.000000000               0.000000000               0.000000000               0.000000000               0.000000000               0.000000000               0.000000000               0.000000000               0.000000000               0.000000000               0.000000000               0.000000000               0.000000000               0.000000000               0.000000000               0.000000000               0.000000000               0.000000000               0.000000000               0.000000000               0.000000000               0.000000000               0.000000000               0.000000000               0.000000000               0.000000000               0.000000000               0.000000000               0.000000000               0.000000000               0.000000000               0.000000000               0.000000000               0.000000000               0.000000000               0.000000000               0.000000000               0.000000000               0.000000000               0.000000000               0.000000000               0.000000000               0.000000000               0.000000000               0.000000000               0.000000000               0.000000000               0.000000000               0.000000000               0.000000000               0.000000000               0.000000000               0.000000000               0.000000000               0.000000000               0.000000000               0.000000000               0.000000000               0.000000000               0.000000000               0.000000000               0.000000000               0.000000000               0.000000000               0.000000000               0.000000000               0.000000000               0.000000000               0.000000000               0.000000000               0.000000000               0.000000000               0.000000000               0.000000000               0.000000000               0.000000000               0.000000000               0.000000000               0.000000000               0.000000000               0.000000000               0.000000000               0.000000000               0.000000000               0.000000000               0.000000000               0.000000000               0.000000000               0.000000000               0.000000000               0.000000000               0.000000000               0.000000000               0.000000000               0.000000000               0.000000000               0.000000000               0.000000000               0.000000000               0.000000000               0.000000000               0.000000000               0.000000000               0.000000000               0.000000000               0.000000000               0.000000000               0.000000000               0.000000000               0.000000000               0.000000000               0.000000000               0.000000000               0.000000000               0.000000000               0.000000000               0.000000000               0.000000000               0.000000000               0.000000000               0.000000000               0.000000000               0.000000000               0.000000000               0.000000000               0.000000000               0.000000000               0.000000000               0.000000000               0.000000000               0.000000000               0.000000000               0.000000000               0.000000000               0.000107970               0.001047051               0.000082381              -0.000090392               0.000379144               0.000288752               0.000000000               0.000000000               0.000000000               0.000000000               0.000127789               0.000893042               0.000056392              -0.000063709               0.000318914               0.000255205               0.000000000               0.000000000               0.000000000               0.000000000               0.000184400               0.000777549               0.000028274              -0.000028044               0.000268528               0.000240485               0.000000000               0.000000000               0.000000000               0.000000000               0.000208759               0.000719841               0.000013792              -0.000011695               0.000243843               0.000232148               0.000000000               0.000000000               0.000000000               0.000000000               0.000218469               0.000692428               0.000005153              -0.000004628               0.000232350               0.000227722               0.000000000               0.000000000               0.000000000               0.000000000               0.000218392               0.000680923               0.000002293              -0.000003219               0.000228045               0.000224827               0.000000000               0.000000000               0.000000000               0.000000000               0.000215550               0.000674413               0.000005426              -0.000003470               0.000225959               0.000222489               0.000000000               0.000000000               0.000000000               0.000000000               0.000217740               0.000664451               0.000013600              -0.000001404               0.000221949               0.000220546               0.000000000               0.000000000               0.000000000               0.000000000               0.000220652               0.000649157               0.000018649               0.000001600               0.000215850               0.000217450               0.000000000               0.000000000               0.000000000               0.000000000               0.000214658               0.000638039               0.000018440               0.000000742               0.000212430               0.000213172               0.000000000               0.000000000               0.000000000               0.000000000               0.000200062               0.000632646               0.000019021              -0.000004058               0.000212232               0.000208175               0.000000000               0.000000000               0.000000000               0.000000000               0.000180873               0.000634167               0.000018006              -0.000011443               0.000215201               0.000203758               0.000000000               0.000000000               0.000000000               0.000000000               0.000154154               0.000642866               0.000015466              -0.000022550               0.000221803               0.000199253               0.000000000               0.000000000               0.000000000               0.000000000               0.000121007               0.000657927               0.000013108              -0.000036863               0.000231595               0.000194731               0.000000000               0.000000000               0.000000000               0.000000000               0.000084437               0.000679281               0.000009935              -0.000053246               0.000244173               0.000190927               0.000000000               0.000000000               0.000000000               0.000000000               0.000043370               0.000705391               0.000005532              -0.000071910               0.000259098               0.000187188               0.000000000               0.000000000               0.000000000               0.000000000               0.000025115               0.000728149               0.000003893              -0.000081600               0.000269914               0.000188314               0.000000000               0.000000000               0.000000000               0.000000000               0.000127044               0.001005473               0.000157622              -0.000078042               0.000361168               0.000283126               0.000000000               0.000000000               0.000000000               0.000000000               0.000136488               0.000859555               0.000107295              -0.000056261               0.000305269               0.000249008               0.000000000               0.000000000               0.000000000               0.000000000               0.000184060               0.000759677               0.000053801              -0.000025937               0.000261869               0.000235932               0.000000000               0.000000000               0.000000000               0.000000000               0.000203726               0.000710402               0.000026322              -0.000012403               0.000240933               0.000228530               0.000000000               0.000000000               0.000000000               0.000000000               0.000210039               0.000689439               0.000011364              -0.000007415               0.000232282               0.000224867               0.000000000               0.000000000               0.000000000               0.000000000               0.000209119               0.000681750               0.000005947              -0.000006799               0.000229514               0.000222715               0.000000000               0.000000000               0.000000000               0.000000000               0.000207702               0.000678727               0.000011550              -0.000006953               0.000228558               0.000221605               0.000000000               0.000000000               0.000000000               0.000000000               0.000205301               0.000671189               0.000025790              -0.000006911               0.000226031               0.000219120               0.000000000               0.000000000               0.000000000               0.000000000               0.000200660               0.000664929               0.000033291              -0.000007869               0.000224264               0.000216395               0.000000000               0.000000000               0.000000000               0.000000000               0.000190472               0.000665048               0.000032544              -0.000011704               0.000225582               0.000213878               0.000000000               0.000000000               0.000000000               0.000000000               0.000174955               0.000668523               0.000032387              -0.000017957               0.000228824               0.000210867               0.000000000               0.000000000               0.000000000               0.000000000               0.000155510               0.000676412               0.000029653              -0.000026235               0.000234214               0.000207978               0.000000000               0.000000000               0.000000000               0.000000000               0.000129982               0.000687816               0.000024979              -0.000037234               0.000241681               0.000204447               0.000000000               0.000000000               0.000000000               0.000000000               0.000100680               0.000703029               0.000019991              -0.000050123               0.000251049               0.000200925               0.000000000               0.000000000               0.000000000               0.000000000               0.000070652               0.000723083               0.000013892              -0.000063891               0.000262322               0.000198431               0.000000000               0.000000000               0.000000000               0.000000000               0.000037233               0.000746578               0.000006970              -0.000079360               0.000275310               0.000195951               0.000000000               0.000000000               0.000000000               0.000000000               0.000022931               0.000766843               0.000005212              -0.000087256               0.000284697               0.000197441               0.000000000               0.000000000               0.000000000               0.000000000               0.000153425               0.000935213               0.000221231              -0.000059367               0.000331524               0.000272156               0.000000000               0.000000000               0.000000000               0.000000000               0.000148278               0.000811858               0.000148320              -0.000045878               0.000285909               0.000240031               0.000000000               0.000000000               0.000000000               0.000000000               0.000181349               0.000734499               0.000073188              -0.000023807               0.000252766               0.000228959               0.000000000               0.000000000               0.000000000               0.000000000               0.000194293               0.000698502               0.000036884              -0.000014453               0.000237649               0.000223196               0.000000000               0.000000000               0.000000000               0.000000000               0.000197204               0.000687372               0.000017343              -0.000011970               0.000233112               0.000221142               0.000000000               0.000000000               0.000000000               0.000000000               0.000195423               0.000685489               0.000011501              -0.000012402               0.000232628               0.000220226               0.000000000               0.000000000               0.000000000               0.000000000               0.000194786               0.000685317               0.000020455              -0.000012620               0.000232644               0.000220024               0.000000000               0.000000000               0.000000000               0.000000000               0.000191612               0.000685244               0.000036999              -0.000013801               0.000233013               0.000219212               0.000000000               0.000000000               0.000000000               0.000000000               0.000184167               0.000693932               0.000043110              -0.000017679               0.000237201               0.000219523               0.000000000               0.000000000               0.000000000               0.000000000               0.000171303               0.000709733               0.000041218              -0.000024478               0.000244735               0.000220257               0.000000000               0.000000000               0.000000000               0.000000000               0.000150608               0.000727466               0.000041528              -0.000034455               0.000253971               0.000219516               0.000000000               0.000000000               0.000000000               0.000000000               0.000126116               0.000747202               0.000038898              -0.000046107               0.000264434               0.000218327               0.000000000               0.000000000               0.000000000               0.000000000               0.000100666               0.000768541               0.000033903              -0.000058318               0.000275617               0.000217299               0.000000000               0.000000000               0.000000000               0.000000000               0.000074764               0.000791460               0.000027979              -0.000070896               0.000287449               0.000216553               0.000000000               0.000000000               0.000000000               0.000000000               0.000051549               0.000817456               0.000020122              -0.000082851               0.000300100               0.000217249               0.000000000               0.000000000               0.000000000               0.000000000               0.000027885               0.000846022               0.000010642              -0.000095296               0.000313770               0.000218474               0.000000000               0.000000000               0.000000000               0.000000000               0.000019549               0.000868821               0.000008182              -0.000101271               0.000323361               0.000222090               0.000000000               0.000000000               0.000000000               0.000000000               0.000187964               0.000850039               0.000263143              -0.000035768               0.000295266               0.000259498               0.000000000               0.000000000               0.000000000               0.000000000               0.000162722               0.000754114               0.000175705              -0.000033243               0.000262450               0.000229206               0.000000000               0.000000000               0.000000000               0.000000000               0.000174649               0.000707396               0.000087284              -0.000022931               0.000243440               0.000220509               0.000000000               0.000000000               0.000000000               0.000000000               0.000180224               0.000690180               0.000045659              -0.000018688               0.000236287               0.000217599               0.000000000               0.000000000               0.000000000               0.000000000               0.000180941               0.000690438               0.000025109              -0.000018452               0.000236294               0.000217843               0.000000000               0.000000000               0.000000000               0.000000000               0.000179003               0.000694799               0.000020425              -0.000019724               0.000238172               0.000218448               0.000000000               0.000000000               0.000000000               0.000000000               0.000183161               0.000703490               0.000030607              -0.000019251               0.000240911               0.000221660               0.000000000               0.000000000               0.000000000               0.000000000               0.000184927               0.000716073               0.000046657              -0.000020161               0.000245409               0.000225248               0.000000000               0.000000000               0.000000000               0.000000000               0.000177826               0.000742978               0.000051394              -0.000026187               0.000256386               0.000230199               0.000000000               0.000000000               0.000000000               0.000000000               0.000160704               0.000776356               0.000048676              -0.000036780               0.000271043               0.000234263               0.000000000               0.000000000               0.000000000               0.000000000               0.000136632               0.000812971               0.000048384              -0.000050384               0.000287782               0.000237398               0.000000000               0.000000000               0.000000000               0.000000000               0.000111235               0.000851534               0.000045628              -0.000064728               0.000305418               0.000240690               0.000000000               0.000000000               0.000000000               0.000000000               0.000084959               0.000890087               0.000040328              -0.000079401               0.000323160               0.000243759               0.000000000               0.000000000               0.000000000               0.000000000               0.000060771               0.000929025               0.000033509              -0.000093339               0.000340785               0.000247446               0.000000000               0.000000000               0.000000000               0.000000000               0.000041041               0.000968186               0.000023959              -0.000105633               0.000357937               0.000252304               0.000000000               0.000000000               0.000000000               0.000000000               0.000021230               0.001005733               0.000012560              -0.000117755               0.000374493               0.000256737               0.000000000               0.000000000               0.000000000               0.000000000               0.000015834               0.001031997               0.000009579              -0.000123061               0.000385016               0.000261955               0.000000000               0.000000000               0.000000000               0.000000000               0.000213940               0.000755805               0.000285303              -0.000014249               0.000256682               0.000242433               0.000000000               0.000000000               0.000000000               0.000000000               0.000171971               0.000690789               0.000190835              -0.000021860               0.000237547               0.000215688               0.000000000               0.000000000               0.000000000               0.000000000               0.000165508               0.000681089               0.000095280              -0.000023071               0.000234718               0.000211647               0.000000000               0.000000000               0.000000000               0.000000000               0.000163206               0.000687070               0.000053609              -0.000024681               0.000237248               0.000212567               0.000000000               0.000000000               0.000000000               0.000000000               0.000162198               0.000702657               0.000035355              -0.000027008               0.000243219               0.000216211               0.000000000               0.000000000               0.000000000               0.000000000               0.000166975               0.000720737               0.000031490              -0.000027476               0.000249402               0.000221926               0.000000000               0.000000000               0.000000000               0.000000000               0.000175948               0.000742575               0.000041672              -0.000026841               0.000256470               0.000229628               0.000000000               0.000000000               0.000000000               0.000000000               0.000181118               0.000777299               0.000054582              -0.000029243               0.000268845               0.000239602               0.000000000               0.000000000               0.000000000               0.000000000               0.000178085               0.000827683               0.000054769              -0.000036678               0.000288118               0.000251439               0.000000000               0.000000000               0.000000000               0.000000000               0.000163087               0.000883319               0.000050952              -0.000049257               0.000310856               0.000261599               0.000000000               0.000000000               0.000000000               0.000000000               0.000138979               0.000937307               0.000049241              -0.000065046               0.000334115               0.000269068               0.000000000               0.000000000               0.000000000               0.000000000               0.000112075               0.000991181               0.000045848              -0.000081869               0.000357680               0.000275811               0.000000000               0.000000000               0.000000000               0.000000000               0.000085700               0.001044205               0.000039953              -0.000098388               0.000380861               0.000282473               0.000000000               0.000000000               0.000000000               0.000000000               0.000063317               0.001096189               0.000032313              -0.000113280               0.000403152               0.000289873               0.000000000               0.000000000               0.000000000               0.000000000               0.000042560               0.001145114               0.000022792              -0.000127179               0.000424094               0.000296915               0.000000000               0.000000000               0.000000000               0.000000000               0.000020948               0.001188131               0.000011908              -0.000140661               0.000442927               0.000302266               0.000000000               0.000000000               0.000000000               0.000000000               0.000015604               0.001216742               0.000009417              -0.000146241               0.000454324               0.000308083               0.000000000               0.000000000               0.000000000               0.000000000               0.000230922               0.000656219               0.000289301               0.000004568               0.000217215               0.000221783               0.000000000               0.000000000               0.000000000               0.000000000               0.000174855               0.000631150               0.000194784              -0.000013323               0.000214822               0.000201499               0.000000000               0.000000000               0.000000000               0.000000000               0.000153169               0.000662222               0.000100406              -0.000025340               0.000229185               0.000203846               0.000000000               0.000000000               0.000000000               0.000000000               0.000148560               0.000693493               0.000062947              -0.000030977               0.000241488               0.000210511               0.000000000               0.000000000               0.000000000               0.000000000               0.000150291               0.000728450               0.000046120              -0.000034697               0.000254380               0.000219683               0.000000000               0.000000000               0.000000000               0.000000000               0.000160707               0.000768873               0.000043127              -0.000035844               0.000268236               0.000232392               0.000000000               0.000000000               0.000000000               0.000000000               0.000178177               0.000818332               0.000049213              -0.000035475               0.000284600               0.000249125               0.000000000               0.000000000               0.000000000               0.000000000               0.000190276               0.000880940               0.000056477              -0.000038764               0.000306565               0.000267801               0.000000000               0.000000000               0.000000000               0.000000000               0.000185189               0.000950304               0.000053731              -0.000049342               0.000333212               0.000283870               0.000000000               0.000000000               0.000000000               0.000000000               0.000167562               0.001020950               0.000050015              -0.000064783               0.000361908               0.000297125               0.000000000               0.000000000               0.000000000               0.000000000               0.000144240               0.001085856               0.000049041              -0.000081642               0.000389162               0.000307521               0.000000000               0.000000000               0.000000000               0.000000000               0.000119061               0.001147630               0.000044369              -0.000098806               0.000415475               0.000316669               0.000000000               0.000000000               0.000000000               0.000000000               0.000093636               0.001207131               0.000037223              -0.000115778               0.000440965               0.000325188               0.000000000               0.000000000               0.000000000               0.000000000               0.000071546               0.001263114               0.000028350              -0.000131059               0.000464720               0.000333661               0.000000000               0.000000000               0.000000000               0.000000000               0.000047372               0.001313415               0.000018999              -0.000146412               0.000486605               0.000340193               0.000000000               0.000000000               0.000000000               0.000000000               0.000021791               0.001357641               0.000010114              -0.000161533               0.000506387               0.000344854               0.000000000               0.000000000               0.000000000               0.000000000               0.000014867               0.001386544               0.000008510              -0.000167743               0.000518091               0.000350348               0.000000000               0.000000000               0.000000000               0.000000000               0.000242073               0.000562457               0.000274109               0.000020470               0.000180660               0.000201130               0.000000000               0.000000000               0.000000000               0.000000000               0.000174762               0.000579772               0.000191175              -0.000006936               0.000195567               0.000188631               0.000000000               0.000000000               0.000000000               0.000000000               0.000142926               0.000653112               0.000107316              -0.000028042               0.000227049               0.000199007               0.000000000               0.000000000               0.000000000               0.000000000               0.000139780               0.000711516               0.000073288              -0.000036522               0.000249344               0.000212822               0.000000000               0.000000000               0.000000000               0.000000000               0.000149731               0.000773548               0.000056894              -0.000040544               0.000271361               0.000230817               0.000000000               0.000000000               0.000000000               0.000000000               0.000172564               0.000843576               0.000050647              -0.000040735               0.000294768               0.000254032               0.000000000               0.000000000               0.000000000               0.000000000               0.000197244               0.000919742               0.000053740              -0.000041001               0.000320245               0.000279244               0.000000000               0.000000000               0.000000000               0.000000000               0.000207730               0.000999346               0.000058623              -0.000047020               0.000348785               0.000301766               0.000000000               0.000000000               0.000000000               0.000000000               0.000198148               0.001083527               0.000054993              -0.000061135               0.000381551               0.000320415               0.000000000               0.000000000               0.000000000               0.000000000               0.000176341               0.001160257               0.000050647              -0.000078904               0.000413050               0.000334146               0.000000000               0.000000000               0.000000000               0.000000000               0.000150093               0.001228864               0.000048560              -0.000097323               0.000442058               0.000344735               0.000000000               0.000000000               0.000000000               0.000000000               0.000124684               0.001294464               0.000040862              -0.000115051               0.000469834               0.000354783               0.000000000               0.000000000               0.000000000               0.000000000               0.000100293               0.001358082               0.000030844              -0.000132150               0.000496739               0.000364590               0.000000000               0.000000000               0.000000000               0.000000000               0.000075262               0.001418190               0.000022023              -0.000149050               0.000522409               0.000373358               0.000000000               0.000000000               0.000000000               0.000000000               0.000047655               0.001472692               0.000013200              -0.000166215               0.000546298               0.000380082               0.000000000               0.000000000               0.000000000               0.000000000               0.000021751               0.001522930               0.000005732              -0.000182209               0.000568374               0.000386165               0.000000000               0.000000000               0.000000000               0.000000000               0.000014305               0.001556188               0.000005687              -0.000189159               0.000581777               0.000392618               0.000000000               0.000000000               0.000000000               0.000000000               0.000244625               0.000483453               0.000250280               0.000031302               0.000150715               0.000182017               0.000000000               0.000000000               0.000000000               0.000000000               0.000175894               0.000536135               0.000186237              -0.000001057               0.000179062               0.000178005               0.000000000               0.000000000               0.000000000               0.000000000               0.000138651               0.000648409               0.000117286              -0.000029057               0.000225820               0.000196763               0.000000000               0.000000000               0.000000000               0.000000000               0.000140531               0.000734744               0.000084673              -0.000039144               0.000257960               0.000218816               0.000000000               0.000000000               0.000000000               0.000000000               0.000159058               0.000823409               0.000067117              -0.000043279               0.000288893               0.000245614               0.000000000               0.000000000               0.000000000               0.000000000               0.000190072               0.000913490               0.000058607              -0.000042909               0.000318797               0.000275887               0.000000000               0.000000000               0.000000000               0.000000000               0.000220283               0.001001244               0.000058076              -0.000042549               0.000347928               0.000305379               0.000000000               0.000000000               0.000000000               0.000000000               0.000230719               0.001091206               0.000057278              -0.000049881               0.000380359               0.000330478               0.000000000               0.000000000               0.000000000               0.000000000               0.000217523               0.001181721               0.000053092              -0.000066144               0.000415951               0.000349807               0.000000000               0.000000000               0.000000000               0.000000000               0.000192362               0.001258546               0.000049060              -0.000085182               0.000447905               0.000362723               0.000000000               0.000000000               0.000000000               0.000000000               0.000166178               0.001328537               0.000044068              -0.000103750               0.000477424               0.000373674               0.000000000               0.000000000               0.000000000               0.000000000               0.000139322               0.001399021               0.000033936              -0.000122632               0.000507213               0.000384581               0.000000000               0.000000000               0.000000000               0.000000000               0.000114708               0.001469632               0.000022158              -0.000140688               0.000536769               0.000396080               0.000000000               0.000000000               0.000000000               0.000000000               0.000089067               0.001538213               0.000013024              -0.000158876               0.000565691               0.000406815               0.000000000               0.000000000               0.000000000               0.000000000               0.000064250               0.001604349               0.000005812              -0.000176450               0.000593594               0.000417145               0.000000000               0.000000000               0.000000000               0.000000000               0.000045440               0.001667186              -0.000000729              -0.000191358               0.000619509               0.000428151               0.000000000               0.000000000               0.000000000               0.000000000               0.000037423               0.001703368              -0.000002312              -0.000198887               0.000634079               0.000435192               0.000000000               0.000000000               0.000000000               0.000000000               0.000239633               0.000401360               0.000226065               0.000039692               0.000120555               0.000160246               0.000000000               0.000000000               0.000000000               0.000000000               0.000178357               0.000477837               0.000183217               0.000007154               0.000156892               0.000164047               0.000000000               0.000000000               0.000000000               0.000000000               0.000143537               0.000620519               0.000133830              -0.000023739               0.000214750               0.000191012               0.000000000               0.000000000               0.000000000               0.000000000               0.000151077               0.000733324               0.000104852              -0.000035011               0.000256109               0.000221098               0.000000000               0.000000000               0.000000000               0.000000000               0.000173010               0.000839771               0.000086091              -0.000040092               0.000293285               0.000253193               0.000000000               0.000000000               0.000000000               0.000000000               0.000205164               0.000944676               0.000075430              -0.000041148               0.000328605               0.000287457               0.000000000               0.000000000               0.000000000               0.000000000               0.000235509               0.001039021               0.000066582              -0.000041562               0.000360191               0.000318629               0.000000000               0.000000000               0.000000000               0.000000000               0.000250409               0.001123436               0.000057968              -0.000046526               0.000389984               0.000343458               0.000000000               0.000000000               0.000000000               0.000000000               0.000243770               0.001206419               0.000052442              -0.000059389               0.000421932               0.000362543               0.000000000               0.000000000               0.000000000               0.000000000               0.000223560               0.001284959               0.000049089              -0.000076785               0.000453910               0.000377126               0.000000000               0.000000000               0.000000000               0.000000000               0.000200138               0.001355849               0.000042809              -0.000094429               0.000483421               0.000388992               0.000000000               0.000000000               0.000000000               0.000000000               0.000175676               0.001426396               0.000033867              -0.000112421               0.000512934               0.000400513               0.000000000               0.000000000               0.000000000               0.000000000               0.000154147               0.001500929               0.000025006              -0.000129811               0.000543575               0.000413764               0.000000000               0.000000000               0.000000000               0.000000000               0.000135113               0.001579615               0.000015408              -0.000146784               0.000575461               0.000428677               0.000000000               0.000000000               0.000000000               0.000000000               0.000114024               0.001654205               0.000007599              -0.000164016               0.000606068               0.000442052               0.000000000               0.000000000               0.000000000               0.000000000               0.000097590               0.001729445               0.000002799              -0.000179584               0.000636337               0.000456753               0.000000000               0.000000000               0.000000000               0.000000000               0.000085982               0.001766674              -0.000001539              -0.000188591               0.000651749               0.000463158               0.000000000               0.000000000               0.000000000               0.000000000               0.000228521               0.000320912               0.000196584               0.000045581               0.000091776               0.000137357               0.000000000               0.000000000               0.000000000               0.000000000               0.000182509               0.000417449               0.000177591               0.000016259               0.000133728               0.000149988               0.000000000               0.000000000               0.000000000               0.000000000               0.000158573               0.000584829               0.000150713              -0.000013639               0.000199487               0.000185848               0.000000000               0.000000000               0.000000000               0.000000000               0.000168869               0.000715818               0.000126097              -0.000026151               0.000247321               0.000221169               0.000000000               0.000000000               0.000000000               0.000000000               0.000188701               0.000835453               0.000105484              -0.000033669               0.000289705               0.000256036               0.000000000               0.000000000               0.000000000               0.000000000               0.000213997               0.000950689               0.000089509              -0.000038587               0.000329756               0.000291168               0.000000000               0.000000000               0.000000000               0.000000000               0.000239206               0.001045385               0.000073992              -0.000040971               0.000362115               0.000321144               0.000000000               0.000000000               0.000000000               0.000000000               0.000260008               0.001125053               0.000059178              -0.000043128               0.000389390               0.000346262               0.000000000               0.000000000               0.000000000               0.000000000               0.000267538               0.001205535               0.000049595              -0.000050365               0.000418629               0.000368264               0.000000000               0.000000000               0.000000000               0.000000000               0.000260009               0.001287641               0.000046237              -0.000063452               0.000450360               0.000386908               0.000000000               0.000000000               0.000000000               0.000000000               0.000245072               0.001363465               0.000041874              -0.000078531               0.000480661               0.000402130               0.000000000               0.000000000               0.000000000               0.000000000               0.000229493               0.001435637               0.000037283              -0.000093395               0.000509672               0.000416278               0.000000000               0.000000000               0.000000000               0.000000000               0.000212668               0.001507836               0.000032015              -0.000108729               0.000538850               0.000430121               0.000000000               0.000000000               0.000000000               0.000000000               0.000197061               0.001583817               0.000022723              -0.000124079               0.000569293               0.000445214               0.000000000               0.000000000               0.000000000               0.000000000               0.000181171               0.001661013               0.000013370              -0.000139687               0.000600228               0.000460541               0.000000000               0.000000000               0.000000000               0.000000000               0.000163872               0.001738364               0.000006767              -0.000155843               0.000631396               0.000475553               0.000000000               0.000000000               0.000000000               0.000000000               0.000145668               0.001769250              -0.000000368              -0.000166530               0.000645254               0.000478724               0.000000000               0.000000000               0.000000000               0.000000000               0.000206634               0.000248903               0.000161913               0.000046374               0.000067509               0.000113883               0.000000000               0.000000000               0.000000000               0.000000000               0.000187387               0.000359101               0.000165975               0.000025382               0.000111238               0.000136621               0.000000000               0.000000000               0.000000000               0.000000000               0.000179245               0.000539529               0.000160531              -0.000000224               0.000179916               0.000179692               0.000000000               0.000000000               0.000000000               0.000000000               0.000190903               0.000684304               0.000140357              -0.000013949               0.000232749               0.000218800               0.000000000               0.000000000               0.000000000               0.000000000               0.000208323               0.000818310               0.000118801              -0.000024168               0.000280823               0.000256655               0.000000000               0.000000000               0.000000000               0.000000000               0.000227341               0.000936808               0.000099823              -0.000031848               0.000322882               0.000291034               0.000000000               0.000000000               0.000000000               0.000000000               0.000247079               0.001031345               0.000080592              -0.000036263               0.000355866               0.000319603               0.000000000               0.000000000               0.000000000               0.000000000               0.000267837               0.001113790               0.000061626              -0.000038785               0.000384188               0.000345403               0.000000000               0.000000000               0.000000000               0.000000000               0.000286957               0.001199526               0.000049054              -0.000042332               0.000413949               0.000371617               0.000000000               0.000000000               0.000000000               0.000000000               0.000295022               0.001288739               0.000043747              -0.000050459               0.000446395               0.000395936               0.000000000               0.000000000               0.000000000               0.000000000               0.000293115               0.001374022               0.000041555              -0.000061835               0.000478614               0.000416780               0.000000000               0.000000000               0.000000000               0.000000000               0.000286633               0.001450632               0.000039009              -0.000073841               0.000508153               0.000434312               0.000000000               0.000000000               0.000000000               0.000000000               0.000273844               0.001518748               0.000035115              -0.000087152               0.000535295               0.000448143               0.000000000               0.000000000               0.000000000               0.000000000               0.000260399               0.001589130               0.000028832              -0.000100992               0.000563369               0.000462377               0.000000000               0.000000000               0.000000000               0.000000000               0.000249227               0.001666200               0.000019798              -0.000114815               0.000593666               0.000478851               0.000000000               0.000000000               0.000000000               0.000000000               0.000233341               0.001740759               0.000009142              -0.000130091               0.000623611               0.000493519               0.000000000               0.000000000               0.000000000               0.000000000               0.000214085               0.001768878               0.000000223              -0.000140828               0.000636563               0.000495735               0.000000000               0.000000000               0.000000000               0.000000000               0.000178529               0.000184255               0.000127038               0.000043916               0.000046779               0.000090695               0.000000000               0.000000000               0.000000000               0.000000000               0.000192725               0.000300777               0.000147421               0.000034674               0.000088700               0.000123374               0.000000000               0.000000000               0.000000000               0.000000000               0.000202829               0.000485461               0.000156552               0.000015378               0.000156693               0.000172071               0.000000000               0.000000000               0.000000000               0.000000000               0.000216339               0.000641706               0.000141611               0.000000914               0.000213595               0.000214509               0.000000000               0.000000000               0.000000000               0.000000000               0.000233222               0.000780923               0.000122472              -0.000010157               0.000263691               0.000253534               0.000000000               0.000000000               0.000000000               0.000000000               0.000247523               0.000898659               0.000103118              -0.000019511               0.000306054               0.000286542               0.000000000               0.000000000               0.000000000               0.000000000               0.000261237               0.001000283               0.000083227              -0.000027072               0.000342448               0.000315377               0.000000000               0.000000000               0.000000000               0.000000000               0.000282408               0.001098277               0.000064558              -0.000031381               0.000376549               0.000345168               0.000000000               0.000000000               0.000000000               0.000000000               0.000307690               0.001196418               0.000050549              -0.000034169               0.000410192               0.000376023               0.000000000               0.000000000               0.000000000               0.000000000               0.000326792               0.001292443               0.000042026              -0.000039008               0.000443813               0.000404804               0.000000000               0.000000000               0.000000000               0.000000000               0.000334953               0.001381675               0.000038771              -0.000047102               0.000476254               0.000429153               0.000000000               0.000000000               0.000000000               0.000000000               0.000335562               0.001459569               0.000035626              -0.000056610               0.000505388               0.000448778               0.000000000               0.000000000               0.000000000               0.000000000               0.000331678               0.001529857               0.000032000              -0.000066853               0.000532232               0.000465379               0.000000000               0.000000000               0.000000000               0.000000000               0.000324932               0.001597247               0.000028937              -0.000077806               0.000558346               0.000480540               0.000000000               0.000000000               0.000000000               0.000000000               0.000317324               0.001664817               0.000021680              -0.000089105               0.000584635               0.000495530               0.000000000               0.000000000               0.000000000               0.000000000               0.000309307               0.001735382               0.000010786              -0.000100932               0.000612099               0.000511167               0.000000000               0.000000000               0.000000000               0.000000000               0.000297911               0.001767140               0.000003016              -0.000109175               0.000625433               0.000516257               0.000000000               0.000000000               0.000000000               0.000000000               0.000151176               0.000133259               0.000093060               0.000040033               0.000031075               0.000071108               0.000000000               0.000000000               0.000000000               0.000000000               0.000194547               0.000247729               0.000120373               0.000041989               0.000068579               0.000110568               0.000000000               0.000000000               0.000000000               0.000000000               0.000225547               0.000428941               0.000136498               0.000030962               0.000132658               0.000163620               0.000000000               0.000000000               0.000000000               0.000000000               0.000244989               0.000588839               0.000127701               0.000018266               0.000190189               0.000208455               0.000000000               0.000000000               0.000000000               0.000000000               0.000260469               0.000728913               0.000112033               0.000006562               0.000240782               0.000247343               0.000000000               0.000000000               0.000000000               0.000000000               0.000270578               0.000853758               0.000094415              -0.000005253               0.000286334               0.000281081               0.000000000               0.000000000               0.000000000               0.000000000               0.000283571               0.000969983               0.000078536              -0.000014909               0.000328294               0.000313385               0.000000000               0.000000000               0.000000000               0.000000000               0.000303825               0.001082107               0.000064180              -0.000021329               0.000367808               0.000346480               0.000000000               0.000000000               0.000000000               0.000000000               0.000327551               0.001187736               0.000050021              -0.000025635               0.000404453               0.000378818               0.000000000               0.000000000               0.000000000               0.000000000               0.000349313               0.001285788               0.000037932              -0.000029731               0.000438502               0.000408771               0.000000000               0.000000000               0.000000000               0.000000000               0.000364576               0.001375681               0.000031094              -0.000035244               0.000470304               0.000435060               0.000000000               0.000000000               0.000000000               0.000000000               0.000374661               0.001459248               0.000027598              -0.000041908               0.000500381               0.000458473               0.000000000               0.000000000               0.000000000               0.000000000               0.000382899               0.001538270               0.000025054              -0.000048697               0.000528984               0.000480287               0.000000000               0.000000000               0.000000000               0.000000000               0.000386177               0.001606364               0.000022884              -0.000055979               0.000554109               0.000498130               0.000000000               0.000000000               0.000000000               0.000000000               0.000385600               0.001666764               0.000018538              -0.000063745               0.000576831               0.000513086               0.000000000               0.000000000               0.000000000               0.000000000               0.000388597               0.001735333               0.000011440              -0.000071192               0.000602169               0.000530977               0.000000000               0.000000000               0.000000000               0.000000000               0.000386980               0.001770854               0.000005963              -0.000076239               0.000615692               0.000539453               0.000000000               0.000000000               0.000000000               0.000000000               0.000125908               0.000098806               0.000060036               0.000034864               0.000021313               0.000056178               0.000000000               0.000000000               0.000000000               0.000000000               0.000193208               0.000203963               0.000085234               0.000046957               0.000052334               0.000099292               0.000000000               0.000000000               0.000000000               0.000000000               0.000244737               0.000375632               0.000101885               0.000044822               0.000110269               0.000155091               0.000000000               0.000000000               0.000000000               0.000000000               0.000269806               0.000536499               0.000097128               0.000034115               0.000167460               0.000201574               0.000000000               0.000000000               0.000000000               0.000000000               0.000282990               0.000680656               0.000085231               0.000021039               0.000219870               0.000240909               0.000000000               0.000000000               0.000000000               0.000000000               0.000295341               0.000813921               0.000073517               0.000009013               0.000268300               0.000277313               0.000000000               0.000000000               0.000000000               0.000000000               0.000309552               0.000940898               0.000063454              -0.000001530               0.000314140               0.000312609               0.000000000               0.000000000               0.000000000               0.000000000               0.000326095               0.001060738               0.000052315              -0.000010307               0.000357011               0.000346705               0.000000000               0.000000000               0.000000000               0.000000000               0.000344533               0.001169360               0.000039399              -0.000016970               0.000395440               0.000378469               0.000000000               0.000000000               0.000000000               0.000000000               0.000365170               0.001269662               0.000028033              -0.000021769               0.000430473               0.000408704               0.000000000               0.000000000               0.000000000               0.000000000               0.000386143               0.001363783               0.000021503              -0.000025669               0.000463146               0.000437477               0.000000000               0.000000000               0.000000000               0.000000000               0.000406128               0.001456337               0.000018568              -0.000029744               0.000495356               0.000465611               0.000000000               0.000000000               0.000000000               0.000000000               0.000423261               0.001541057               0.000016321              -0.000033909               0.000524984               0.000491075               0.000000000               0.000000000               0.000000000               0.000000000               0.000434583               0.001609569               0.000013525              -0.000038228               0.000549260               0.000511033               0.000000000               0.000000000               0.000000000               0.000000000               0.000443515               0.001671004               0.000011059              -0.000042557               0.000571181               0.000528624               0.000000000               0.000000000               0.000000000               0.000000000               0.000455531               0.001738257               0.000007598              -0.000046458               0.000594899               0.000548441               0.000000000               0.000000000               0.000000000               0.000000000               0.000460860               0.001773248               0.000004322              -0.000048834               0.000607355               0.000558521               0.000000000               0.000000000               0.000000000               0.000000000               0.000108762               0.000077575               0.000027939               0.000031088               0.000015495               0.000046584               0.000000000               0.000000000               0.000000000               0.000000000               0.000192910               0.000174689               0.000043342               0.000050504               0.000041394               0.000091899               0.000000000               0.000000000               0.000000000               0.000000000               0.000256772               0.000338393               0.000054676               0.000053990               0.000094800               0.000148790               0.000000000               0.000000000               0.000000000               0.000000000               0.000285013               0.000498411               0.000052426               0.000044578               0.000151276               0.000195854               0.000000000               0.000000000               0.000000000               0.000000000               0.000300950               0.000646716               0.000046260               0.000032016               0.000204898               0.000236914               0.000000000               0.000000000               0.000000000               0.000000000               0.000315540               0.000786735               0.000041068               0.000019985               0.000255581               0.000275566               0.000000000               0.000000000               0.000000000               0.000000000               0.000327882               0.000917507               0.000035570               0.000008267               0.000303077               0.000311344               0.000000000               0.000000000               0.000000000               0.000000000               0.000340401               0.001038461               0.000028904              -0.000002157               0.000346869               0.000344712               0.000000000               0.000000000               0.000000000               0.000000000               0.000357031               0.001151449               0.000021531              -0.000010044               0.000387161               0.000377116               0.000000000               0.000000000               0.000000000               0.000000000               0.000378874               0.001258103               0.000015110              -0.000015185               0.000424425               0.000409240               0.000000000               0.000000000               0.000000000               0.000000000               0.000402230               0.001355254               0.000011026              -0.000018570               0.000457937               0.000439367               0.000000000               0.000000000               0.000000000               0.000000000               0.000426133               0.001450384               0.000008822              -0.000021498               0.000490622               0.000469124               0.000000000               0.000000000               0.000000000               0.000000000               0.000447284               0.001536639               0.000006959              -0.000024348               0.000520324               0.000495976               0.000000000               0.000000000               0.000000000               0.000000000               0.000463878               0.001607488               0.000004984              -0.000026982               0.000544818               0.000517836               0.000000000               0.000000000               0.000000000               0.000000000               0.000479925               0.001674449               0.000003978              -0.000029334               0.000567922               0.000538588               0.000000000               0.000000000               0.000000000               0.000000000               0.000496589               0.001741616               0.000002814              -0.000031481               0.000591027               0.000559545               0.000000000               0.000000000               0.000000000               0.000000000               0.000504455               0.001774422               0.000001435              -0.000032632               0.000602345               0.000569713               0.000000000               0.000000000               0.000000000               0.000000000               0.000103425               0.000070572              -0.000000000               0.000029963               0.000013536               0.000043499               0.000000000               0.000000000               0.000000000               0.000000000               0.000193496               0.000165766              -0.000000000               0.000051840               0.000037975               0.000089815               0.000000000               0.000000000               0.000000000               0.000000000               0.000260578               0.000326584              -0.000000000               0.000056893               0.000089896               0.000146789               0.000000000               0.000000000               0.000000000               0.000000000               0.000290079               0.000483783              -0.000000000               0.000048306               0.000145157               0.000193463               0.000000000               0.000000000               0.000000000               0.000000000               0.000309324               0.000634158              -0.000000000               0.000036727               0.000199142               0.000235868               0.000000000               0.000000000               0.000000000               0.000000000               0.000322298               0.000777355               0.000000000               0.000023692               0.000251219               0.000274911               0.000000000               0.000000000               0.000000000               0.000000000               0.000333298               0.000907823               0.000000000               0.000011509               0.000298769               0.000310277               0.000000000               0.000000000               0.000000000               0.000000000               0.000345993               0.001029887               0.000000000               0.000001011               0.000342955               0.000343966               0.000000000               0.000000000               0.000000000               0.000000000               0.000362888               0.001146019               0.000000000              -0.000007169               0.000384392               0.000377223               0.000000000               0.000000000               0.000000000               0.000000000               0.000384110               0.001252939              -0.000000000              -0.000012576               0.000421834               0.000409258               0.000000000               0.000000000               0.000000000               0.000000000               0.000407309               0.001349857               0.000000000              -0.000015991               0.000455278               0.000439287               0.000000000               0.000000000               0.000000000               0.000000000               0.000432573               0.001447104               0.000000000              -0.000018673               0.000488588               0.000469914               0.000000000               0.000000000               0.000000000               0.000000000               0.000455309               0.001534713              -0.000000000              -0.000021098               0.000518599               0.000497500               0.000000000               0.000000000               0.000000000               0.000000000               0.000473733               0.001606508               0.000000000              -0.000023164               0.000543219               0.000520055               0.000000000               0.000000000               0.000000000               0.000000000               0.000491842               0.001675874               0.000000000              -0.000025043               0.000566967               0.000541924               0.000000000               0.000000000               0.000000000               0.000000000               0.000509295               0.001743136               0.000000000              -0.000026906               0.000590008               0.000563102               0.000000000               0.000000000               0.000000000               0.000000000               0.000517155               0.001774839              -0.000000000              -0.000027922               0.000600914               0.000572993               0.000000000               0.000000000               0.000000000               0.000000000               0.000097567               0.001059097               0.000000000              -0.000095799               0.000384962               0.000289163               0.000000000               0.000000000               0.000000000               0.000000000               0.000122595               0.000905115               0.000000000              -0.000067166               0.000324091               0.000256925               0.000000000               0.000000000               0.000000000               0.000000000               0.000184305               0.000782831              -0.000000000              -0.000028739               0.000270521               0.000241782               0.000000000               0.000000000               0.000000000               0.000000000               0.000210703               0.000722568              -0.000000000              -0.000011307               0.000244623               0.000233315               0.000000000               0.000000000               0.000000000               0.000000000               0.000220238               0.000693027              -0.000000000              -0.000004039               0.000232353               0.000228314               0.000000000               0.000000000               0.000000000               0.000000000               0.000221675               0.000681697               0.000000000              -0.000002084               0.000227925               0.000225841               0.000000000               0.000000000               0.000000000               0.000000000               0.000220664               0.000673147               0.000000000              -0.000001394               0.000224845               0.000223451               0.000000000               0.000000000               0.000000000               0.000000000               0.000225041               0.000661924               0.000000000               0.000001650               0.000220089               0.000221739               0.000000000               0.000000000               0.000000000               0.000000000               0.000227162               0.000642820              -0.000000000               0.000004833               0.000212660               0.000217493               0.000000000               0.000000000               0.000000000               0.000000000               0.000221645               0.000627954               0.000000000               0.000004623               0.000207775               0.000212398               0.000000000               0.000000000               0.000000000               0.000000000               0.000210844               0.000621011              -0.000000000               0.000001440               0.000206522               0.000207962               0.000000000               0.000000000               0.000000000               0.000000000               0.000193323               0.000621021              -0.000000000              -0.000005132               0.000208715               0.000203584               0.000000000               0.000000000               0.000000000               0.000000000               0.000166176               0.000629493               0.000000000              -0.000016370               0.000215286               0.000198915               0.000000000               0.000000000               0.000000000               0.000000000               0.000132402               0.000645752               0.000000000              -0.000031068               0.000225605               0.000194536               0.000000000               0.000000000               0.000000000               0.000000000               0.000092818               0.000668531               0.000000000              -0.000048760               0.000239095               0.000190335               0.000000000               0.000000000               0.000000000               0.000000000               0.000046939               0.000696939               0.000000000              -0.000069515               0.000255482               0.000185967               0.000000000               0.000000000               0.000000000               0.000000000               0.000026651               0.000722632               0.000000000              -0.000080335               0.000267653               0.000187319               0.000000000               0.000000000               0.000000000               0.000000000               0.000107970               0.001047051              -0.000082381              -0.000090392               0.000379144               0.000288752               0.000000000               0.000000000               0.000000000               0.000000000               0.000127789               0.000893042              -0.000056392              -0.000063709               0.000318914               0.000255205               0.000000000               0.000000000               0.000000000               0.000000000               0.000184400               0.000777549              -0.000028274              -0.000028044               0.000268528               0.000240485               0.000000000               0.000000000               0.000000000               0.000000000               0.000208759               0.000719841              -0.000013792              -0.000011695               0.000243843               0.000232148               0.000000000               0.000000000               0.000000000               0.000000000               0.000218469               0.000692428              -0.000005153              -0.000004628               0.000232350               0.000227722               0.000000000               0.000000000               0.000000000               0.000000000               0.000218392               0.000680923              -0.000002293              -0.000003219               0.000228045               0.000224827               0.000000000               0.000000000               0.000000000               0.000000000               0.000215550               0.000674413              -0.000005426              -0.000003470               0.000225959               0.000222489               0.000000000               0.000000000               0.000000000               0.000000000               0.000217740               0.000664451              -0.000013600              -0.000001404               0.000221949               0.000220546               0.000000000               0.000000000               0.000000000               0.000000000               0.000220652               0.000649157              -0.000018649               0.000001600               0.000215850               0.000217450               0.000000000               0.000000000               0.000000000               0.000000000               0.000214658               0.000638039              -0.000018440               0.000000742               0.000212430               0.000213172               0.000000000               0.000000000               0.000000000               0.000000000               0.000200062               0.000632646              -0.000019021              -0.000004058               0.000212232               0.000208175               0.000000000               0.000000000               0.000000000               0.000000000               0.000180873               0.000634167              -0.000018006              -0.000011443               0.000215201               0.000203758               0.000000000               0.000000000               0.000000000               0.000000000               0.000154154               0.000642866              -0.000015466              -0.000022550               0.000221803               0.000199253               0.000000000               0.000000000               0.000000000               0.000000000               0.000121007               0.000657927              -0.000013108              -0.000036863               0.000231595               0.000194731               0.000000000               0.000000000               0.000000000               0.000000000               0.000084437               0.000679281              -0.000009935              -0.000053246               0.000244173               0.000190927               0.000000000               0.000000000               0.000000000               0.000000000               0.000043370               0.000705391              -0.000005532              -0.000071910               0.000259098               0.000187188               0.000000000               0.000000000               0.000000000               0.000000000               0.000025115               0.000728149              -0.000003893              -0.000081600               0.000269914               0.000188314               0.000000000               0.000000000               0.000000000               0.000000000               0.000127044               0.001005473              -0.000157622              -0.000078042               0.000361168               0.000283126               0.000000000               0.000000000               0.000000000               0.000000000               0.000136488               0.000859555              -0.000107295              -0.000056261               0.000305269               0.000249008               0.000000000               0.000000000               0.000000000               0.000000000               0.000184060               0.000759677              -0.000053801              -0.000025937               0.000261869               0.000235932               0.000000000               0.000000000               0.000000000               0.000000000               0.000203726               0.000710402              -0.000026322              -0.000012403               0.000240933               0.000228530               0.000000000               0.000000000               0.000000000               0.000000000               0.000210039               0.000689439              -0.000011364              -0.000007415               0.000232282               0.000224867               0.000000000               0.000000000               0.000000000               0.000000000               0.000209119               0.000681750              -0.000005947              -0.000006799               0.000229514               0.000222715               0.000000000               0.000000000               0.000000000               0.000000000               0.000207702               0.000678727              -0.000011550              -0.000006953               0.000228558               0.000221605               0.000000000               0.000000000               0.000000000               0.000000000               0.000205301               0.000671189              -0.000025790              -0.000006911               0.000226031               0.000219120               0.000000000               0.000000000               0.000000000               0.000000000               0.000200660               0.000664929              -0.000033291              -0.000007869               0.000224264               0.000216395               0.000000000               0.000000000               0.000000000               0.000000000               0.000190472               0.000665048              -0.000032544              -0.000011704               0.000225582               0.000213878               0.000000000               0.000000000               0.000000000               0.000000000               0.000174955               0.000668523              -0.000032387              -0.000017957               0.000228824               0.000210867               0.000000000               0.000000000               0.000000000               0.000000000               0.000155510               0.000676412              -0.000029653              -0.000026235               0.000234214               0.000207978               0.000000000               0.000000000               0.000000000               0.000000000               0.000129982               0.000687816              -0.000024979              -0.000037234               0.000241681               0.000204447               0.000000000               0.000000000               0.000000000               0.000000000               0.000100680               0.000703029              -0.000019991              -0.000050123               0.000251049               0.000200925               0.000000000               0.000000000               0.000000000               0.000000000               0.000070652               0.000723083              -0.000013892              -0.000063891               0.000262322               0.000198431               0.000000000               0.000000000               0.000000000               0.000000000               0.000037233               0.000746578              -0.000006970              -0.000079360               0.000275310               0.000195951               0.000000000               0.000000000               0.000000000               0.000000000               0.000022931               0.000766843              -0.000005212              -0.000087256               0.000284697               0.000197441               0.000000000               0.000000000               0.000000000               0.000000000               0.000153425               0.000935213              -0.000221231              -0.000059367               0.000331524               0.000272156               0.000000000               0.000000000               0.000000000               0.000000000               0.000148278               0.000811858              -0.000148320              -0.000045878               0.000285909               0.000240031               0.000000000               0.000000000               0.000000000               0.000000000               0.000181349               0.000734499              -0.000073188              -0.000023807               0.000252766               0.000228959               0.000000000               0.000000000               0.000000000               0.000000000               0.000194293               0.000698502              -0.000036884              -0.000014453               0.000237649               0.000223196               0.000000000               0.000000000               0.000000000               0.000000000               0.000197204               0.000687372              -0.000017343              -0.000011970               0.000233112               0.000221142               0.000000000               0.000000000               0.000000000               0.000000000               0.000195423               0.000685489              -0.000011501              -0.000012402               0.000232628               0.000220226               0.000000000               0.000000000               0.000000000               0.000000000               0.000194786               0.000685317              -0.000020455              -0.000012620               0.000232644               0.000220024               0.000000000               0.000000000               0.000000000               0.000000000               0.000191612               0.000685244              -0.000036999              -0.000013801               0.000233013               0.000219212               0.000000000               0.000000000               0.000000000               0.000000000               0.000184167               0.000693932              -0.000043110              -0.000017679               0.000237201               0.000219523               0.000000000               0.000000000               0.000000000               0.000000000               0.000171303               0.000709733              -0.000041218              -0.000024478               0.000244735               0.000220257               0.000000000               0.000000000               0.000000000               0.000000000               0.000150608               0.000727466              -0.000041528              -0.000034455               0.000253971               0.000219516               0.000000000               0.000000000               0.000000000               0.000000000               0.000126116               0.000747202              -0.000038898              -0.000046107               0.000264434               0.000218327               0.000000000               0.000000000               0.000000000               0.000000000               0.000100666               0.000768541              -0.000033903              -0.000058318               0.000275617               0.000217299               0.000000000               0.000000000               0.000000000               0.000000000               0.000074764               0.000791460              -0.000027979              -0.000070896               0.000287449               0.000216553               0.000000000               0.000000000               0.000000000               0.000000000               0.000051549               0.000817456              -0.000020122              -0.000082851               0.000300100               0.000217249               0.000000000               0.000000000               0.000000000               0.000000000               0.000027885               0.000846022              -0.000010642              -0.000095296               0.000313770               0.000218474               0.000000000               0.000000000               0.000000000               0.000000000               0.000019549               0.000868821              -0.000008182              -0.000101271               0.000323361               0.000222090               0.000000000               0.000000000               0.000000000               0.000000000               0.000187964               0.000850039              -0.000263143              -0.000035768               0.000295266               0.000259498               0.000000000               0.000000000               0.000000000               0.000000000               0.000162722               0.000754114              -0.000175705              -0.000033243               0.000262450               0.000229206               0.000000000               0.000000000               0.000000000               0.000000000               0.000174649               0.000707396              -0.000087284              -0.000022931               0.000243440               0.000220509               0.000000000               0.000000000               0.000000000               0.000000000               0.000180224               0.000690180              -0.000045659              -0.000018688               0.000236287               0.000217599               0.000000000               0.000000000               0.000000000               0.000000000               0.000180941               0.000690438              -0.000025109              -0.000018452               0.000236294               0.000217843               0.000000000               0.000000000               0.000000000               0.000000000               0.000179003               0.000694799              -0.000020425              -0.000019724               0.000238172               0.000218448               0.000000000               0.000000000               0.000000000               0.000000000               0.000183161               0.000703490              -0.000030607              -0.000019251               0.000240911               0.000221660               0.000000000               0.000000000               0.000000000               0.000000000               0.000184927               0.000716073              -0.000046657              -0.000020161               0.000245409               0.000225248               0.000000000               0.000000000               0.000000000               0.000000000               0.000177826               0.000742978              -0.000051394              -0.000026187               0.000256386               0.000230199               0.000000000               0.000000000               0.000000000               0.000000000               0.000160704               0.000776356              -0.000048676              -0.000036780               0.000271043               0.000234263               0.000000000               0.000000000               0.000000000               0.000000000               0.000136632               0.000812971              -0.000048384              -0.000050384               0.000287782               0.000237398               0.000000000               0.000000000               0.000000000               0.000000000               0.000111235               0.000851534              -0.000045628              -0.000064728               0.000305418               0.000240690               0.000000000               0.000000000               0.000000000               0.000000000               0.000084959               0.000890087              -0.000040328              -0.000079401               0.000323160               0.000243759               0.000000000               0.000000000               0.000000000               0.000000000               0.000060771               0.000929025              -0.000033509              -0.000093339               0.000340785               0.000247446               0.000000000               0.000000000               0.000000000               0.000000000               0.000041041               0.000968186              -0.000023959              -0.000105633               0.000357937               0.000252304               0.000000000               0.000000000               0.000000000               0.000000000               0.000021230               0.001005733              -0.000012560              -0.000117755               0.000374493               0.000256737               0.000000000               0.000000000               0.000000000               0.000000000               0.000015834               0.001031997              -0.000009579              -0.000123061               0.000385016               0.000261955               0.000000000               0.000000000               0.000000000               0.000000000               0.000213940               0.000755805              -0.000285303              -0.000014249               0.000256682               0.000242433               0.000000000               0.000000000               0.000000000               0.000000000               0.000171971               0.000690789              -0.000190835              -0.000021860               0.000237547               0.000215688               0.000000000               0.000000000               0.000000000               0.000000000               0.000165508               0.000681089              -0.000095280              -0.000023071               0.000234718               0.000211647               0.000000000               0.000000000               0.000000000               0.000000000               0.000163206               0.000687070              -0.000053609              -0.000024681               0.000237248               0.000212567               0.000000000               0.000000000               0.000000000               0.000000000               0.000162198               0.000702657              -0.000035355              -0.000027008               0.000243219               0.000216211               0.000000000               0.000000000               0.000000000               0.000000000               0.000166975               0.000720737              -0.000031490              -0.000027476               0.000249402               0.000221926               0.000000000               0.000000000               0.000000000               0.000000000               0.000175948               0.000742575              -0.000041672              -0.000026841               0.000256470               0.000229628               0.000000000               0.000000000               0.000000000               0.000000000               0.000181118               0.000777299              -0.000054582              -0.000029243               0.000268845               0.000239602               0.000000000               0.000000000               0.000000000               0.000000000               0.000178085               0.000827683              -0.000054769              -0.000036678               0.000288118               0.000251439               0.000000000               0.000000000               0.000000000               0.000000000               0.000163087               0.000883319              -0.000050952              -0.000049257               0.000310856               0.000261599               0.000000000               0.000000000               0.000000000               0.000000000               0.000138979               0.000937307              -0.000049241              -0.000065046               0.000334115               0.000269068               0.000000000               0.000000000               0.000000000               0.000000000               0.000112075               0.000991181              -0.000045848              -0.000081869               0.000357680               0.000275811               0.000000000               0.000000000               0.000000000               0.000000000               0.000085700               0.001044205              -0.000039953              -0.000098388               0.000380861               0.000282473               0.000000000               0.000000000               0.000000000               0.000000000               0.000063317               0.001096189              -0.000032313              -0.000113280               0.000403152               0.000289873               0.000000000               0.000000000               0.000000000               0.000000000               0.000042560               0.001145114              -0.000022792              -0.000127179               0.000424094               0.000296915               0.000000000               0.000000000               0.000000000               0.000000000               0.000020948               0.001188131              -0.000011908              -0.000140661               0.000442927               0.000302266               0.000000000               0.000000000               0.000000000               0.000000000               0.000015604               0.001216742              -0.000009417              -0.000146241               0.000454324               0.000308083               0.000000000               0.000000000               0.000000000               0.000000000               0.000230922               0.000656219              -0.000289301               0.000004568               0.000217215               0.000221783               0.000000000               0.000000000               0.000000000               0.000000000               0.000174855               0.000631150              -0.000194784              -0.000013323               0.000214822               0.000201499               0.000000000               0.000000000               0.000000000               0.000000000               0.000153169               0.000662222              -0.000100406              -0.000025340               0.000229185               0.000203846               0.000000000               0.000000000               0.000000000               0.000000000               0.000148560               0.000693493              -0.000062947              -0.000030977               0.000241488               0.000210511               0.000000000               0.000000000               0.000000000               0.000000000               0.000150291               0.000728450              -0.000046120              -0.000034697               0.000254380               0.000219683               0.000000000               0.000000000               0.000000000               0.000000000               0.000160707               0.000768873              -0.000043127              -0.000035844               0.000268236               0.000232392               0.000000000               0.000000000               0.000000000               0.000000000               0.000178177               0.000818332              -0.000049213              -0.000035475               0.000284600               0.000249125               0.000000000               0.000000000               0.000000000               0.000000000               0.000190276               0.000880940              -0.000056477              -0.000038764               0.000306565               0.000267801               0.000000000               0.000000000               0.000000000               0.000000000               0.000185189               0.000950304              -0.000053731              -0.000049342               0.000333212               0.000283870               0.000000000               0.000000000               0.000000000               0.000000000               0.000167562               0.001020950              -0.000050015              -0.000064783               0.000361908               0.000297125               0.000000000               0.000000000               0.000000000               0.000000000               0.000144240               0.001085856              -0.000049041              -0.000081642               0.000389162               0.000307521               0.000000000               0.000000000               0.000000000               0.000000000               0.000119061               0.001147630              -0.000044369              -0.000098806               0.000415475               0.000316669               0.000000000               0.000000000               0.000000000               0.000000000               0.000093636               0.001207131              -0.000037223              -0.000115778               0.000440965               0.000325188               0.000000000               0.000000000               0.000000000               0.000000000               0.000071546               0.001263114              -0.000028350              -0.000131059               0.000464720               0.000333661               0.000000000               0.000000000               0.000000000               0.000000000               0.000047372               0.001313415              -0.000018999              -0.000146412               0.000486605               0.000340193               0.000000000               0.000000000               0.000000000               0.000000000               0.000021791               0.001357641              -0.000010114              -0.000161533               0.000506387               0.000344854               0.000000000               0.000000000               0.000000000               0.000000000               0.000014867               0.001386544              -0.000008510              -0.000167743               0.000518091               0.000350348               0.000000000               0.000000000               0.000000000               0.000000000               0.000242073               0.000562457              -0.000274109               0.000020470               0.000180660               0.000201130               0.000000000               0.000000000               0.000000000               0.000000000               0.000174762               0.000579772              -0.000191175              -0.000006936               0.000195567               0.000188631               0.000000000               0.000000000               0.000000000               0.000000000               0.000142926               0.000653112              -0.000107316              -0.000028042               0.000227049               0.000199007               0.000000000               0.000000000               0.000000000               0.000000000               0.000139780               0.000711516              -0.000073288              -0.000036522               0.000249344               0.000212822               0.000000000               0.000000000               0.000000000               0.000000000               0.000149731               0.000773548              -0.000056894              -0.000040544               0.000271361               0.000230817               0.000000000               0.000000000               0.000000000               0.000000000               0.000172564               0.000843576              -0.000050647              -0.000040735               0.000294768               0.000254032               0.000000000               0.000000000               0.000000000               0.000000000               0.000197244               0.000919742              -0.000053740              -0.000041001               0.000320245               0.000279244               0.000000000               0.000000000               0.000000000               0.000000000               0.000207730               0.000999346              -0.000058623              -0.000047020               0.000348785               0.000301766               0.000000000               0.000000000               0.000000000               0.000000000               0.000198148               0.001083527              -0.000054993              -0.000061135               0.000381551               0.000320415               0.000000000               0.000000000               0.000000000               0.000000000               0.000176341               0.001160257              -0.000050647              -0.000078904               0.000413050               0.000334146               0.000000000               0.000000000               0.000000000               0.000000000               0.000150093               0.001228864              -0.000048560              -0.000097323               0.000442058               0.000344735               0.000000000               0.000000000               0.000000000               0.000000000               0.000124684               0.001294464              -0.000040862              -0.000115051               0.000469834               0.000354783               0.000000000               0.000000000               0.000000000               0.000000000               0.000100293               0.001358082              -0.000030844              -0.000132150               0.000496739               0.000364590               0.000000000               0.000000000               0.000000000               0.000000000               0.000075262               0.001418190              -0.000022023              -0.000149050               0.000522409               0.000373358               0.000000000               0.000000000               0.000000000               0.000000000               0.000047655               0.001472692              -0.000013200              -0.000166215               0.000546298               0.000380082               0.000000000               0.000000000               0.000000000               0.000000000               0.000021751               0.001522930              -0.000005732              -0.000182209               0.000568374               0.000386165               0.000000000               0.000000000               0.000000000               0.000000000               0.000014305               0.001556188              -0.000005687              -0.000189159               0.000581777               0.000392618               0.000000000               0.000000000               0.000000000               0.000000000               0.000244625               0.000483453              -0.000250280               0.000031302               0.000150715               0.000182017               0.000000000               0.000000000               0.000000000               0.000000000               0.000175894               0.000536135              -0.000186237              -0.000001057               0.000179062               0.000178005               0.000000000               0.000000000               0.000000000               0.000000000               0.000138651               0.000648409              -0.000117286              -0.000029057               0.000225820               0.000196763               0.000000000               0.000000000               0.000000000               0.000000000               0.000140531               0.000734744              -0.000084673              -0.000039144               0.000257960               0.000218816               0.000000000               0.000000000               0.000000000               0.000000000               0.000159058               0.000823409              -0.000067117              -0.000043279               0.000288893               0.000245614               0.000000000               0.000000000               0.000000000               0.000000000               0.000190072               0.000913490              -0.000058607              -0.000042909               0.000318797               0.000275887               0.000000000               0.000000000               0.000000000               0.000000000               0.000220283               0.001001244              -0.000058076              -0.000042549               0.000347928               0.000305379               0.000000000               0.000000000               0.000000000               0.000000000               0.000230719               0.001091206              -0.000057278              -0.000049881               0.000380359               0.000330478               0.000000000               0.000000000               0.000000000               0.000000000               0.000217523               0.001181721              -0.000053092              -0.000066144               0.000415951               0.000349807               0.000000000               0.000000000               0.000000000               0.000000000               0.000192362               0.001258546              -0.000049060              -0.000085182               0.000447905               0.000362723               0.000000000               0.000000000               0.000000000               0.000000000               0.000166178               0.001328537              -0.000044068              -0.000103750               0.000477424               0.000373674               0.000000000               0.000000000               0.000000000               0.000000000               0.000139322               0.001399021              -0.000033936              -0.000122632               0.000507213               0.000384581               0.000000000               0.000000000               0.000000000               0.000000000               0.000114708               0.001469632              -0.000022158              -0.000140688               0.000536769               0.000396080               0.000000000               0.000000000               0.000000000               0.000000000               0.000089067               0.001538213              -0.000013024              -0.000158876               0.000565691               0.000406815               0.000000000               0.000000000               0.000000000               0.000000000               0.000064250               0.001604349              -0.000005812              -0.000176450               0.000593594               0.000417145               0.000000000               0.000000000               0.000000000               0.000000000               0.000045440               0.001667186               0.000000729              -0.000191358               0.000619509               0.000428151               0.000000000               0.000000000               0.000000000               0.000000000               0.000037423               0.001703368               0.000002312              -0.000198887               0.000634079               0.000435192               0.000000000               0.000000000               0.000000000               0.000000000               0.000239633               0.000401360              -0.000226065               0.000039692               0.000120555               0.000160246               0.000000000               0.000000000               0.000000000               0.000000000               0.000178357               0.000477837              -0.000183217               0.000007154               0.000156892               0.000164047               0.000000000               0.000000000               0.000000000               0.000000000               0.000143537               0.000620519              -0.000133830              -0.000023739               0.000214750               0.000191012               0.000000000               0.000000000               0.000000000               0.000000000               0.000151077               0.000733324              -0.000104852              -0.000035011               0.000256109               0.000221098               0.000000000               0.000000000               0.000000000               0.000000000               0.000173010               0.000839771              -0.000086091              -0.000040092               0.000293285               0.000253193               0.000000000               0.000000000               0.000000000               0.000000000               0.000205164               0.000944676              -0.000075430              -0.000041148               0.000328605               0.000287457               0.000000000               0.000000000               0.000000000               0.000000000               0.000235509               0.001039021              -0.000066582              -0.000041562               0.000360191               0.000318629               0.000000000               0.000000000               0.000000000               0.000000000               0.000250409               0.001123436              -0.000057968              -0.000046526               0.000389984               0.000343458               0.000000000               0.000000000               0.000000000               0.000000000               0.000243770               0.001206419              -0.000052442              -0.000059389               0.000421932               0.000362543               0.000000000               0.000000000               0.000000000               0.000000000               0.000223560               0.001284959              -0.000049089              -0.000076785               0.000453910               0.000377126               0.000000000               0.000000000               0.000000000               0.000000000               0.000200138               0.001355849              -0.000042809              -0.000094429               0.000483421               0.000388992               0.000000000               0.000000000               0.000000000               0.000000000               0.000175676               0.001426396              -0.000033867              -0.000112421               0.000512934               0.000400513               0.000000000               0.000000000               0.000000000               0.000000000               0.000154147               0.001500929              -0.000025006              -0.000129811               0.000543575               0.000413764               0.000000000               0.000000000               0.000000000               0.000000000               0.000135113               0.001579615              -0.000015408              -0.000146784               0.000575461               0.000428677               0.000000000               0.000000000               0.000000000               0.000000000               0.000114024               0.001654205              -0.000007599              -0.000164016               0.000606068               0.000442052               0.000000000               0.000000000               0.000000000               0.000000000               0.000097590               0.001729445              -0.000002799              -0.000179584               0.000636337               0.000456753               0.000000000               0.000000000               0.000000000               0.000000000               0.000085982               0.001766674               0.000001539              -0.000188591               0.000651749               0.000463158               0.000000000               0.000000000               0.000000000               0.000000000               0.000228521               0.000320912              -0.000196584               0.000045581               0.000091776               0.000137357               0.000000000               0.000000000               0.000000000               0.000000000               0.000182509               0.000417449              -0.000177591               0.000016259               0.000133728               0.000149988               0.000000000               0.000000000               0.000000000               0.000000000               0.000158573               0.000584829              -0.000150713              -0.000013639               0.000199487               0.000185848               0.000000000               0.000000000               0.000000000               0.000000000               0.000168869               0.000715818              -0.000126097              -0.000026151               0.000247321               0.000221169               0.000000000               0.000000000               0.000000000               0.000000000               0.000188701               0.000835453              -0.000105484              -0.000033669               0.000289705               0.000256036               0.000000000               0.000000000               0.000000000               0.000000000               0.000213997               0.000950689              -0.000089509              -0.000038587               0.000329756               0.000291168               0.000000000               0.000000000               0.000000000               0.000000000               0.000239206               0.001045385              -0.000073992              -0.000040971               0.000362115               0.000321144               0.000000000               0.000000000               0.000000000               0.000000000               0.000260008               0.001125053              -0.000059178              -0.000043128               0.000389390               0.000346262               0.000000000               0.000000000               0.000000000               0.000000000               0.000267538               0.001205535              -0.000049595              -0.000050365               0.000418629               0.000368264               0.000000000               0.000000000               0.000000000               0.000000000               0.000260009               0.001287641              -0.000046237              -0.000063452               0.000450360               0.000386908               0.000000000               0.000000000               0.000000000               0.000000000               0.000245072               0.001363465              -0.000041874              -0.000078531               0.000480661               0.000402130               0.000000000               0.000000000               0.000000000               0.000000000               0.000229493               0.001435637              -0.000037283              -0.000093395               0.000509672               0.000416278               0.000000000               0.000000000               0.000000000               0.000000000               0.000212668               0.001507836              -0.000032015              -0.000108729               0.000538850               0.000430121               0.000000000               0.000000000               0.000000000               0.000000000               0.000197061               0.001583817              -0.000022723              -0.000124079               0.000569293               0.000445214               0.000000000               0.000000000               0.000000000               0.000000000               0.000181171               0.001661013              -0.000013370              -0.000139687               0.000600228               0.000460541               0.000000000               0.000000000               0.000000000               0.000000000               0.000163872               0.001738364              -0.000006767              -0.000155843               0.000631396               0.000475553               0.000000000               0.000000000               0.000000000               0.000000000               0.000145668               0.001769250               0.000000368              -0.000166530               0.000645254               0.000478724               0.000000000               0.000000000               0.000000000               0.000000000               0.000206634               0.000248903              -0.000161913               0.000046374               0.000067509               0.000113883               0.000000000               0.000000000               0.000000000               0.000000000               0.000187387               0.000359101              -0.000165975               0.000025382               0.000111238               0.000136621               0.000000000               0.000000000               0.000000000               0.000000000               0.000179245               0.000539529              -0.000160531              -0.000000224               0.000179916               0.000179692               0.000000000               0.000000000               0.000000000               0.000000000               0.000190903               0.000684304              -0.000140357              -0.000013949               0.000232749               0.000218800               0.000000000               0.000000000               0.000000000               0.000000000               0.000208323               0.000818310              -0.000118801              -0.000024168               0.000280823               0.000256655               0.000000000               0.000000000               0.000000000               0.000000000               0.000227341               0.000936808              -0.000099823              -0.000031848               0.000322882               0.000291034               0.000000000               0.000000000               0.000000000               0.000000000               0.000247079               0.001031345              -0.000080592              -0.000036263               0.000355866               0.000319603               0.000000000               0.000000000               0.000000000               0.000000000               0.000267837               0.001113790              -0.000061626              -0.000038785               0.000384188               0.000345403               0.000000000               0.000000000               0.000000000               0.000000000               0.000286957               0.001199526              -0.000049054              -0.000042332               0.000413949               0.000371617               0.000000000               0.000000000               0.000000000               0.000000000               0.000295022               0.001288739              -0.000043747              -0.000050459               0.000446395               0.000395936               0.000000000               0.000000000               0.000000000               0.000000000               0.000293115               0.001374022              -0.000041555              -0.000061835               0.000478614               0.000416780               0.000000000               0.000000000               0.000000000               0.000000000               0.000286633               0.001450632              -0.000039009              -0.000073841               0.000508153               0.000434312               0.000000000               0.000000000               0.000000000               0.000000000               0.000273844               0.001518748              -0.000035115              -0.000087152               0.000535295               0.000448143               0.000000000               0.000000000               0.000000000               0.000000000               0.000260399               0.001589130              -0.000028832              -0.000100992               0.000563369               0.000462377               0.000000000               0.000000000               0.000000000               0.000000000               0.000249227               0.001666200              -0.000019798              -0.000114815               0.000593666               0.000478851               0.000000000               0.000000000               0.000000000               0.000000000               0.000233341               0.001740759              -0.000009142              -0.000130091               0.000623611               0.000493519               0.000000000               0.000000000               0.000000000               0.000000000               0.000214085               0.001768878              -0.000000223              -0.000140828               0.000636563               0.000495735               0.000000000               0.000000000               0.000000000               0.000000000               0.000178529               0.000184255              -0.000127038               0.000043916               0.000046779               0.000090695               0.000000000               0.000000000               0.000000000               0.000000000               0.000192725               0.000300777              -0.000147421               0.000034674               0.000088700               0.000123374               0.000000000               0.000000000               0.000000000               0.000000000               0.000202829               0.000485461              -0.000156552               0.000015378               0.000156693               0.000172071               0.000000000               0.000000000               0.000000000               0.000000000               0.000216339               0.000641706              -0.000141611               0.000000914               0.000213595               0.000214509               0.000000000               0.000000000               0.000000000               0.000000000               0.000233222               0.000780923              -0.000122472              -0.000010157               0.000263691               0.000253534               0.000000000               0.000000000               0.000000000               0.000000000               0.000247523               0.000898659              -0.000103118              -0.000019511               0.000306054               0.000286542               0.000000000               0.000000000               0.000000000               0.000000000               0.000261237               0.001000283              -0.000083227              -0.000027072               0.000342448               0.000315377               0.000000000               0.000000000               0.000000000               0.000000000               0.000282408               0.001098277              -0.000064558              -0.000031381               0.000376549               0.000345168               0.000000000               0.000000000               0.000000000               0.000000000               0.000307690               0.001196418              -0.000050549              -0.000034169               0.000410192               0.000376023               0.000000000               0.000000000               0.000000000               0.000000000               0.000326792               0.001292443              -0.000042026              -0.000039008               0.000443813               0.000404804               0.000000000               0.000000000               0.000000000               0.000000000               0.000334953               0.001381675              -0.000038771              -0.000047102               0.000476254               0.000429153               0.000000000               0.000000000               0.000000000               0.000000000               0.000335562               0.001459569              -0.000035626              -0.000056610               0.000505388               0.000448778               0.000000000               0.000000000               0.000000000               0.000000000               0.000331678               0.001529857              -0.000032000              -0.000066853               0.000532232               0.000465379               0.000000000               0.000000000               0.000000000               0.000000000               0.000324932               0.001597247              -0.000028937              -0.000077806               0.000558346               0.000480540               0.000000000               0.000000000               0.000000000               0.000000000               0.000317324               0.001664817              -0.000021680              -0.000089105               0.000584635               0.000495530               0.000000000               0.000000000               0.000000000               0.000000000               0.000309307               0.001735382              -0.000010786              -0.000100932               0.000612099               0.000511167               0.000000000               0.000000000               0.000000000               0.000000000               0.000297911               0.001767140              -0.000003016              -0.000109175               0.000625433               0.000516257               0.000000000               0.000000000               0.000000000               0.000000000               0.000151176               0.000133259              -0.000093060               0.000040033               0.000031075               0.000071108               0.000000000               0.000000000               0.000000000               0.000000000               0.000194547               0.000247729              -0.000120373               0.000041989               0.000068579               0.000110568               0.000000000               0.000000000               0.000000000               0.000000000               0.000225547               0.000428941              -0.000136498               0.000030962               0.000132658               0.000163620               0.000000000               0.000000000               0.000000000               0.000000000               0.000244989               0.000588839              -0.000127701               0.000018266               0.000190189               0.000208455               0.000000000               0.000000000               0.000000000               0.000000000               0.000260469               0.000728913              -0.000112033               0.000006562               0.000240782               0.000247343               0.000000000               0.000000000               0.000000000               0.000000000               0.000270578               0.000853758              -0.000094415              -0.000005253               0.000286334               0.000281081               0.000000000               0.000000000               0.000000000               0.000000000               0.000283571               0.000969983              -0.000078536              -0.000014909               0.000328294               0.000313385               0.000000000               0.000000000               0.000000000               0.000000000               0.000303825               0.001082107              -0.000064180              -0.000021329               0.000367808               0.000346480               0.000000000               0.000000000               0.000000000               0.000000000               0.000327551               0.001187736              -0.000050021              -0.000025635               0.000404453               0.000378818               0.000000000               0.000000000               0.000000000               0.000000000               0.000349313               0.001285788              -0.000037932              -0.000029731               0.000438502               0.000408771               0.000000000               0.000000000               0.000000000               0.000000000               0.000364576               0.001375681              -0.000031094              -0.000035244               0.000470304               0.000435060               0.000000000               0.000000000               0.000000000               0.000000000               0.000374661               0.001459248              -0.000027598              -0.000041908               0.000500381               0.000458473               0.000000000               0.000000000               0.000000000               0.000000000               0.000382899               0.001538270              -0.000025054              -0.000048697               0.000528984               0.000480287               0.000000000               0.000000000               0.000000000               0.000000000               0.000386177               0.001606364              -0.000022884              -0.000055979               0.000554109               0.000498130               0.000000000               0.000000000               0.000000000               0.000000000               0.000385600               0.001666764              -0.000018538              -0.000063745               0.000576831               0.000513086               0.000000000               0.000000000               0.000000000               0.000000000               0.000388597               0.001735333              -0.000011440              -0.000071192               0.000602169               0.000530977               0.000000000               0.000000000               0.000000000               0.000000000               0.000386980               0.001770854              -0.000005963              -0.000076239               0.000615692               0.000539453               0.000000000               0.000000000               0.000000000               0.000000000               0.000125908               0.000098806              -0.000060036               0.000034864               0.000021313               0.000056178               0.000000000               0.000000000               0.000000000               0.000000000               0.000193208               0.000203963              -0.000085234               0.000046957               0.000052334               0.000099292               0.000000000               0.000000000               0.000000000               0.000000000               0.000244737               0.000375632              -0.000101885               0.000044822               0.000110269               0.000155091               0.000000000               0.000000000               0.000000000               0.000000000               0.000269806               0.000536499              -0.000097128               0.000034115               0.000167460               0.000201574               0.000000000               0.000000000               0.000000000               0.000000000               0.000282990               0.000680656              -0.000085231               0.000021039               0.000219870               0.000240909               0.000000000               0.000000000               0.000000000               0.000000000               0.000295341               0.000813921              -0.000073517               0.000009013               0.000268300               0.000277313               0.000000000               0.000000000               0.000000000               0.000000000               0.000309552               0.000940898              -0.000063454              -0.000001530               0.000314140               0.000312609               0.000000000               0.000000000               0.000000000               0.000000000               0.000326095               0.001060738              -0.000052315              -0.000010307               0.000357011               0.000346705               0.000000000               0.000000000               0.000000000               0.000000000               0.000344533               0.001169360              -0.000039399              -0.000016970               0.000395440               0.000378469               0.000000000               0.000000000               0.000000000               0.000000000               0.000365170               0.001269662              -0.000028033              -0.000021769               0.000430473               0.000408704               0.000000000               0.000000000               0.000000000               0.000000000               0.000386143               0.001363783              -0.000021503              -0.000025669               0.000463146               0.000437477               0.000000000               0.000000000               0.000000000               0.000000000               0.000406128               0.001456337              -0.000018568              -0.000029744               0.000495356               0.000465611               0.000000000               0.000000000               0.000000000               0.000000000               0.000423261               0.001541057              -0.000016321              -0.000033909               0.000524984               0.000491075               0.000000000               0.000000000               0.000000000               0.000000000               0.000434583               0.001609569              -0.000013525              -0.000038228               0.000549260               0.000511033               0.000000000               0.000000000               0.000000000               0.000000000               0.000443515               0.001671004              -0.000011059              -0.000042557               0.000571181               0.000528624               0.000000000               0.000000000               0.000000000               0.000000000               0.000455531               0.001738257              -0.000007598              -0.000046458               0.000594899               0.000548441               0.000000000               0.000000000               0.000000000               0.000000000               0.000460860               0.001773248              -0.000004322              -0.000048834               0.000607355               0.000558521               0.000000000               0.000000000               0.000000000               0.000000000               0.000108762               0.000077575              -0.000027939               0.000031088               0.000015495               0.000046584               0.000000000               0.000000000               0.000000000               0.000000000               0.000192910               0.000174689              -0.000043342               0.000050504               0.000041394               0.000091899               0.000000000               0.000000000               0.000000000               0.000000000               0.000256772               0.000338393              -0.000054676               0.000053990               0.000094800               0.000148790               0.000000000               0.000000000               0.000000000               0.000000000               0.000285013               0.000498411              -0.000052426               0.000044578               0.000151276               0.000195854               0.000000000               0.000000000               0.000000000               0.000000000               0.000300950               0.000646716              -0.000046260               0.000032016               0.000204898               0.000236914               0.000000000               0.000000000               0.000000000               0.000000000               0.000315540               0.000786735              -0.000041068               0.000019985               0.000255581               0.000275566               0.000000000               0.000000000               0.000000000               0.000000000               0.000327882               0.000917507              -0.000035570               0.000008267               0.000303077               0.000311344               0.000000000               0.000000000               0.000000000               0.000000000               0.000340401               0.001038461              -0.000028904              -0.000002157               0.000346869               0.000344712               0.000000000               0.000000000               0.000000000               0.000000000               0.000357031               0.001151449              -0.000021531              -0.000010044               0.000387161               0.000377116               0.000000000               0.000000000               0.000000000               0.000000000               0.000378874               0.001258103              -0.000015110              -0.000015185               0.000424425               0.000409240               0.000000000               0.000000000               0.000000000               0.000000000               0.000402230               0.001355254              -0.000011026              -0.000018570               0.000457937               0.000439367               0.000000000               0.000000000               0.000000000               0.000000000               0.000426133               0.001450384              -0.000008822              -0.000021498               0.000490622               0.000469124               0.000000000               0.000000000               0.000000000               0.000000000               0.000447284               0.001536639              -0.000006959              -0.000024348               0.000520324               0.000495976               0.000000000               0.000000000               0.000000000               0.000000000               0.000463878               0.001607488              -0.000004984              -0.000026982               0.000544818               0.000517836               0.000000000               0.000000000               0.000000000               0.000000000               0.000479925               0.001674449              -0.000003978              -0.000029334               0.000567922               0.000538588               0.000000000               0.000000000               0.000000000               0.000000000               0.000496589               0.001741616              -0.000002814              -0.000031481               0.000591027               0.000559545               0.000000000               0.000000000               0.000000000               0.000000000               0.000504455               0.001774422              -0.000001435              -0.000032632               0.000602345               0.000569713               0.000000000               0.000000000               0.000000000               0.000000000               0.000000000               0.000000000               0.000000000               0.000000000               0.000000000               0.000000000               0.000000000               0.000000000               0.000000000               0.000000000               0.000000000               0.000000000               0.000000000               0.000000000               0.000000000               0.000000000               0.000000000               0.000000000               0.000000000               0.000000000               0.000000000               0.000000000               0.000000000               0.000000000               0.000000000               0.000000000               0.000000000               0.000000000               0.000000000               0.000000000               0.000000000               0.000000000               0.000000000               0.000000000               0.000000000               0.000000000               0.000000000               0.000000000               0.000000000               0.000000000               0.000000000               0.000000000               0.000000000               0.000000000               0.000000000               0.000000000               0.000000000               0.000000000               0.000000000               0.000000000               0.000000000               0.000000000               0.000000000               0.000000000               0.000000000               0.000000000               0.000000000               0.000000000               0.000000000               0.000000000               0.000000000               0.000000000               0.000000000               0.000000000               0.000000000               0.000000000               0.000000000               0.000000000               0.000000000               0.000000000               0.000000000               0.000000000               0.000000000               0.000000000               0.000000000               0.000000000               0.000000000               0.000000000               0.000000000               0.000000000               0.000000000               0.000000000               0.000000000               0.000000000               0.000000000               0.000000000               0.000000000               0.000000000               0.000000000               0.000000000               0.000000000               0.000000000               0.000000000               0.000000000               0.000000000               0.000000000               0.000000000               0.000000000               0.000000000               0.000000000               0.000000000               0.000000000               0.000000000               0.000000000               0.000000000               0.000000000               0.000000000               0.000000000               0.000000000               0.000000000               0.000000000               0.000000000               0.000000000               0.000000000               0.000000000               0.000000000               0.000000000               0.000000000               0.000000000               0.000000000               0.000000000               0.000000000               0.000000000               0.000000000               0.000000000               0.000000000               0.000000000               0.000000000               0.000000000               0.000000000               0.000000000               0.000000000               0.000000000               0.000000000               0.000000000               0.000000000               0.000000000               0.000000000               0.000000000               0.000000000               0.000000000               0.000000000               0.000000000               0.000000000               0.000000000               0.000000000               0.000000000               0.000000000               0.000000000               0.000000000               0.000000000               0.000000000               0.000000000               0.000000000               0.000000000               0.000000000               0.000000000               0.000000000               0.000000000               0.000000000               0.000000000               0.000000000               0.000000000               0.000000000               0.000000000               0.000000000               0.000000000               0.000000000               0.000000000               0.000000000               0.000000000               0.000000000               0.000000000               0.000000000               0.000000000               0.000000000               0.000000000               0.000000000               0.000000000               0.000000000               0.000000000               0.000000000               0.000000000               0.000000000               0.000000000               0.000000000               0.000000000               0.000000000               0.000000000               0.000000000               0.000000000               0.000000000               0.000000000               0.000000000               0.000000000               0.000000000               0.000000000               0.000000000               0.000000000               0.000000000               0.000000000               0.000000000               0.000000000               0.000000000               0.000000000               0.000000000               0.000000000               0.000000000               0.000000000               0.000000000               0.000000000               0.000000000               0.000000000               0.000000000               0.000000000               0.000000000               0.000000000               0.000000000               0.000000000               0.000000000               0.000000000               0.000000000               0.000000000               0.000000000               0.000000000               0.000000000               0.000000000               0.000000000               0.000000000               0.000000000               0.000000000               0.000000000               0.000000000               0.000000000               0.000000000               0.000000000               0.000000000               0.000000000               0.000000000               0.000000000               0.000000000               0.000000000               0.000000000               0.000000000               0.000000000               0.000000000               0.000000000               0.000000000               0.000000000               0.000000000               0.000000000               0.000000000               0.000000000               0.000000000               0.000000000               0.000000000               0.000000000               0.000000000               0.000000000               0.000000000               0.000000000               0.000000000               0.000000000               0.000000000               0.000000000               0.000000000               0.000000000               0.000000000               0.000000000               0.000000000               0.000000000               0.000000000               0.000000000               0.000000000               0.000000000               0.000000000               0.000000000               0.000000000               0.000000000               0.000000000               0.000000000               0.000000000               0.000000000               0.000000000               0.000000000               0.000000000               0.000000000               0.000000000               0.000000000               0.000000000               0.000000000               0.000000000               0.000000000               0.000000000               0.000000000               0.000000000               0.000000000               0.000000000               0.000000000               0.000000000               0.000000000               0.000000000               0.000000000               0.000000000               0.000000000               0.000000000               0.000000000               0.000000000               0.000000000               0.000000000               0.000000000               0.000000000               0.000000000               0.000000000               0.000000000               0.000000000               0.000000000               0.000000000               0.000000000               0.000000000               0.000000000               0.000000000               0.000000000               0.000000000               0.000000000               0.000000000               0.000000000               0.000000000               0.000000000               0.000000000               0.000000000               0.000000000               0.000000000               0.000000000               0.000000000               0.000000000               0.000000000               0.000000000               0.000000000               0.000000000               0.000107970               0.001047051               0.000082381              -0.000090392               0.000379144               0.000288752               0.000000000               0.000000000               0.000000000               0.000000000               0.000127789               0.000893042               0.000056392              -0.000063709               0.000318914               0.000255205               0.000000000               0.000000000               0.000000000               0.000000000               0.000184400               0.000777549               0.000028274              -0.000028044               0.000268528               0.000240485               0.000000000               0.000000000               0.000000000               0.000000000               0.000208759               0.000719841               0.000013792              -0.000011695               0.000243843               0.000232148               0.000000000               0.000000000               0.000000000               0.000000000               0.000218469               0.000692428               0.000005153              -0.000004628               0.000232350               0.000227722               0.000000000               0.000000000               0.000000000               0.000000000               0.000218392               0.000680923               0.000002293              -0.000003219               0.000228045               0.000224827               0.000000000               0.000000000               0.000000000               0.000000000               0.000215550               0.000674413               0.000005426              -0.000003470               0.000225959               0.000222489               0.000000000               0.000000000               0.000000000               0.000000000               0.000217740               0.000664451               0.000013600              -0.000001404               0.000221949               0.000220546               0.000000000               0.000000000               0.000000000               0.000000000               0.000220652               0.000649157               0.000018649               0.000001600               0.000215850               0.000217450               0.000000000               0.000000000               0.000000000               0.000000000               0.000214658               0.000638039               0.000018440               0.000000742               0.000212430               0.000213172               0.000000000               0.000000000               0.000000000               0.000000000               0.000200062               0.000632646               0.000019021              -0.000004058               0.000212232               0.000208175               0.000000000               0.000000000               0.000000000               0.000000000               0.000180873               0.000634167               0.000018006              -0.000011443               0.000215201               0.000203758               0.000000000               0.000000000               0.000000000               0.000000000               0.000154154               0.000642866               0.000015466              -0.000022550               0.000221803               0.000199253               0.000000000               0.000000000               0.000000000               0.000000000               0.000121007               0.000657927               0.000013108              -0.000036863               0.000231595               0.000194731               0.000000000               0.000000000               0.000000000               0.000000000               0.000084437               0.000679281               0.000009935              -0.000053246               0.000244173               0.000190927               0.000000000               0.000000000               0.000000000               0.000000000               0.000043370               0.000705391               0.000005532              -0.000071910               0.000259098               0.000187188               0.000000000               0.000000000               0.000000000               0.000000000               0.000025115               0.000728149               0.000003893              -0.000081600               0.000269914               0.000188314               0.000000000               0.000000000               0.000000000               0.000000000               0.000127044               0.001005473               0.000157622              -0.000078042               0.000361168               0.000283126               0.000000000               0.000000000               0.000000000               0.000000000               0.000136488               0.000859555               0.000107295              -0.000056261               0.000305269               0.000249008               0.000000000               0.000000000               0.000000000               0.000000000               0.000184060               0.000759677               0.000053801              -0.000025937               0.000261869               0.000235932               0.000000000               0.000000000               0.000000000               0.000000000               0.000203726               0.000710402               0.000026322              -0.000012403               0.000240933               0.000228530               0.000000000               0.000000000               0.000000000               0.000000000               0.000210039               0.000689439               0.000011364              -0.000007415               0.000232282               0.000224867               0.000000000               0.000000000               0.000000000               0.000000000               0.000209119               0.000681750               0.000005947              -0.000006799               0.000229514               0.000222715               0.000000000               0.000000000               0.000000000               0.000000000               0.000207702               0.000678727               0.000011550              -0.000006953               0.000228558               0.000221605               0.000000000               0.000000000               0.000000000               0.000000000               0.000205301               0.000671189               0.000025790              -0.000006911               0.000226031               0.000219120               0.000000000               0.000000000               0.000000000               0.000000000               0.000200660               0.000664929               0.000033291              -0.000007869               0.000224264               0.000216395               0.000000000               0.000000000               0.000000000               0.000000000               0.000190472               0.000665048               0.000032544              -0.000011704               0.000225582               0.000213878               0.000000000               0.000000000               0.000000000               0.000000000               0.000174955               0.000668523               0.000032387              -0.000017957               0.000228824               0.000210867               0.000000000               0.000000000               0.000000000               0.000000000               0.000155510               0.000676412               0.000029653              -0.000026235               0.000234214               0.000207978               0.000000000               0.000000000               0.000000000               0.000000000               0.000129982               0.000687816               0.000024979              -0.000037234               0.000241681               0.000204447               0.000000000               0.000000000               0.000000000               0.000000000               0.000100680               0.000703029               0.000019991              -0.000050123               0.000251049               0.000200925               0.000000000               0.000000000               0.000000000               0.000000000               0.000070652               0.000723083               0.000013892              -0.000063891               0.000262322               0.000198431               0.000000000               0.000000000               0.000000000               0.000000000               0.000037233               0.000746578               0.000006970              -0.000079360               0.000275310               0.000195951               0.000000000               0.000000000               0.000000000               0.000000000               0.000022931               0.000766843               0.000005212              -0.000087256               0.000284697               0.000197441               0.000000000               0.000000000               0.000000000               0.000000000               0.000153425               0.000935213               0.000221231              -0.000059367               0.000331524               0.000272156               0.000000000               0.000000000               0.000000000               0.000000000               0.000148278               0.000811858               0.000148320              -0.000045878               0.000285909               0.000240031               0.000000000               0.000000000               0.000000000               0.000000000               0.000181349               0.000734499               0.000073188              -0.000023807               0.000252766               0.000228959               0.000000000               0.000000000               0.000000000               0.000000000               0.000194293               0.000698502               0.000036884              -0.000014453               0.000237649               0.000223196               0.000000000               0.000000000               0.000000000               0.000000000               0.000197204               0.000687372               0.000017343              -0.000011970               0.000233112               0.000221142               0.000000000               0.000000000               0.000000000               0.000000000               0.000195423               0.000685489               0.000011501              -0.000012402               0.000232628               0.000220226               0.000000000               0.000000000               0.000000000               0.000000000               0.000194786               0.000685317               0.000020455              -0.000012620               0.000232644               0.000220024               0.000000000               0.000000000               0.000000000               0.000000000               0.000191612               0.000685244               0.000036999              -0.000013801               0.000233013               0.000219212               0.000000000               0.000000000               0.000000000               0.000000000               0.000184167               0.000693932               0.000043110              -0.000017679               0.000237201               0.000219523               0.000000000               0.000000000               0.000000000               0.000000000               0.000171303               0.000709733               0.000041218              -0.000024478               0.000244735               0.000220257               0.000000000               0.000000000               0.000000000               0.000000000               0.000150608               0.000727466               0.000041528              -0.000034455               0.000253971               0.000219516               0.000000000               0.000000000               0.000000000               0.000000000               0.000126116               0.000747202               0.000038898              -0.000046107               0.000264434               0.000218327               0.000000000               0.000000000               0.000000000               0.000000000               0.000100666               0.000768541               0.000033903              -0.000058318               0.000275617               0.000217299               0.000000000               0.000000000               0.000000000               0.000000000               0.000074764               0.000791460               0.000027979              -0.000070896               0.000287449               0.000216553               0.000000000               0.000000000               0.000000000               0.000000000               0.000051549               0.000817456               0.000020122              -0.000082851               0.000300100               0.000217249               0.000000000               0.000000000               0.000000000               0.000000000               0.000027885               0.000846022               0.000010642              -0.000095296               0.000313770               0.000218474               0.000000000               0.000000000               0.000000000               0.000000000               0.000019549               0.000868821               0.000008182              -0.000101271               0.000323361               0.000222090               0.000000000               0.000000000               0.000000000               0.000000000               0.000187964               0.000850039               0.000263143              -0.000035768               0.000295266               0.000259498               0.000000000               0.000000000               0.000000000               0.000000000               0.000162722               0.000754114               0.000175705              -0.000033243               0.000262450               0.000229206               0.000000000               0.000000000               0.000000000               0.000000000               0.000174649               0.000707396               0.000087284              -0.000022931               0.000243440               0.000220509               0.000000000               0.000000000               0.000000000               0.000000000               0.000180224               0.000690180               0.000045659              -0.000018688               0.000236287               0.000217599               0.000000000               0.000000000               0.000000000               0.000000000               0.000180941               0.000690438               0.000025109              -0.000018452               0.000236294               0.000217843               0.000000000               0.000000000               0.000000000               0.000000000               0.000179003               0.000694799               0.000020425              -0.000019724               0.000238172               0.000218448               0.000000000               0.000000000               0.000000000               0.000000000               0.000183161               0.000703490               0.000030607              -0.000019251               0.000240911               0.000221660               0.000000000               0.000000000               0.000000000               0.000000000               0.000184927               0.000716073               0.000046657              -0.000020161               0.000245409               0.000225248               0.000000000               0.000000000               0.000000000               0.000000000               0.000177826               0.000742978               0.000051394              -0.000026187               0.000256386               0.000230199               0.000000000               0.000000000               0.000000000               0.000000000               0.000160704               0.000776356               0.000048676              -0.000036780               0.000271043               0.000234263               0.000000000               0.000000000               0.000000000               0.000000000               0.000136632               0.000812971               0.000048384              -0.000050384               0.000287782               0.000237398               0.000000000               0.000000000               0.000000000               0.000000000               0.000111235               0.000851534               0.000045628              -0.000064728               0.000305418               0.000240690               0.000000000               0.000000000               0.000000000               0.000000000               0.000084959               0.000890087               0.000040328              -0.000079401               0.000323160               0.000243759               0.000000000               0.000000000               0.000000000               0.000000000               0.000060771               0.000929025               0.000033509              -0.000093339               0.000340785               0.000247446               0.000000000               0.000000000               0.000000000               0.000000000               0.000041041               0.000968186               0.000023959              -0.000105633               0.000357937               0.000252304               0.000000000               0.000000000               0.000000000               0.000000000               0.000021230               0.001005733               0.000012560              -0.000117755               0.000374493               0.000256737               0.000000000               0.000000000               0.000000000               0.000000000               0.000015834               0.001031997               0.000009579              -0.000123061               0.000385016               0.000261955               0.000000000               0.000000000               0.000000000               0.000000000               0.000213940               0.000755805               0.000285303              -0.000014249               0.000256682               0.000242433               0.000000000               0.000000000               0.000000000               0.000000000               0.000171971               0.000690789               0.000190835              -0.000021860               0.000237547               0.000215688               0.000000000               0.000000000               0.000000000               0.000000000               0.000165508               0.000681089               0.000095280              -0.000023071               0.000234718               0.000211647               0.000000000               0.000000000               0.000000000               0.000000000               0.000163206               0.000687070               0.000053609              -0.000024681               0.000237248               0.000212567               0.000000000               0.000000000               0.000000000               0.000000000               0.000162198               0.000702657               0.000035355              -0.000027008               0.000243219               0.000216211               0.000000000               0.000000000               0.000000000               0.000000000               0.000166975               0.000720737               0.000031490              -0.000027476               0.000249402               0.000221926               0.000000000               0.000000000               0.000000000               0.000000000               0.000175948               0.000742575               0.000041672              -0.000026841               0.000256470               0.000229628               0.000000000               0.000000000               0.000000000               0.000000000               0.000181118               0.000777299               0.000054582              -0.000029243               0.000268845               0.000239602               0.000000000               0.000000000               0.000000000               0.000000000               0.000178085               0.000827683               0.000054769              -0.000036678               0.000288118               0.000251439               0.000000000               0.000000000               0.000000000               0.000000000               0.000163087               0.000883319               0.000050952              -0.000049257               0.000310856               0.000261599               0.000000000               0.000000000               0.000000000               0.000000000               0.000138979               0.000937307               0.000049241              -0.000065046               0.000334115               0.000269068               0.000000000               0.000000000               0.000000000               0.000000000               0.000112075               0.000991181               0.000045848              -0.000081869               0.000357680               0.000275811               0.000000000               0.000000000               0.000000000               0.000000000               0.000085700               0.001044205               0.000039953              -0.000098388               0.000380861               0.000282473               0.000000000               0.000000000               0.000000000               0.000000000               0.000063317               0.001096189               0.000032313              -0.000113280               0.000403152               0.000289873               0.000000000               0.000000000               0.000000000               0.000000000               0.000042560               0.001145114               0.000022792              -0.000127179               0.000424094               0.000296915               0.000000000               0.000000000               0.000000000               0.000000000               0.000020948               0.001188131               0.000011908              -0.000140661               0.000442927               0.000302266               0.000000000               0.000000000               0.000000000               0.000000000               0.000015604               0.001216742               0.000009417              -0.000146241               0.000454324               0.000308083               0.000000000               0.000000000               0.000000000               0.000000000               0.000230922               0.000656219               0.000289301               0.000004568               0.000217215               0.000221783               0.000000000               0.000000000               0.000000000               0.000000000               0.000174855               0.000631150               0.000194784              -0.000013323               0.000214822               0.000201499               0.000000000               0.000000000               0.000000000               0.000000000               0.000153169               0.000662222               0.000100406              -0.000025340               0.000229185               0.000203846               0.000000000               0.000000000               0.000000000               0.000000000               0.000148560               0.000693493               0.000062947              -0.000030977               0.000241488               0.000210511               0.000000000               0.000000000               0.000000000               0.000000000               0.000150291               0.000728450               0.000046120              -0.000034697               0.000254380               0.000219683               0.000000000               0.000000000               0.000000000               0.000000000               0.000160707               0.000768873               0.000043127              -0.000035844               0.000268236               0.000232392               0.000000000               0.000000000               0.000000000               0.000000000               0.000178177               0.000818332               0.000049213              -0.000035475               0.000284600               0.000249125               0.000000000               0.000000000               0.000000000               0.000000000               0.000190276               0.000880940               0.000056477              -0.000038764               0.000306565               0.000267801               0.000000000               0.000000000               0.000000000               0.000000000               0.000185189               0.000950304               0.000053731              -0.000049342               0.000333212               0.000283870               0.000000000               0.000000000               0.000000000               0.000000000               0.000167562               0.001020950               0.000050015              -0.000064783               0.000361908               0.000297125               0.000000000               0.000000000               0.000000000               0.000000000               0.000144240               0.001085856               0.000049041              -0.000081642               0.000389162               0.000307521               0.000000000               0.000000000               0.000000000               0.000000000               0.000119061               0.001147630               0.000044369              -0.000098806               0.000415475               0.000316669               0.000000000               0.000000000               0.000000000               0.000000000               0.000093636               0.001207131               0.000037223              -0.000115778               0.000440965               0.000325188               0.000000000               0.000000000               0.000000000               0.000000000               0.000071546               0.001263114               0.000028350              -0.000131059               0.000464720               0.000333661               0.000000000               0.000000000               0.000000000               0.000000000               0.000047372               0.001313415               0.000018999              -0.000146412               0.000486605               0.000340193               0.000000000               0.000000000               0.000000000               0.000000000               0.000021791               0.001357641               0.000010114              -0.000161533               0.000506387               0.000344854               0.000000000               0.000000000               0.000000000               0.000000000               0.000014867               0.001386544               0.000008510              -0.000167743               0.000518091               0.000350348               0.000000000               0.000000000               0.000000000               0.000000000               0.000242073               0.000562457               0.000274109               0.000020470               0.000180660               0.000201130               0.000000000               0.000000000               0.000000000               0.000000000               0.000174762               0.000579772               0.000191175              -0.000006936               0.000195567               0.000188631               0.000000000               0.000000000               0.000000000               0.000000000               0.000142926               0.000653112               0.000107316              -0.000028042               0.000227049               0.000199007               0.000000000               0.000000000               0.000000000               0.000000000               0.000139780               0.000711516               0.000073288              -0.000036522               0.000249344               0.000212822               0.000000000               0.000000000               0.000000000               0.000000000               0.000149731               0.000773548               0.000056894              -0.000040544               0.000271361               0.000230817               0.000000000               0.000000000               0.000000000               0.000000000               0.000172564               0.000843576               0.000050647              -0.000040735               0.000294768               0.000254032               0.000000000               0.000000000               0.000000000               0.000000000               0.000197244               0.000919742               0.000053740              -0.000041001               0.000320245               0.000279244               0.000000000               0.000000000               0.000000000               0.000000000               0.000207730               0.000999346               0.000058623              -0.000047020               0.000348785               0.000301766               0.000000000               0.000000000               0.000000000               0.000000000               0.000198148               0.001083527               0.000054993              -0.000061135               0.000381551               0.000320415               0.000000000               0.000000000               0.000000000               0.000000000               0.000176341               0.001160257               0.000050647              -0.000078904               0.000413050               0.000334146               0.000000000               0.000000000               0.000000000               0.000000000               0.000150093               0.001228864               0.000048560              -0.000097323               0.000442058               0.000344735               0.000000000               0.000000000               0.000000000               0.000000000               0.000124684               0.001294464               0.000040862              -0.000115051               0.000469834               0.000354783               0.000000000               0.000000000               0.000000000               0.000000000               0.000100293               0.001358082               0.000030844              -0.000132150               0.000496739               0.000364590               0.000000000               0.000000000               0.000000000               0.000000000               0.000075262               0.001418190               0.000022023              -0.000149050               0.000522409               0.000373358               0.000000000               0.000000000               0.000000000               0.000000000               0.000047655               0.001472692               0.000013200              -0.000166215               0.000546298               0.000380082               0.000000000               0.000000000               0.000000000               0.000000000               0.000021751               0.001522930               0.000005732              -0.000182209               0.000568374               0.000386165               0.000000000               0.000000000               0.000000000               0.000000000               0.000014305               0.001556188               0.000005687              -0.000189159               0.000581777               0.000392618               0.000000000               0.000000000               0.000000000               0.000000000               0.000244625               0.000483453               0.000250280               0.000031302               0.000150715               0.000182017               0.000000000               0.000000000               0.000000000               0.000000000               0.000175894               0.000536135               0.000186237              -0.000001057               0.000179062               0.000178005               0.000000000               0.000000000               0.000000000               0.000000000               0.000138651               0.000648409               0.000117286              -0.000029057               0.000225820               0.000196763               0.000000000               0.000000000               0.000000000               0.000000000               0.000140531               0.000734744               0.000084673              -0.000039144               0.000257960               0.000218816               0.000000000               0.000000000               0.000000000               0.000000000               0.000159058               0.000823409               0.000067117              -0.000043279               0.000288893               0.000245614               0.000000000               0.000000000               0.000000000               0.000000000               0.000190072               0.000913490               0.000058607              -0.000042909               0.000318797               0.000275887               0.000000000               0.000000000               0.000000000               0.000000000               0.000220283               0.001001244               0.000058076              -0.000042549               0.000347928               0.000305379               0.000000000               0.000000000               0.000000000               0.000000000               0.000230719               0.001091206               0.000057278              -0.000049881               0.000380359               0.000330478               0.000000000               0.000000000               0.000000000               0.000000000               0.000217523               0.001181721               0.000053092              -0.000066144               0.000415951               0.000349807               0.000000000               0.000000000               0.000000000               0.000000000               0.000192362               0.001258546               0.000049060              -0.000085182               0.000447905               0.000362723               0.000000000               0.000000000               0.000000000               0.000000000               0.000166178               0.001328537               0.000044068              -0.000103750               0.000477424               0.000373674               0.000000000               0.000000000               0.000000000               0.000000000               0.000139322               0.001399021               0.000033936              -0.000122632               0.000507213               0.000384581               0.000000000               0.000000000               0.000000000               0.000000000               0.000114708               0.001469632               0.000022158              -0.000140688               0.000536769               0.000396080               0.000000000               0.000000000               0.000000000               0.000000000               0.000089067               0.001538213               0.000013024              -0.000158876               0.000565691               0.000406815               0.000000000               0.000000000               0.000000000               0.000000000               0.000064250               0.001604349               0.000005812              -0.000176450               0.000593594               0.000417145               0.000000000               0.000000000               0.000000000               0.000000000               0.000045440               0.001667186              -0.000000729              -0.000191358               0.000619509               0.000428151               0.000000000               0.000000000               0.000000000               0.000000000               0.000037423               0.001703368              -0.000002312              -0.000198887               0.000634079               0.000435192               0.000000000               0.000000000               0.000000000               0.000000000               0.000239633               0.000401360               0.000226065               0.000039692               0.000120555               0.000160246               0.000000000               0.000000000               0.000000000               0.000000000               0.000178357               0.000477837               0.000183217               0.000007154               0.000156892               0.000164047               0.000000000               0.000000000               0.000000000               0.000000000               0.000143537               0.000620519               0.000133830              -0.000023739               0.000214750               0.000191012               0.000000000               0.000000000               0.000000000               0.000000000               0.000151077               0.000733324               0.000104852              -0.000035011               0.000256109               0.000221098               0.000000000               0.000000000               0.000000000               0.000000000               0.000173010               0.000839771               0.000086091              -0.000040092               0.000293285               0.000253193               0.000000000               0.000000000               0.000000000               0.000000000               0.000205164               0.000944676               0.000075430              -0.000041148               0.000328605               0.000287457               0.000000000               0.000000000               0.000000000               0.000000000               0.000235509               0.001039021               0.000066582              -0.000041562               0.000360191               0.000318629               0.000000000               0.000000000               0.000000000               0.000000000               0.000250409               0.001123436               0.000057968              -0.000046526               0.000389984               0.000343458               0.000000000               0.000000000               0.000000000               0.000000000               0.000243770               0.001206419               0.000052442              -0.000059389               0.000421932               0.000362543               0.000000000               0.000000000               0.000000000               0.000000000               0.000223560               0.001284959               0.000049089              -0.000076785               0.000453910               0.000377126               0.000000000               0.000000000               0.000000000               0.000000000               0.000200138               0.001355849               0.000042809              -0.000094429               0.000483421               0.000388992               0.000000000               0.000000000               0.000000000               0.000000000               0.000175676               0.001426396               0.000033867              -0.000112421               0.000512934               0.000400513               0.000000000               0.000000000               0.000000000               0.000000000               0.000154147               0.001500929               0.000025006              -0.000129811               0.000543575               0.000413764               0.000000000               0.000000000               0.000000000               0.000000000               0.000135113               0.001579615               0.000015408              -0.000146784               0.000575461               0.000428677               0.000000000               0.000000000               0.000000000               0.000000000               0.000114024               0.001654205               0.000007599              -0.000164016               0.000606068               0.000442052               0.000000000               0.000000000               0.000000000               0.000000000               0.000097590               0.001729445               0.000002799              -0.000179584               0.000636337               0.000456753               0.000000000               0.000000000               0.000000000               0.000000000               0.000085982               0.001766674              -0.000001539              -0.000188591               0.000651749               0.000463158               0.000000000               0.000000000               0.000000000               0.000000000               0.000228521               0.000320912               0.000196584               0.000045581               0.000091776               0.000137357               0.000000000               0.000000000               0.000000000               0.000000000               0.000182509               0.000417449               0.000177591               0.000016259               0.000133728               0.000149988               0.000000000               0.000000000               0.000000000               0.000000000               0.000158573               0.000584829               0.000150713              -0.000013639               0.000199487               0.000185848               0.000000000               0.000000000               0.000000000               0.000000000               0.000168869               0.000715818               0.000126097              -0.000026151               0.000247321               0.000221169               0.000000000               0.000000000               0.000000000               0.000000000               0.000188701               0.000835453               0.000105484              -0.000033669               0.000289705               0.000256036               0.000000000               0.000000000               0.000000000               0.000000000               0.000213997               0.000950689               0.000089509              -0.000038587               0.000329756               0.000291168               0.000000000               0.000000000               0.000000000               0.000000000               0.000239206               0.001045385               0.000073992              -0.000040971               0.000362115               0.000321144               0.000000000               0.000000000               0.000000000               0.000000000               0.000260008               0.001125053               0.000059178              -0.000043128               0.000389390               0.000346262               0.000000000               0.000000000               0.000000000               0.000000000               0.000267538               0.001205535               0.000049595              -0.000050365               0.000418629               0.000368264               0.000000000               0.000000000               0.000000000               0.000000000               0.000260009               0.001287641               0.000046237              -0.000063452               0.000450360               0.000386908               0.000000000               0.000000000               0.000000000               0.000000000               0.000245072               0.001363465               0.000041874              -0.000078531               0.000480661               0.000402130               0.000000000               0.000000000               0.000000000               0.000000000               0.000229493               0.001435637               0.000037283              -0.000093395               0.000509672               0.000416278               0.000000000               0.000000000               0.000000000               0.000000000               0.000212668               0.001507836               0.000032015              -0.000108729               0.000538850               0.000430121               0.000000000               0.000000000               0.000000000               0.000000000               0.000197061               0.001583817               0.000022723              -0.000124079               0.000569293               0.000445214               0.000000000               0.000000000               0.000000000               0.000000000               0.000181171               0.001661013               0.000013370              -0.000139687               0.000600228               0.000460541               0.000000000               0.000000000               0.000000000               0.000000000               0.000163872               0.001738364               0.000006767              -0.000155843               0.000631396               0.000475553               0.000000000               0.000000000               0.000000000               0.000000000               0.000145668               0.001769250              -0.000000368              -0.000166530               0.000645254               0.000478724               0.000000000               0.000000000               0.000000000               0.000000000               0.000206634               0.000248903               0.000161913               0.000046374               0.000067509               0.000113883               0.000000000               0.000000000               0.000000000               0.000000000               0.000187387               0.000359101               0.000165975               0.000025382               0.000111238               0.000136621               0.000000000               0.000000000               0.000000000               0.000000000               0.000179245               0.000539529               0.000160531              -0.000000224               0.000179916               0.000179692               0.000000000               0.000000000               0.000000000               0.000000000               0.000190903               0.000684304               0.000140357              -0.000013949               0.000232749               0.000218800               0.000000000               0.000000000               0.000000000               0.000000000               0.000208323               0.000818310               0.000118801              -0.000024168               0.000280823               0.000256655               0.000000000               0.000000000               0.000000000               0.000000000               0.000227341               0.000936808               0.000099823              -0.000031848               0.000322882               0.000291034               0.000000000               0.000000000               0.000000000               0.000000000               0.000247079               0.001031345               0.000080592              -0.000036263               0.000355866               0.000319603               0.000000000               0.000000000               0.000000000               0.000000000               0.000267837               0.001113790               0.000061626              -0.000038785               0.000384188               0.000345403               0.000000000               0.000000000               0.000000000               0.000000000               0.000286957               0.001199526               0.000049054              -0.000042332               0.000413949               0.000371617               0.000000000               0.000000000               0.000000000               0.000000000               0.000295022               0.001288739               0.000043747              -0.000050459               0.000446395               0.000395936               0.000000000               0.000000000               0.000000000               0.000000000               0.000293115               0.001374022               0.000041555              -0.000061835               0.000478614               0.000416780               0.000000000               0.000000000               0.000000000               0.000000000               0.000286633               0.001450632               0.000039009              -0.000073841               0.000508153               0.000434312               0.000000000               0.000000000               0.000000000               0.000000000               0.000273844               0.001518748               0.000035115              -0.000087152               0.000535295               0.000448143               0.000000000               0.000000000               0.000000000               0.000000000               0.000260399               0.001589130               0.000028832              -0.000100992               0.000563369               0.000462377               0.000000000               0.000000000               0.000000000               0.000000000               0.000249227               0.001666200               0.000019798              -0.000114815               0.000593666               0.000478851               0.000000000               0.000000000               0.000000000               0.000000000               0.000233341               0.001740759               0.000009142              -0.000130091               0.000623611               0.000493519               0.000000000               0.000000000               0.000000000               0.000000000               0.000214085               0.001768878               0.000000223              -0.000140828               0.000636563               0.000495735               0.000000000               0.000000000               0.000000000               0.000000000               0.000178529               0.000184255               0.000127038               0.000043916               0.000046779               0.000090695               0.000000000               0.000000000               0.000000000               0.000000000               0.000192725               0.000300777               0.000147421               0.000034674               0.000088700               0.000123374               0.000000000               0.000000000               0.000000000               0.000000000               0.000202829               0.000485461               0.000156552               0.000015378               0.000156693               0.000172071               0.000000000               0.000000000               0.000000000               0.000000000               0.000216339               0.000641706               0.000141611               0.000000914               0.000213595               0.000214509               0.000000000               0.000000000               0.000000000               0.000000000               0.000233222               0.000780923               0.000122472              -0.000010157               0.000263691               0.000253534               0.000000000               0.000000000               0.000000000               0.000000000               0.000247523               0.000898659               0.000103118              -0.000019511               0.000306054               0.000286542               0.000000000               0.000000000               0.000000000               0.000000000               0.000261237               0.001000283               0.000083227              -0.000027072               0.000342448               0.000315377               0.000000000               0.000000000               0.000000000               0.000000000               0.000282408               0.001098277               0.000064558              -0.000031381               0.000376549               0.000345168               0.000000000               0.000000000               0.000000000               0.000000000               0.000307690               0.001196418               0.000050549              -0.000034169               0.000410192               0.000376023               0.000000000               0.000000000               0.000000000               0.000000000               0.000326792               0.001292443               0.000042026              -0.000039008               0.000443813               0.000404804               0.000000000               0.000000000               0.000000000               0.000000000               0.000334953               0.001381675               0.000038771              -0.000047102               0.000476254               0.000429153               0.000000000               0.000000000               0.000000000               0.000000000               0.000335562               0.001459569               0.000035626              -0.000056610               0.000505388               0.000448778               0.000000000               0.000000000               0.000000000               0.000000000               0.000331678               0.001529857               0.000032000              -0.000066853               0.000532232               0.000465379               0.000000000               0.000000000               0.000000000               0.000000000               0.000324932               0.001597247               0.000028937              -0.000077806               0.000558346               0.000480540               0.000000000               0.000000000               0.000000000               0.000000000               0.000317324               0.001664817               0.000021680              -0.000089105               0.000584635               0.000495530               0.000000000               0.000000000               0.000000000               0.000000000               0.000309307               0.001735382               0.000010786              -0.000100932               0.000612099               0.000511167               0.000000000               0.000000000               0.000000000               0.000000000               0.000297911               0.001767140               0.000003016              -0.000109175               0.000625433               0.000516257               0.000000000               0.000000000               0.000000000               0.000000000               0.000151176               0.000133259               0.000093060               0.000040033               0.000031075               0.000071108               0.000000000               0.000000000               0.000000000               0.000000000               0.000194547               0.000247729               0.000120373               0.000041989               0.000068579               0.000110568               0.000000000               0.000000000               0.000000000               0.000000000               0.000225547               0.000428941               0.000136498               0.000030962               0.000132658               0.000163620               0.000000000               0.000000000               0.000000000               0.000000000               0.000244989               0.000588839               0.000127701               0.000018266               0.000190189               0.000208455               0.000000000               0.000000000               0.000000000               0.000000000               0.000260469               0.000728913               0.000112033               0.000006562               0.000240782               0.000247343               0.000000000               0.000000000               0.000000000               0.000000000               0.000270578               0.000853758               0.000094415              -0.000005253               0.000286334               0.000281081               0.000000000               0.000000000               0.000000000               0.000000000               0.000283571               0.000969983               0.000078536              -0.000014909               0.000328294               0.000313385               0.000000000               0.000000000               0.000000000               0.000000000               0.000303825               0.001082107               0.000064180              -0.000021329               0.000367808               0.000346480               0.000000000               0.000000000               0.000000000               0.000000000               0.000327551               0.001187736               0.000050021              -0.000025635               0.000404453               0.000378818               0.000000000               0.000000000               0.000000000               0.000000000               0.000349313               0.001285788               0.000037932              -0.000029731               0.000438502               0.000408771               0.000000000               0.000000000               0.000000000               0.000000000               0.000364576               0.001375681               0.000031094              -0.000035244               0.000470304               0.000435060               0.000000000               0.000000000               0.000000000               0.000000000               0.000374661               0.001459248               0.000027598              -0.000041908               0.000500381               0.000458473               0.000000000               0.000000000               0.000000000               0.000000000               0.000382899               0.001538270               0.000025054              -0.000048697               0.000528984               0.000480287               0.000000000               0.000000000               0.000000000               0.000000000               0.000386177               0.001606364               0.000022884              -0.000055979               0.000554109               0.000498130               0.000000000               0.000000000               0.000000000               0.000000000               0.000385600               0.001666764               0.000018538              -0.000063745               0.000576831               0.000513086               0.000000000               0.000000000               0.000000000               0.000000000               0.000388597               0.001735333               0.000011440              -0.000071192               0.000602169               0.000530977               0.000000000               0.000000000               0.000000000               0.000000000               0.000386980               0.001770854               0.000005963              -0.000076239               0.000615692               0.000539453               0.000000000               0.000000000               0.000000000               0.000000000               0.000125908               0.000098806               0.000060036               0.000034864               0.000021313               0.000056178               0.000000000               0.000000000               0.000000000               0.000000000               0.000193208               0.000203963               0.000085234               0.000046957               0.000052334               0.000099292               0.000000000               0.000000000               0.000000000               0.000000000               0.000244737               0.000375632               0.000101885               0.000044822               0.000110269               0.000155091               0.000000000               0.000000000               0.000000000               0.000000000               0.000269806               0.000536499               0.000097128               0.000034115               0.000167460               0.000201574               0.000000000               0.000000000               0.000000000               0.000000000               0.000282990               0.000680656               0.000085231               0.000021039               0.000219870               0.000240909               0.000000000               0.000000000               0.000000000               0.000000000               0.000295341               0.000813921               0.000073517               0.000009013               0.000268300               0.000277313               0.000000000               0.000000000               0.000000000               0.000000000               0.000309552               0.000940898               0.000063454              -0.000001530               0.000314140               0.000312609               0.000000000               0.000000000               0.000000000               0.000000000               0.000326095               0.001060738               0.000052315              -0.000010307               0.000357011               0.000346705               0.000000000               0.000000000               0.000000000               0.000000000               0.000344533               0.001169360               0.000039399              -0.000016970               0.000395440               0.000378469               0.000000000               0.000000000               0.000000000               0.000000000               0.000365170               0.001269662               0.000028033              -0.000021769               0.000430473               0.000408704               0.000000000               0.000000000               0.000000000               0.000000000               0.000386143               0.001363783               0.000021503              -0.000025669               0.000463146               0.000437477               0.000000000               0.000000000               0.000000000               0.000000000               0.000406128               0.001456337               0.000018568              -0.000029744               0.000495356               0.000465611               0.000000000               0.000000000               0.000000000               0.000000000               0.000423261               0.001541057               0.000016321              -0.000033909               0.000524984               0.000491075               0.000000000               0.000000000               0.000000000               0.000000000               0.000434583               0.001609569               0.000013525              -0.000038228               0.000549260               0.000511033               0.000000000               0.000000000               0.000000000               0.000000000               0.000443515               0.001671004               0.000011059              -0.000042557               0.000571181               0.000528624               0.000000000               0.000000000               0.000000000               0.000000000               0.000455531               0.001738257               0.000007598              -0.000046458               0.000594899               0.000548441               0.000000000               0.000000000               0.000000000               0.000000000               0.000460860               0.001773248               0.000004322              -0.000048834               0.000607355               0.000558521               0.000000000               0.000000000               0.000000000               0.000000000               0.000108762               0.000077575               0.000027939               0.000031088               0.000015495               0.000046584               0.000000000               0.000000000               0.000000000               0.000000000               0.000192910               0.000174689               0.000043342               0.000050504               0.000041394               0.000091899               0.000000000               0.000000000               0.000000000               0.000000000               0.000256772               0.000338393               0.000054676               0.000053990               0.000094800               0.000148790               0.000000000               0.000000000               0.000000000               0.000000000               0.000285013               0.000498411               0.000052426               0.000044578               0.000151276               0.000195854               0.000000000               0.000000000               0.000000000               0.000000000               0.000300950               0.000646716               0.000046260               0.000032016               0.000204898               0.000236914               0.000000000               0.000000000               0.000000000               0.000000000               0.000315540               0.000786735               0.000041068               0.000019985               0.000255581               0.000275566               0.000000000               0.000000000               0.000000000               0.000000000               0.000327882               0.000917507               0.000035570               0.000008267               0.000303077               0.000311344               0.000000000               0.000000000               0.000000000               0.000000000               0.000340401               0.001038461               0.000028904              -0.000002157               0.000346869               0.000344712               0.000000000               0.000000000               0.000000000               0.000000000               0.000357031               0.001151449               0.000021531              -0.000010044               0.000387161               0.000377116               0.000000000               0.000000000               0.000000000               0.000000000               0.000378874               0.001258103               0.000015110              -0.000015185               0.000424425               0.000409240               0.000000000               0.000000000               0.000000000               0.000000000               0.000402230               0.001355254               0.000011026              -0.000018570               0.000457937               0.000439367               0.000000000               0.000000000               0.000000000               0.000000000               0.000426133               0.001450384               0.000008822              -0.000021498               0.000490622               0.000469124               0.000000000               0.000000000               0.000000000               0.000000000               0.000447284               0.001536639               0.000006959              -0.000024348               0.000520324               0.000495976               0.000000000               0.000000000               0.000000000               0.000000000               0.000463878               0.001607488               0.000004984              -0.000026982               0.000544818               0.000517836               0.000000000               0.000000000               0.000000000               0.000000000               0.000479925               0.001674449               0.000003978              -0.000029334               0.000567922               0.000538588               0.000000000               0.000000000               0.000000000               0.000000000               0.000496589               0.001741616               0.000002814              -0.000031481               0.000591027               0.000559545               0.000000000               0.000000000               0.000000000               0.000000000               0.000504455               0.001774422               0.000001435              -0.000032632               0.000602345               0.000569713               0.000000000               0.000000000               0.000000000               0.000000000               0.000000000               0.000000000               0.000000000               0.000000000               0.000000000               0.000000000               0.000000000               0.000000000               0.000000000               0.000000000               0.000000000               0.000000000               0.000000000               0.000000000               0.000000000               0.000000000               0.000000000               0.000000000               0.000000000               0.000000000               0.000000000               0.000000000               0.000000000               0.000000000               0.000000000               0.000000000               0.000000000               0.000000000               0.000000000               0.000000000               0.000000000               0.000000000               0.000000000               0.000000000               0.000000000               0.000000000               0.000000000               0.000000000               0.000000000               0.000000000               0.000000000               0.000000000               0.000000000               0.000000000               0.000000000               0.000000000               0.000000000               0.000000000               0.000000000               0.000000000               0.000000000               0.000000000               0.000000000               0.000000000               0.000000000               0.000000000               0.000000000               0.000000000               0.000000000               0.000000000               0.000000000               0.000000000               0.000000000               0.000000000               0.000000000               0.000000000               0.000000000               0.000000000               0.000000000               0.000000000               0.000000000               0.000000000               0.000000000               0.000000000               0.000000000               0.000000000               0.000000000               0.000000000               0.000000000               0.000000000               0.000000000               0.000000000               0.000000000               0.000000000               0.000000000               0.000000000               0.000000000               0.000000000               0.000000000               0.000000000               0.000000000               0.000000000               0.000000000               0.000000000               0.000000000               0.000000000               0.000000000               0.000000000               0.000000000               0.000000000               0.000000000               0.000000000               0.000000000               0.000000000               0.000000000               0.000000000               0.000000000               0.000000000               0.000000000               0.000000000               0.000000000               0.000000000               0.000000000               0.000000000               0.000000000               0.000000000               0.000000000               0.000000000               0.000000000               0.000000000               0.000000000               0.000000000               0.000000000               0.000000000               0.000000000               0.000000000               0.000000000               0.000000000               0.000000000               0.000000000               0.000000000               0.000000000               0.000000000               0.000000000               0.000000000               0.000000000               0.000000000               0.000000000               0.000000000               0.000000000               0.000000000               0.000000000               0.000000000               0.000000000               0.000000000               0.000000000               0.000000000               0.000000000               0.000000000               0.000000000               0.000000000               0.000000000               0.000000000               0.000000000               0.000000000               0.000000000               0.000000000               0.000000000               0.000000000               0.000000000               0.000000000               0.000000000               0.000000000               0.000000000               0.000000000               0.000000000               0.000000000               0.000000000               0.000000000               0.000000000 </DataArray>
</PointData>
</Piece>
</UnstructuredGrid> </VTKFile>
