<?xml version="1.0"?>
<VTKFile type="UnstructuredGrid" version="0.1">
<UnstructuredGrid>
<Piece NumberOfPoints="      1156" NumberOfCells="      1024">
<Points>
<DataArray type="Float64"                                    Name="coordinates"                                                      NumberOfComponents=" 3" format="ascii">
              0.133000000               0.000000000               0.000000000               0.155937500               0.000000000               0.000000000               0.178875000               0.000000000               0.000000000               0.201812500               0.000000000               0.000000000               0.224750000               0.000000000               0.000000000               0.247687500               0.000000000               0.000000000               0.270625000               0.000000000               0.000000000               0.293562500               0.000000000               0.000000000               0.316500000               0.000000000               0.000000000               0.339437500               0.000000000               0.000000000               0.362375000               0.000000000               0.000000000               0.385312500               0.000000000               0.000000000               0.408250000               0.000000000               0.000000000               0.431187500               0.000000000               0.000000000               0.454125000               0.000000000               0.000000000               0.477062500               0.000000000               0.000000000               0.500000000               0.000000000               0.000000000               0.132359569               0.013036280               0.000000000               0.155337096               0.016127762               0.000000000               0.178314623               0.019219245               0.000000000               0.201292150               0.022310727               0.000000000               0.224269676               0.025402210               0.000000000               0.247247203               0.028493692               0.000000000               0.270224730               0.031585175               0.000000000               0.293202257               0.034676657               0.000000000               0.316179784               0.037768140               0.000000000               0.339157311               0.040859622               0.000000000               0.362134838               0.043951105               0.000000000               0.385112365               0.047042587               0.000000000               0.408089892               0.050134070               0.000000000               0.431067419               0.053225552               0.000000000               0.454044946               0.056317035               0.000000000               0.477022473               0.059408517               0.000000000               0.500000000               0.062500000               0.000000000               0.130444442               0.025947013               0.000000000               0.153541665               0.032137825               0.000000000               0.176638887               0.038328636               0.000000000               0.199736109               0.044519448               0.000000000               0.222833332               0.050710260               0.000000000               0.245930554               0.056901071               0.000000000               0.269027776               0.063091883               0.000000000               0.292124999               0.069282695               0.000000000               0.315222221               0.075473506               0.000000000               0.338319444               0.081664318               0.000000000               0.361416666               0.087855130               0.000000000               0.384513888               0.094045942               0.000000000               0.407611111               0.100236753               0.000000000               0.430708333               0.106427565               0.000000000               0.453805555               0.112618377               0.000000000               0.476902778               0.118809188               0.000000000               0.500000000               0.125000000               0.000000000               0.127273065               0.038607862               0.000000000               0.150568498               0.047913621               0.000000000               0.173863932               0.057219379               0.000000000               0.197159365               0.066525138               0.000000000               0.220454798               0.075830897               0.000000000               0.243750232               0.085136655               0.000000000               0.267045665               0.094442414               0.000000000               0.290341099               0.103748172               0.000000000               0.313636532               0.113053931               0.000000000               0.336931966               0.122359690               0.000000000               0.360227399               0.131665448               0.000000000               0.383522833               0.140971207               0.000000000               0.406818266               0.150276966               0.000000000               0.430113700               0.159582724               0.000000000               0.453409133               0.168888483               0.000000000               0.476704567               0.178194241               0.000000000               0.500000000               0.187500000               0.000000000               0.122875978               0.050896897               0.000000000               0.146446229               0.063340840               0.000000000               0.170016481               0.075784784               0.000000000               0.193586732               0.088228728               0.000000000               0.217156983               0.100672672               0.000000000               0.240727235               0.113116616               0.000000000               0.264297486               0.125560560               0.000000000               0.287867738               0.138004504               0.000000000               0.311437989               0.150448448               0.000000000               0.335008240               0.162892392               0.000000000               0.358578492               0.175336336               0.000000000               0.382148743               0.187780280               0.000000000               0.405718994               0.200224224               0.000000000               0.429289246               0.212668168               0.000000000               0.452859497               0.225112112               0.000000000               0.476429749               0.237556056               0.000000000               0.500000000               0.250000000               0.000000000               0.117295528               0.062695766               0.000000000               0.141214558               0.078308531               0.000000000               0.165133587               0.093921295               0.000000000               0.189052617               0.109534060               0.000000000               0.212971646               0.125146824               0.000000000               0.236890676               0.140759589               0.000000000               0.260809705               0.156372354               0.000000000               0.284728735               0.171985118               0.000000000               0.308647764               0.187597883               0.000000000               0.332566794               0.203210648               0.000000000               0.356485823               0.218823412               0.000000000               0.380404853               0.234436177               0.000000000               0.404323882               0.250048941               0.000000000               0.428242912               0.265661706               0.000000000               0.452161941               0.281274471               0.000000000               0.476080971               0.296887235               0.000000000               0.500000000               0.312500000               0.000000000               0.110585458               0.073890841               0.000000000               0.134923867               0.092710163               0.000000000               0.159262276               0.111529486               0.000000000               0.183600685               0.130348808               0.000000000               0.207939094               0.149168131               0.000000000               0.232277503               0.167987453               0.000000000               0.256615912               0.186806776               0.000000000               0.280954320               0.205626098               0.000000000               0.305292729               0.224445420               0.000000000               0.329631138               0.243264743               0.000000000               0.353969547               0.262084065               0.000000000               0.378307956               0.280903388               0.000000000               0.402646365               0.299722710               0.000000000               0.426984773               0.318542033               0.000000000               0.451323182               0.337361355               0.000000000               0.475661591               0.356180678               0.000000000               0.500000000               0.375000000               0.000000000               0.102810390               0.084374307               0.000000000               0.127634741               0.106444663               0.000000000               0.152459092               0.128515018               0.000000000               0.177283442               0.150585374               0.000000000               0.202107793               0.172655730               0.000000000               0.226932143               0.194726086               0.000000000               0.251756494               0.216796442               0.000000000               0.276580845               0.238866798               0.000000000               0.301405195               0.260937153               0.000000000               0.326229546               0.283007509               0.000000000               0.351053896               0.305077865               0.000000000               0.375878247               0.327148221               0.000000000               0.400702598               0.349218577               0.000000000               0.425526948               0.371288933               0.000000000               0.450351299               0.393359288               0.000000000               0.475175649               0.415429644               0.000000000               0.500000000               0.437500000               0.000000000               0.094045202               0.094045202               0.000000000               0.119417377               0.119417377               0.000000000               0.144789552               0.144789552               0.000000000               0.170161727               0.170161727               0.000000000               0.195533901               0.195533901               0.000000000               0.220906076               0.220906076               0.000000000               0.246278251               0.246278251               0.000000000               0.271650426               0.271650426               0.000000000               0.297022601               0.297022601               0.000000000               0.322394776               0.322394776               0.000000000               0.347766951               0.347766951               0.000000000               0.373139126               0.373139126               0.000000000               0.398511300               0.398511300               0.000000000               0.423883475               0.423883475               0.000000000               0.449255650               0.449255650               0.000000000               0.474627825               0.474627825               0.000000000               0.500000000               0.500000000               0.000000000               0.084374307               0.102810390               0.000000000               0.106444663               0.127634741               0.000000000               0.128515018               0.152459092               0.000000000               0.150585374               0.177283442               0.000000000               0.172655730               0.202107793               0.000000000               0.194726086               0.226932143               0.000000000               0.216796442               0.251756494               0.000000000               0.238866798               0.276580845               0.000000000               0.260937153               0.301405195               0.000000000               0.283007509               0.326229546               0.000000000               0.305077865               0.351053896               0.000000000               0.327148221               0.375878247               0.000000000               0.349218577               0.400702598               0.000000000               0.371288933               0.425526948               0.000000000               0.393359288               0.450351299               0.000000000               0.415429644               0.475175649               0.000000000               0.437500000               0.500000000               0.000000000               0.073890841               0.110585458               0.000000000               0.092710163               0.134923867               0.000000000               0.111529486               0.159262276               0.000000000               0.130348808               0.183600685               0.000000000               0.149168131               0.207939094               0.000000000               0.167987453               0.232277503               0.000000000               0.186806776               0.256615912               0.000000000               0.205626098               0.280954320               0.000000000               0.224445420               0.305292729               0.000000000               0.243264743               0.329631138               0.000000000               0.262084065               0.353969547               0.000000000               0.280903388               0.378307956               0.000000000               0.299722710               0.402646365               0.000000000               0.318542033               0.426984773               0.000000000               0.337361355               0.451323182               0.000000000               0.356180678               0.475661591               0.000000000               0.375000000               0.500000000               0.000000000               0.062695766               0.117295528               0.000000000               0.078308531               0.141214558               0.000000000               0.093921295               0.165133587               0.000000000               0.109534060               0.189052617               0.000000000               0.125146824               0.212971646               0.000000000               0.140759589               0.236890676               0.000000000               0.156372354               0.260809705               0.000000000               0.171985118               0.284728735               0.000000000               0.187597883               0.308647764               0.000000000               0.203210648               0.332566794               0.000000000               0.218823412               0.356485823               0.000000000               0.234436177               0.380404853               0.000000000               0.250048941               0.404323882               0.000000000               0.265661706               0.428242912               0.000000000               0.281274471               0.452161941               0.000000000               0.296887235               0.476080971               0.000000000               0.312500000               0.500000000               0.000000000               0.050896897               0.122875978               0.000000000               0.063340840               0.146446229               0.000000000               0.075784784               0.170016481               0.000000000               0.088228728               0.193586732               0.000000000               0.100672672               0.217156983               0.000000000               0.113116616               0.240727235               0.000000000               0.125560560               0.264297486               0.000000000               0.138004504               0.287867738               0.000000000               0.150448448               0.311437989               0.000000000               0.162892392               0.335008240               0.000000000               0.175336336               0.358578492               0.000000000               0.187780280               0.382148743               0.000000000               0.200224224               0.405718994               0.000000000               0.212668168               0.429289246               0.000000000               0.225112112               0.452859497               0.000000000               0.237556056               0.476429749               0.000000000               0.250000000               0.500000000               0.000000000               0.038607862               0.127273065               0.000000000               0.047913621               0.150568498               0.000000000               0.057219379               0.173863932               0.000000000               0.066525138               0.197159365               0.000000000               0.075830897               0.220454798               0.000000000               0.085136655               0.243750232               0.000000000               0.094442414               0.267045665               0.000000000               0.103748172               0.290341099               0.000000000               0.113053931               0.313636532               0.000000000               0.122359690               0.336931966               0.000000000               0.131665448               0.360227399               0.000000000               0.140971207               0.383522833               0.000000000               0.150276966               0.406818266               0.000000000               0.159582724               0.430113700               0.000000000               0.168888483               0.453409133               0.000000000               0.178194241               0.476704567               0.000000000               0.187500000               0.500000000               0.000000000               0.025947013               0.130444442               0.000000000               0.032137825               0.153541665               0.000000000               0.038328636               0.176638887               0.000000000               0.044519448               0.199736109               0.000000000               0.050710260               0.222833332               0.000000000               0.056901071               0.245930554               0.000000000               0.063091883               0.269027776               0.000000000               0.069282695               0.292124999               0.000000000               0.075473506               0.315222221               0.000000000               0.081664318               0.338319444               0.000000000               0.087855130               0.361416666               0.000000000               0.094045942               0.384513888               0.000000000               0.100236753               0.407611111               0.000000000               0.106427565               0.430708333               0.000000000               0.112618377               0.453805555               0.000000000               0.118809188               0.476902778               0.000000000               0.125000000               0.500000000               0.000000000               0.013036280               0.132359569               0.000000000               0.016127762               0.155337096               0.000000000               0.019219245               0.178314623               0.000000000               0.022310727               0.201292150               0.000000000               0.025402210               0.224269676               0.000000000               0.028493692               0.247247203               0.000000000               0.031585175               0.270224730               0.000000000               0.034676657               0.293202257               0.000000000               0.037768140               0.316179784               0.000000000               0.040859622               0.339157311               0.000000000               0.043951105               0.362134838               0.000000000               0.047042587               0.385112365               0.000000000               0.050134070               0.408089892               0.000000000               0.053225552               0.431067419               0.000000000               0.056317035               0.454044946               0.000000000               0.059408517               0.477022473               0.000000000               0.062500000               0.500000000               0.000000000               0.000000000               0.133000000               0.000000000               0.000000000               0.155937500               0.000000000               0.000000000               0.178875000               0.000000000               0.000000000               0.201812500               0.000000000               0.000000000               0.224750000               0.000000000               0.000000000               0.247687500               0.000000000               0.000000000               0.270625000               0.000000000               0.000000000               0.293562500               0.000000000               0.000000000               0.316500000               0.000000000               0.000000000               0.339437500               0.000000000               0.000000000               0.362375000               0.000000000               0.000000000               0.385312500               0.000000000               0.000000000               0.408250000               0.000000000               0.000000000               0.431187500               0.000000000               0.000000000               0.454125000               0.000000000               0.000000000               0.477062500               0.000000000               0.000000000               0.500000000               0.000000000               0.133000000               0.000000000               0.000000000               0.155937500               0.000000000               0.000000000               0.178875000               0.000000000               0.000000000               0.201812500               0.000000000               0.000000000               0.224750000               0.000000000               0.000000000               0.247687500               0.000000000               0.000000000               0.270625000               0.000000000               0.000000000               0.293562500               0.000000000               0.000000000               0.316500000               0.000000000               0.000000000               0.339437500               0.000000000               0.000000000               0.362375000               0.000000000               0.000000000               0.385312500               0.000000000               0.000000000               0.408250000               0.000000000               0.000000000               0.431187500               0.000000000               0.000000000               0.454125000               0.000000000               0.000000000               0.477062500               0.000000000               0.000000000               0.500000000               0.000000000               0.000000000               0.132359569              -0.013036280               0.000000000               0.155337096              -0.016127762               0.000000000               0.178314623              -0.019219245               0.000000000               0.201292150              -0.022310727               0.000000000               0.224269676              -0.025402210               0.000000000               0.247247203              -0.028493692               0.000000000               0.270224730              -0.031585175               0.000000000               0.293202257              -0.034676657               0.000000000               0.316179784              -0.037768140               0.000000000               0.339157311              -0.040859622               0.000000000               0.362134838              -0.043951105               0.000000000               0.385112365              -0.047042587               0.000000000               0.408089892              -0.050134070               0.000000000               0.431067419              -0.053225552               0.000000000               0.454044946              -0.056317035               0.000000000               0.477022473              -0.059408517               0.000000000               0.500000000              -0.062500000               0.000000000               0.130444442              -0.025947013               0.000000000               0.153541665              -0.032137825               0.000000000               0.176638887              -0.038328636               0.000000000               0.199736109              -0.044519448               0.000000000               0.222833332              -0.050710260               0.000000000               0.245930554              -0.056901071               0.000000000               0.269027776              -0.063091883               0.000000000               0.292124999              -0.069282695               0.000000000               0.315222221              -0.075473506               0.000000000               0.338319444              -0.081664318               0.000000000               0.361416666              -0.087855130               0.000000000               0.384513888              -0.094045942               0.000000000               0.407611111              -0.100236753               0.000000000               0.430708333              -0.106427565               0.000000000               0.453805555              -0.112618377               0.000000000               0.476902778              -0.118809188               0.000000000               0.500000000              -0.125000000               0.000000000               0.127273065              -0.038607862               0.000000000               0.150568498              -0.047913621               0.000000000               0.173863932              -0.057219379               0.000000000               0.197159365              -0.066525138               0.000000000               0.220454798              -0.075830897               0.000000000               0.243750232              -0.085136655               0.000000000               0.267045665              -0.094442414               0.000000000               0.290341099              -0.103748172               0.000000000               0.313636532              -0.113053931               0.000000000               0.336931966              -0.122359690               0.000000000               0.360227399              -0.131665448               0.000000000               0.383522833              -0.140971207               0.000000000               0.406818266              -0.150276966               0.000000000               0.430113700              -0.159582724               0.000000000               0.453409133              -0.168888483               0.000000000               0.476704567              -0.178194241               0.000000000               0.500000000              -0.187500000               0.000000000               0.122875978              -0.050896897               0.000000000               0.146446229              -0.063340840               0.000000000               0.170016481              -0.075784784               0.000000000               0.193586732              -0.088228728               0.000000000               0.217156983              -0.100672672               0.000000000               0.240727235              -0.113116616               0.000000000               0.264297486              -0.125560560               0.000000000               0.287867738              -0.138004504               0.000000000               0.311437989              -0.150448448               0.000000000               0.335008240              -0.162892392               0.000000000               0.358578492              -0.175336336               0.000000000               0.382148743              -0.187780280               0.000000000               0.405718994              -0.200224224               0.000000000               0.429289246              -0.212668168               0.000000000               0.452859497              -0.225112112               0.000000000               0.476429749              -0.237556056               0.000000000               0.500000000              -0.250000000               0.000000000               0.117295528              -0.062695766               0.000000000               0.141214558              -0.078308531               0.000000000               0.165133587              -0.093921295               0.000000000               0.189052617              -0.109534060               0.000000000               0.212971646              -0.125146824               0.000000000               0.236890676              -0.140759589               0.000000000               0.260809705              -0.156372354               0.000000000               0.284728735              -0.171985118               0.000000000               0.308647764              -0.187597883               0.000000000               0.332566794              -0.203210648               0.000000000               0.356485823              -0.218823412               0.000000000               0.380404853              -0.234436177               0.000000000               0.404323882              -0.250048941               0.000000000               0.428242912              -0.265661706               0.000000000               0.452161941              -0.281274471               0.000000000               0.476080971              -0.296887235               0.000000000               0.500000000              -0.312500000               0.000000000               0.110585458              -0.073890841               0.000000000               0.134923867              -0.092710163               0.000000000               0.159262276              -0.111529486               0.000000000               0.183600685              -0.130348808               0.000000000               0.207939094              -0.149168131               0.000000000               0.232277503              -0.167987453               0.000000000               0.256615912              -0.186806776               0.000000000               0.280954320              -0.205626098               0.000000000               0.305292729              -0.224445420               0.000000000               0.329631138              -0.243264743               0.000000000               0.353969547              -0.262084065               0.000000000               0.378307956              -0.280903388               0.000000000               0.402646365              -0.299722710               0.000000000               0.426984773              -0.318542033               0.000000000               0.451323182              -0.337361355               0.000000000               0.475661591              -0.356180678               0.000000000               0.500000000              -0.375000000               0.000000000               0.102810390              -0.084374307               0.000000000               0.127634741              -0.106444663               0.000000000               0.152459092              -0.128515018               0.000000000               0.177283442              -0.150585374               0.000000000               0.202107793              -0.172655730               0.000000000               0.226932143              -0.194726086               0.000000000               0.251756494              -0.216796442               0.000000000               0.276580845              -0.238866798               0.000000000               0.301405195              -0.260937153               0.000000000               0.326229546              -0.283007509               0.000000000               0.351053896              -0.305077865               0.000000000               0.375878247              -0.327148221               0.000000000               0.400702598              -0.349218577               0.000000000               0.425526948              -0.371288933               0.000000000               0.450351299              -0.393359288               0.000000000               0.475175649              -0.415429644               0.000000000               0.500000000              -0.437500000               0.000000000               0.094045202              -0.094045202               0.000000000               0.119417377              -0.119417377               0.000000000               0.144789552              -0.144789552               0.000000000               0.170161727              -0.170161727               0.000000000               0.195533901              -0.195533901               0.000000000               0.220906076              -0.220906076               0.000000000               0.246278251              -0.246278251               0.000000000               0.271650426              -0.271650426               0.000000000               0.297022601              -0.297022601               0.000000000               0.322394776              -0.322394776               0.000000000               0.347766951              -0.347766951               0.000000000               0.373139126              -0.373139126               0.000000000               0.398511300              -0.398511300               0.000000000               0.423883475              -0.423883475               0.000000000               0.449255650              -0.449255650               0.000000000               0.474627825              -0.474627825               0.000000000               0.500000000              -0.500000000               0.000000000               0.084374307              -0.102810390               0.000000000               0.106444663              -0.127634741               0.000000000               0.128515018              -0.152459092               0.000000000               0.150585374              -0.177283442               0.000000000               0.172655730              -0.202107793               0.000000000               0.194726086              -0.226932143               0.000000000               0.216796442              -0.251756494               0.000000000               0.238866798              -0.276580845               0.000000000               0.260937153              -0.301405195               0.000000000               0.283007509              -0.326229546               0.000000000               0.305077865              -0.351053896               0.000000000               0.327148221              -0.375878247               0.000000000               0.349218577              -0.400702598               0.000000000               0.371288933              -0.425526948               0.000000000               0.393359288              -0.450351299               0.000000000               0.415429644              -0.475175649               0.000000000               0.437500000              -0.500000000               0.000000000               0.073890841              -0.110585458               0.000000000               0.092710163              -0.134923867               0.000000000               0.111529486              -0.159262276               0.000000000               0.130348808              -0.183600685               0.000000000               0.149168131              -0.207939094               0.000000000               0.167987453              -0.232277503               0.000000000               0.186806776              -0.256615912               0.000000000               0.205626098              -0.280954320               0.000000000               0.224445420              -0.305292729               0.000000000               0.243264743              -0.329631138               0.000000000               0.262084065              -0.353969547               0.000000000               0.280903388              -0.378307956               0.000000000               0.299722710              -0.402646365               0.000000000               0.318542033              -0.426984773               0.000000000               0.337361355              -0.451323182               0.000000000               0.356180678              -0.475661591               0.000000000               0.375000000              -0.500000000               0.000000000               0.062695766              -0.117295528               0.000000000               0.078308531              -0.141214558               0.000000000               0.093921295              -0.165133587               0.000000000               0.109534060              -0.189052617               0.000000000               0.125146824              -0.212971646               0.000000000               0.140759589              -0.236890676               0.000000000               0.156372354              -0.260809705               0.000000000               0.171985118              -0.284728735               0.000000000               0.187597883              -0.308647764               0.000000000               0.203210648              -0.332566794               0.000000000               0.218823412              -0.356485823               0.000000000               0.234436177              -0.380404853               0.000000000               0.250048941              -0.404323882               0.000000000               0.265661706              -0.428242912               0.000000000               0.281274471              -0.452161941               0.000000000               0.296887235              -0.476080971               0.000000000               0.312500000              -0.500000000               0.000000000               0.050896897              -0.122875978               0.000000000               0.063340840              -0.146446229               0.000000000               0.075784784              -0.170016481               0.000000000               0.088228728              -0.193586732               0.000000000               0.100672672              -0.217156983               0.000000000               0.113116616              -0.240727235               0.000000000               0.125560560              -0.264297486               0.000000000               0.138004504              -0.287867738               0.000000000               0.150448448              -0.311437989               0.000000000               0.162892392              -0.335008240               0.000000000               0.175336336              -0.358578492               0.000000000               0.187780280              -0.382148743               0.000000000               0.200224224              -0.405718994               0.000000000               0.212668168              -0.429289246               0.000000000               0.225112112              -0.452859497               0.000000000               0.237556056              -0.476429749               0.000000000               0.250000000              -0.500000000               0.000000000               0.038607862              -0.127273065               0.000000000               0.047913621              -0.150568498               0.000000000               0.057219379              -0.173863932               0.000000000               0.066525138              -0.197159365               0.000000000               0.075830897              -0.220454798               0.000000000               0.085136655              -0.243750232               0.000000000               0.094442414              -0.267045665               0.000000000               0.103748172              -0.290341099               0.000000000               0.113053931              -0.313636532               0.000000000               0.122359690              -0.336931966               0.000000000               0.131665448              -0.360227399               0.000000000               0.140971207              -0.383522833               0.000000000               0.150276966              -0.406818266               0.000000000               0.159582724              -0.430113700               0.000000000               0.168888483              -0.453409133               0.000000000               0.178194241              -0.476704567               0.000000000               0.187500000              -0.500000000               0.000000000               0.025947013              -0.130444442               0.000000000               0.032137825              -0.153541665               0.000000000               0.038328636              -0.176638887               0.000000000               0.044519448              -0.199736109               0.000000000               0.050710260              -0.222833332               0.000000000               0.056901071              -0.245930554               0.000000000               0.063091883              -0.269027776               0.000000000               0.069282695              -0.292124999               0.000000000               0.075473506              -0.315222221               0.000000000               0.081664318              -0.338319444               0.000000000               0.087855130              -0.361416666               0.000000000               0.094045942              -0.384513888               0.000000000               0.100236753              -0.407611111               0.000000000               0.106427565              -0.430708333               0.000000000               0.112618377              -0.453805555               0.000000000               0.118809188              -0.476902778               0.000000000               0.125000000              -0.500000000               0.000000000               0.013036280              -0.132359569               0.000000000               0.016127762              -0.155337096               0.000000000               0.019219245              -0.178314623               0.000000000               0.022310727              -0.201292150               0.000000000               0.025402210              -0.224269676               0.000000000               0.028493692              -0.247247203               0.000000000               0.031585175              -0.270224730               0.000000000               0.034676657              -0.293202257               0.000000000               0.037768140              -0.316179784               0.000000000               0.040859622              -0.339157311               0.000000000               0.043951105              -0.362134838               0.000000000               0.047042587              -0.385112365               0.000000000               0.050134070              -0.408089892               0.000000000               0.053225552              -0.431067419               0.000000000               0.056317035              -0.454044946               0.000000000               0.059408517              -0.477022473               0.000000000               0.062500000              -0.500000000               0.000000000               0.000000000              -0.133000000               0.000000000               0.000000000              -0.155937500               0.000000000               0.000000000              -0.178875000               0.000000000               0.000000000              -0.201812500               0.000000000               0.000000000              -0.224750000               0.000000000               0.000000000              -0.247687500               0.000000000               0.000000000              -0.270625000               0.000000000               0.000000000              -0.293562500               0.000000000               0.000000000              -0.316500000               0.000000000               0.000000000              -0.339437500               0.000000000               0.000000000              -0.362375000               0.000000000               0.000000000              -0.385312500               0.000000000               0.000000000              -0.408250000               0.000000000               0.000000000              -0.431187500               0.000000000               0.000000000              -0.454125000               0.000000000               0.000000000              -0.477062500               0.000000000               0.000000000              -0.500000000               0.000000000              -0.133000000               0.000000000               0.000000000              -0.155937500               0.000000000               0.000000000              -0.178875000               0.000000000               0.000000000              -0.201812500               0.000000000               0.000000000              -0.224750000               0.000000000               0.000000000              -0.247687500               0.000000000               0.000000000              -0.270625000               0.000000000               0.000000000              -0.293562500               0.000000000               0.000000000              -0.316500000               0.000000000               0.000000000              -0.339437500               0.000000000               0.000000000              -0.362375000               0.000000000               0.000000000              -0.385312500               0.000000000               0.000000000              -0.408250000               0.000000000               0.000000000              -0.431187500               0.000000000               0.000000000              -0.454125000               0.000000000               0.000000000              -0.477062500               0.000000000               0.000000000              -0.500000000               0.000000000               0.000000000              -0.132359569              -0.013036280               0.000000000              -0.155337096              -0.016127762               0.000000000              -0.178314623              -0.019219245               0.000000000              -0.201292150              -0.022310727               0.000000000              -0.224269676              -0.025402210               0.000000000              -0.247247203              -0.028493692               0.000000000              -0.270224730              -0.031585175               0.000000000              -0.293202257              -0.034676657               0.000000000              -0.316179784              -0.037768140               0.000000000              -0.339157311              -0.040859622               0.000000000              -0.362134838              -0.043951105               0.000000000              -0.385112365              -0.047042587               0.000000000              -0.408089892              -0.050134070               0.000000000              -0.431067419              -0.053225552               0.000000000              -0.454044946              -0.056317035               0.000000000              -0.477022473              -0.059408517               0.000000000              -0.500000000              -0.062500000               0.000000000              -0.130444442              -0.025947013               0.000000000              -0.153541665              -0.032137825               0.000000000              -0.176638887              -0.038328636               0.000000000              -0.199736109              -0.044519448               0.000000000              -0.222833332              -0.050710260               0.000000000              -0.245930554              -0.056901071               0.000000000              -0.269027776              -0.063091883               0.000000000              -0.292124999              -0.069282695               0.000000000              -0.315222221              -0.075473506               0.000000000              -0.338319444              -0.081664318               0.000000000              -0.361416666              -0.087855130               0.000000000              -0.384513888              -0.094045942               0.000000000              -0.407611111              -0.100236753               0.000000000              -0.430708333              -0.106427565               0.000000000              -0.453805555              -0.112618377               0.000000000              -0.476902778              -0.118809188               0.000000000              -0.500000000              -0.125000000               0.000000000              -0.127273065              -0.038607862               0.000000000              -0.150568498              -0.047913621               0.000000000              -0.173863932              -0.057219379               0.000000000              -0.197159365              -0.066525138               0.000000000              -0.220454798              -0.075830897               0.000000000              -0.243750232              -0.085136655               0.000000000              -0.267045665              -0.094442414               0.000000000              -0.290341099              -0.103748172               0.000000000              -0.313636532              -0.113053931               0.000000000              -0.336931966              -0.122359690               0.000000000              -0.360227399              -0.131665448               0.000000000              -0.383522833              -0.140971207               0.000000000              -0.406818266              -0.150276966               0.000000000              -0.430113700              -0.159582724               0.000000000              -0.453409133              -0.168888483               0.000000000              -0.476704567              -0.178194241               0.000000000              -0.500000000              -0.187500000               0.000000000              -0.122875978              -0.050896897               0.000000000              -0.146446229              -0.063340840               0.000000000              -0.170016481              -0.075784784               0.000000000              -0.193586732              -0.088228728               0.000000000              -0.217156983              -0.100672672               0.000000000              -0.240727235              -0.113116616               0.000000000              -0.264297486              -0.125560560               0.000000000              -0.287867738              -0.138004504               0.000000000              -0.311437989              -0.150448448               0.000000000              -0.335008240              -0.162892392               0.000000000              -0.358578492              -0.175336336               0.000000000              -0.382148743              -0.187780280               0.000000000              -0.405718994              -0.200224224               0.000000000              -0.429289246              -0.212668168               0.000000000              -0.452859497              -0.225112112               0.000000000              -0.476429749              -0.237556056               0.000000000              -0.500000000              -0.250000000               0.000000000              -0.117295528              -0.062695766               0.000000000              -0.141214558              -0.078308531               0.000000000              -0.165133587              -0.093921295               0.000000000              -0.189052617              -0.109534060               0.000000000              -0.212971646              -0.125146824               0.000000000              -0.236890676              -0.140759589               0.000000000              -0.260809705              -0.156372354               0.000000000              -0.284728735              -0.171985118               0.000000000              -0.308647764              -0.187597883               0.000000000              -0.332566794              -0.203210648               0.000000000              -0.356485823              -0.218823412               0.000000000              -0.380404853              -0.234436177               0.000000000              -0.404323882              -0.250048941               0.000000000              -0.428242912              -0.265661706               0.000000000              -0.452161941              -0.281274471               0.000000000              -0.476080971              -0.296887235               0.000000000              -0.500000000              -0.312500000               0.000000000              -0.110585458              -0.073890841               0.000000000              -0.134923867              -0.092710163               0.000000000              -0.159262276              -0.111529486               0.000000000              -0.183600685              -0.130348808               0.000000000              -0.207939094              -0.149168131               0.000000000              -0.232277503              -0.167987453               0.000000000              -0.256615912              -0.186806776               0.000000000              -0.280954320              -0.205626098               0.000000000              -0.305292729              -0.224445420               0.000000000              -0.329631138              -0.243264743               0.000000000              -0.353969547              -0.262084065               0.000000000              -0.378307956              -0.280903388               0.000000000              -0.402646365              -0.299722710               0.000000000              -0.426984773              -0.318542033               0.000000000              -0.451323182              -0.337361355               0.000000000              -0.475661591              -0.356180678               0.000000000              -0.500000000              -0.375000000               0.000000000              -0.102810390              -0.084374307               0.000000000              -0.127634741              -0.106444663               0.000000000              -0.152459092              -0.128515018               0.000000000              -0.177283442              -0.150585374               0.000000000              -0.202107793              -0.172655730               0.000000000              -0.226932143              -0.194726086               0.000000000              -0.251756494              -0.216796442               0.000000000              -0.276580845              -0.238866798               0.000000000              -0.301405195              -0.260937153               0.000000000              -0.326229546              -0.283007509               0.000000000              -0.351053896              -0.305077865               0.000000000              -0.375878247              -0.327148221               0.000000000              -0.400702598              -0.349218577               0.000000000              -0.425526948              -0.371288933               0.000000000              -0.450351299              -0.393359288               0.000000000              -0.475175649              -0.415429644               0.000000000              -0.500000000              -0.437500000               0.000000000              -0.094045202              -0.094045202               0.000000000              -0.119417377              -0.119417377               0.000000000              -0.144789552              -0.144789552               0.000000000              -0.170161727              -0.170161727               0.000000000              -0.195533901              -0.195533901               0.000000000              -0.220906076              -0.220906076               0.000000000              -0.246278251              -0.246278251               0.000000000              -0.271650426              -0.271650426               0.000000000              -0.297022601              -0.297022601               0.000000000              -0.322394776              -0.322394776               0.000000000              -0.347766951              -0.347766951               0.000000000              -0.373139126              -0.373139126               0.000000000              -0.398511300              -0.398511300               0.000000000              -0.423883475              -0.423883475               0.000000000              -0.449255650              -0.449255650               0.000000000              -0.474627825              -0.474627825               0.000000000              -0.500000000              -0.500000000               0.000000000              -0.084374307              -0.102810390               0.000000000              -0.106444663              -0.127634741               0.000000000              -0.128515018              -0.152459092               0.000000000              -0.150585374              -0.177283442               0.000000000              -0.172655730              -0.202107793               0.000000000              -0.194726086              -0.226932143               0.000000000              -0.216796442              -0.251756494               0.000000000              -0.238866798              -0.276580845               0.000000000              -0.260937153              -0.301405195               0.000000000              -0.283007509              -0.326229546               0.000000000              -0.305077865              -0.351053896               0.000000000              -0.327148221              -0.375878247               0.000000000              -0.349218577              -0.400702598               0.000000000              -0.371288933              -0.425526948               0.000000000              -0.393359288              -0.450351299               0.000000000              -0.415429644              -0.475175649               0.000000000              -0.437500000              -0.500000000               0.000000000              -0.073890841              -0.110585458               0.000000000              -0.092710163              -0.134923867               0.000000000              -0.111529486              -0.159262276               0.000000000              -0.130348808              -0.183600685               0.000000000              -0.149168131              -0.207939094               0.000000000              -0.167987453              -0.232277503               0.000000000              -0.186806776              -0.256615912               0.000000000              -0.205626098              -0.280954320               0.000000000              -0.224445420              -0.305292729               0.000000000              -0.243264743              -0.329631138               0.000000000              -0.262084065              -0.353969547               0.000000000              -0.280903388              -0.378307956               0.000000000              -0.299722710              -0.402646365               0.000000000              -0.318542033              -0.426984773               0.000000000              -0.337361355              -0.451323182               0.000000000              -0.356180678              -0.475661591               0.000000000              -0.375000000              -0.500000000               0.000000000              -0.062695766              -0.117295528               0.000000000              -0.078308531              -0.141214558               0.000000000              -0.093921295              -0.165133587               0.000000000              -0.109534060              -0.189052617               0.000000000              -0.125146824              -0.212971646               0.000000000              -0.140759589              -0.236890676               0.000000000              -0.156372354              -0.260809705               0.000000000              -0.171985118              -0.284728735               0.000000000              -0.187597883              -0.308647764               0.000000000              -0.203210648              -0.332566794               0.000000000              -0.218823412              -0.356485823               0.000000000              -0.234436177              -0.380404853               0.000000000              -0.250048941              -0.404323882               0.000000000              -0.265661706              -0.428242912               0.000000000              -0.281274471              -0.452161941               0.000000000              -0.296887235              -0.476080971               0.000000000              -0.312500000              -0.500000000               0.000000000              -0.050896897              -0.122875978               0.000000000              -0.063340840              -0.146446229               0.000000000              -0.075784784              -0.170016481               0.000000000              -0.088228728              -0.193586732               0.000000000              -0.100672672              -0.217156983               0.000000000              -0.113116616              -0.240727235               0.000000000              -0.125560560              -0.264297486               0.000000000              -0.138004504              -0.287867738               0.000000000              -0.150448448              -0.311437989               0.000000000              -0.162892392              -0.335008240               0.000000000              -0.175336336              -0.358578492               0.000000000              -0.187780280              -0.382148743               0.000000000              -0.200224224              -0.405718994               0.000000000              -0.212668168              -0.429289246               0.000000000              -0.225112112              -0.452859497               0.000000000              -0.237556056              -0.476429749               0.000000000              -0.250000000              -0.500000000               0.000000000              -0.038607862              -0.127273065               0.000000000              -0.047913621              -0.150568498               0.000000000              -0.057219379              -0.173863932               0.000000000              -0.066525138              -0.197159365               0.000000000              -0.075830897              -0.220454798               0.000000000              -0.085136655              -0.243750232               0.000000000              -0.094442414              -0.267045665               0.000000000              -0.103748172              -0.290341099               0.000000000              -0.113053931              -0.313636532               0.000000000              -0.122359690              -0.336931966               0.000000000              -0.131665448              -0.360227399               0.000000000              -0.140971207              -0.383522833               0.000000000              -0.150276966              -0.406818266               0.000000000              -0.159582724              -0.430113700               0.000000000              -0.168888483              -0.453409133               0.000000000              -0.178194241              -0.476704567               0.000000000              -0.187500000              -0.500000000               0.000000000              -0.025947013              -0.130444442               0.000000000              -0.032137825              -0.153541665               0.000000000              -0.038328636              -0.176638887               0.000000000              -0.044519448              -0.199736109               0.000000000              -0.050710260              -0.222833332               0.000000000              -0.056901071              -0.245930554               0.000000000              -0.063091883              -0.269027776               0.000000000              -0.069282695              -0.292124999               0.000000000              -0.075473506              -0.315222221               0.000000000              -0.081664318              -0.338319444               0.000000000              -0.087855130              -0.361416666               0.000000000              -0.094045942              -0.384513888               0.000000000              -0.100236753              -0.407611111               0.000000000              -0.106427565              -0.430708333               0.000000000              -0.112618377              -0.453805555               0.000000000              -0.118809188              -0.476902778               0.000000000              -0.125000000              -0.500000000               0.000000000              -0.013036280              -0.132359569               0.000000000              -0.016127762              -0.155337096               0.000000000              -0.019219245              -0.178314623               0.000000000              -0.022310727              -0.201292150               0.000000000              -0.025402210              -0.224269676               0.000000000              -0.028493692              -0.247247203               0.000000000              -0.031585175              -0.270224730               0.000000000              -0.034676657              -0.293202257               0.000000000              -0.037768140              -0.316179784               0.000000000              -0.040859622              -0.339157311               0.000000000              -0.043951105              -0.362134838               0.000000000              -0.047042587              -0.385112365               0.000000000              -0.050134070              -0.408089892               0.000000000              -0.053225552              -0.431067419               0.000000000              -0.056317035              -0.454044946               0.000000000              -0.059408517              -0.477022473               0.000000000              -0.062500000              -0.500000000               0.000000000               0.000000000              -0.133000000               0.000000000               0.000000000              -0.155937500               0.000000000               0.000000000              -0.178875000               0.000000000               0.000000000              -0.201812500               0.000000000               0.000000000              -0.224750000               0.000000000               0.000000000              -0.247687500               0.000000000               0.000000000              -0.270625000               0.000000000               0.000000000              -0.293562500               0.000000000               0.000000000              -0.316500000               0.000000000               0.000000000              -0.339437500               0.000000000               0.000000000              -0.362375000               0.000000000               0.000000000              -0.385312500               0.000000000               0.000000000              -0.408250000               0.000000000               0.000000000              -0.431187500               0.000000000               0.000000000              -0.454125000               0.000000000               0.000000000              -0.477062500               0.000000000               0.000000000              -0.500000000               0.000000000              -0.133000000               0.000000000               0.000000000              -0.155937500               0.000000000               0.000000000              -0.178875000               0.000000000               0.000000000              -0.201812500               0.000000000               0.000000000              -0.224750000               0.000000000               0.000000000              -0.247687500               0.000000000               0.000000000              -0.270625000               0.000000000               0.000000000              -0.293562500               0.000000000               0.000000000              -0.316500000               0.000000000               0.000000000              -0.339437500               0.000000000               0.000000000              -0.362375000               0.000000000               0.000000000              -0.385312500               0.000000000               0.000000000              -0.408250000               0.000000000               0.000000000              -0.431187500               0.000000000               0.000000000              -0.454125000               0.000000000               0.000000000              -0.477062500               0.000000000               0.000000000              -0.500000000               0.000000000               0.000000000              -0.132359569               0.013036280               0.000000000              -0.155337096               0.016127762               0.000000000              -0.178314623               0.019219245               0.000000000              -0.201292150               0.022310727               0.000000000              -0.224269676               0.025402210               0.000000000              -0.247247203               0.028493692               0.000000000              -0.270224730               0.031585175               0.000000000              -0.293202257               0.034676657               0.000000000              -0.316179784               0.037768140               0.000000000              -0.339157311               0.040859622               0.000000000              -0.362134838               0.043951105               0.000000000              -0.385112365               0.047042587               0.000000000              -0.408089892               0.050134070               0.000000000              -0.431067419               0.053225552               0.000000000              -0.454044946               0.056317035               0.000000000              -0.477022473               0.059408517               0.000000000              -0.500000000               0.062500000               0.000000000              -0.130444442               0.025947013               0.000000000              -0.153541665               0.032137825               0.000000000              -0.176638887               0.038328636               0.000000000              -0.199736109               0.044519448               0.000000000              -0.222833332               0.050710260               0.000000000              -0.245930554               0.056901071               0.000000000              -0.269027776               0.063091883               0.000000000              -0.292124999               0.069282695               0.000000000              -0.315222221               0.075473506               0.000000000              -0.338319444               0.081664318               0.000000000              -0.361416666               0.087855130               0.000000000              -0.384513888               0.094045942               0.000000000              -0.407611111               0.100236753               0.000000000              -0.430708333               0.106427565               0.000000000              -0.453805555               0.112618377               0.000000000              -0.476902778               0.118809188               0.000000000              -0.500000000               0.125000000               0.000000000              -0.127273065               0.038607862               0.000000000              -0.150568498               0.047913621               0.000000000              -0.173863932               0.057219379               0.000000000              -0.197159365               0.066525138               0.000000000              -0.220454798               0.075830897               0.000000000              -0.243750232               0.085136655               0.000000000              -0.267045665               0.094442414               0.000000000              -0.290341099               0.103748172               0.000000000              -0.313636532               0.113053931               0.000000000              -0.336931966               0.122359690               0.000000000              -0.360227399               0.131665448               0.000000000              -0.383522833               0.140971207               0.000000000              -0.406818266               0.150276966               0.000000000              -0.430113700               0.159582724               0.000000000              -0.453409133               0.168888483               0.000000000              -0.476704567               0.178194241               0.000000000              -0.500000000               0.187500000               0.000000000              -0.122875978               0.050896897               0.000000000              -0.146446229               0.063340840               0.000000000              -0.170016481               0.075784784               0.000000000              -0.193586732               0.088228728               0.000000000              -0.217156983               0.100672672               0.000000000              -0.240727235               0.113116616               0.000000000              -0.264297486               0.125560560               0.000000000              -0.287867738               0.138004504               0.000000000              -0.311437989               0.150448448               0.000000000              -0.335008240               0.162892392               0.000000000              -0.358578492               0.175336336               0.000000000              -0.382148743               0.187780280               0.000000000              -0.405718994               0.200224224               0.000000000              -0.429289246               0.212668168               0.000000000              -0.452859497               0.225112112               0.000000000              -0.476429749               0.237556056               0.000000000              -0.500000000               0.250000000               0.000000000              -0.117295528               0.062695766               0.000000000              -0.141214558               0.078308531               0.000000000              -0.165133587               0.093921295               0.000000000              -0.189052617               0.109534060               0.000000000              -0.212971646               0.125146824               0.000000000              -0.236890676               0.140759589               0.000000000              -0.260809705               0.156372354               0.000000000              -0.284728735               0.171985118               0.000000000              -0.308647764               0.187597883               0.000000000              -0.332566794               0.203210648               0.000000000              -0.356485823               0.218823412               0.000000000              -0.380404853               0.234436177               0.000000000              -0.404323882               0.250048941               0.000000000              -0.428242912               0.265661706               0.000000000              -0.452161941               0.281274471               0.000000000              -0.476080971               0.296887235               0.000000000              -0.500000000               0.312500000               0.000000000              -0.110585458               0.073890841               0.000000000              -0.134923867               0.092710163               0.000000000              -0.159262276               0.111529486               0.000000000              -0.183600685               0.130348808               0.000000000              -0.207939094               0.149168131               0.000000000              -0.232277503               0.167987453               0.000000000              -0.256615912               0.186806776               0.000000000              -0.280954320               0.205626098               0.000000000              -0.305292729               0.224445420               0.000000000              -0.329631138               0.243264743               0.000000000              -0.353969547               0.262084065               0.000000000              -0.378307956               0.280903388               0.000000000              -0.402646365               0.299722710               0.000000000              -0.426984773               0.318542033               0.000000000              -0.451323182               0.337361355               0.000000000              -0.475661591               0.356180678               0.000000000              -0.500000000               0.375000000               0.000000000              -0.102810390               0.084374307               0.000000000              -0.127634741               0.106444663               0.000000000              -0.152459092               0.128515018               0.000000000              -0.177283442               0.150585374               0.000000000              -0.202107793               0.172655730               0.000000000              -0.226932143               0.194726086               0.000000000              -0.251756494               0.216796442               0.000000000              -0.276580845               0.238866798               0.000000000              -0.301405195               0.260937153               0.000000000              -0.326229546               0.283007509               0.000000000              -0.351053896               0.305077865               0.000000000              -0.375878247               0.327148221               0.000000000              -0.400702598               0.349218577               0.000000000              -0.425526948               0.371288933               0.000000000              -0.450351299               0.393359288               0.000000000              -0.475175649               0.415429644               0.000000000              -0.500000000               0.437500000               0.000000000              -0.094045202               0.094045202               0.000000000              -0.119417377               0.119417377               0.000000000              -0.144789552               0.144789552               0.000000000              -0.170161727               0.170161727               0.000000000              -0.195533901               0.195533901               0.000000000              -0.220906076               0.220906076               0.000000000              -0.246278251               0.246278251               0.000000000              -0.271650426               0.271650426               0.000000000              -0.297022601               0.297022601               0.000000000              -0.322394776               0.322394776               0.000000000              -0.347766951               0.347766951               0.000000000              -0.373139126               0.373139126               0.000000000              -0.398511300               0.398511300               0.000000000              -0.423883475               0.423883475               0.000000000              -0.449255650               0.449255650               0.000000000              -0.474627825               0.474627825               0.000000000              -0.500000000               0.500000000               0.000000000              -0.084374307               0.102810390               0.000000000              -0.106444663               0.127634741               0.000000000              -0.128515018               0.152459092               0.000000000              -0.150585374               0.177283442               0.000000000              -0.172655730               0.202107793               0.000000000              -0.194726086               0.226932143               0.000000000              -0.216796442               0.251756494               0.000000000              -0.238866798               0.276580845               0.000000000              -0.260937153               0.301405195               0.000000000              -0.283007509               0.326229546               0.000000000              -0.305077865               0.351053896               0.000000000              -0.327148221               0.375878247               0.000000000              -0.349218577               0.400702598               0.000000000              -0.371288933               0.425526948               0.000000000              -0.393359288               0.450351299               0.000000000              -0.415429644               0.475175649               0.000000000              -0.437500000               0.500000000               0.000000000              -0.073890841               0.110585458               0.000000000              -0.092710163               0.134923867               0.000000000              -0.111529486               0.159262276               0.000000000              -0.130348808               0.183600685               0.000000000              -0.149168131               0.207939094               0.000000000              -0.167987453               0.232277503               0.000000000              -0.186806776               0.256615912               0.000000000              -0.205626098               0.280954320               0.000000000              -0.224445420               0.305292729               0.000000000              -0.243264743               0.329631138               0.000000000              -0.262084065               0.353969547               0.000000000              -0.280903388               0.378307956               0.000000000              -0.299722710               0.402646365               0.000000000              -0.318542033               0.426984773               0.000000000              -0.337361355               0.451323182               0.000000000              -0.356180678               0.475661591               0.000000000              -0.375000000               0.500000000               0.000000000              -0.062695766               0.117295528               0.000000000              -0.078308531               0.141214558               0.000000000              -0.093921295               0.165133587               0.000000000              -0.109534060               0.189052617               0.000000000              -0.125146824               0.212971646               0.000000000              -0.140759589               0.236890676               0.000000000              -0.156372354               0.260809705               0.000000000              -0.171985118               0.284728735               0.000000000              -0.187597883               0.308647764               0.000000000              -0.203210648               0.332566794               0.000000000              -0.218823412               0.356485823               0.000000000              -0.234436177               0.380404853               0.000000000              -0.250048941               0.404323882               0.000000000              -0.265661706               0.428242912               0.000000000              -0.281274471               0.452161941               0.000000000              -0.296887235               0.476080971               0.000000000              -0.312500000               0.500000000               0.000000000              -0.050896897               0.122875978               0.000000000              -0.063340840               0.146446229               0.000000000              -0.075784784               0.170016481               0.000000000              -0.088228728               0.193586732               0.000000000              -0.100672672               0.217156983               0.000000000              -0.113116616               0.240727235               0.000000000              -0.125560560               0.264297486               0.000000000              -0.138004504               0.287867738               0.000000000              -0.150448448               0.311437989               0.000000000              -0.162892392               0.335008240               0.000000000              -0.175336336               0.358578492               0.000000000              -0.187780280               0.382148743               0.000000000              -0.200224224               0.405718994               0.000000000              -0.212668168               0.429289246               0.000000000              -0.225112112               0.452859497               0.000000000              -0.237556056               0.476429749               0.000000000              -0.250000000               0.500000000               0.000000000              -0.038607862               0.127273065               0.000000000              -0.047913621               0.150568498               0.000000000              -0.057219379               0.173863932               0.000000000              -0.066525138               0.197159365               0.000000000              -0.075830897               0.220454798               0.000000000              -0.085136655               0.243750232               0.000000000              -0.094442414               0.267045665               0.000000000              -0.103748172               0.290341099               0.000000000              -0.113053931               0.313636532               0.000000000              -0.122359690               0.336931966               0.000000000              -0.131665448               0.360227399               0.000000000              -0.140971207               0.383522833               0.000000000              -0.150276966               0.406818266               0.000000000              -0.159582724               0.430113700               0.000000000              -0.168888483               0.453409133               0.000000000              -0.178194241               0.476704567               0.000000000              -0.187500000               0.500000000               0.000000000              -0.025947013               0.130444442               0.000000000              -0.032137825               0.153541665               0.000000000              -0.038328636               0.176638887               0.000000000              -0.044519448               0.199736109               0.000000000              -0.050710260               0.222833332               0.000000000              -0.056901071               0.245930554               0.000000000              -0.063091883               0.269027776               0.000000000              -0.069282695               0.292124999               0.000000000              -0.075473506               0.315222221               0.000000000              -0.081664318               0.338319444               0.000000000              -0.087855130               0.361416666               0.000000000              -0.094045942               0.384513888               0.000000000              -0.100236753               0.407611111               0.000000000              -0.106427565               0.430708333               0.000000000              -0.112618377               0.453805555               0.000000000              -0.118809188               0.476902778               0.000000000              -0.125000000               0.500000000               0.000000000              -0.013036280               0.132359569               0.000000000              -0.016127762               0.155337096               0.000000000              -0.019219245               0.178314623               0.000000000              -0.022310727               0.201292150               0.000000000              -0.025402210               0.224269676               0.000000000              -0.028493692               0.247247203               0.000000000              -0.031585175               0.270224730               0.000000000              -0.034676657               0.293202257               0.000000000              -0.037768140               0.316179784               0.000000000              -0.040859622               0.339157311               0.000000000              -0.043951105               0.362134838               0.000000000              -0.047042587               0.385112365               0.000000000              -0.050134070               0.408089892               0.000000000              -0.053225552               0.431067419               0.000000000              -0.056317035               0.454044946               0.000000000              -0.059408517               0.477022473               0.000000000              -0.062500000               0.500000000               0.000000000               0.000000000               0.133000000               0.000000000               0.000000000               0.155937500               0.000000000               0.000000000               0.178875000               0.000000000               0.000000000               0.201812500               0.000000000               0.000000000               0.224750000               0.000000000               0.000000000               0.247687500               0.000000000               0.000000000               0.270625000               0.000000000               0.000000000               0.293562500               0.000000000               0.000000000               0.316500000               0.000000000               0.000000000               0.339437500               0.000000000               0.000000000               0.362375000               0.000000000               0.000000000               0.385312500               0.000000000               0.000000000               0.408250000               0.000000000               0.000000000               0.431187500               0.000000000               0.000000000               0.454125000               0.000000000               0.000000000               0.477062500               0.000000000               0.000000000               0.500000000               0.000000000 </DataArray>
</Points>
<Cells>
<DataArray type="Int32"                                    Name="connectivity"                                                      NumberOfComponents=" 1" format="ascii">
         0          1         18         17          1          2         19         18          2          3         20         19          3          4         21         20          4          5         22         21          5          6         23         22          6          7         24         23          7          8         25         24          8          9         26         25          9         10         27         26         10         11         28         27         11         12         29         28         12         13         30         29         13         14         31         30         14         15         32         31         15         16         33         32         17         18         35         34         18         19         36         35         19         20         37         36         20         21         38         37         21         22         39         38         22         23         40         39         23         24         41         40         24         25         42         41         25         26         43         42         26         27         44         43         27         28         45         44         28         29         46         45         29         30         47         46         30         31         48         47         31         32         49         48         32         33         50         49         34         35         52         51         35         36         53         52         36         37         54         53         37         38         55         54         38         39         56         55         39         40         57         56         40         41         58         57         41         42         59         58         42         43         60         59         43         44         61         60         44         45         62         61         45         46         63         62         46         47         64         63         47         48         65         64         48         49         66         65         49         50         67         66         51         52         69         68         52         53         70         69         53         54         71         70         54         55         72         71         55         56         73         72         56         57         74         73         57         58         75         74         58         59         76         75         59         60         77         76         60         61         78         77         61         62         79         78         62         63         80         79         63         64         81         80         64         65         82         81         65         66         83         82         66         67         84         83         68         69         86         85         69         70         87         86         70         71         88         87         71         72         89         88         72         73         90         89         73         74         91         90         74         75         92         91         75         76         93         92         76         77         94         93         77         78         95         94         78         79         96         95         79         80         97         96         80         81         98         97         81         82         99         98         82         83        100         99         83         84        101        100         85         86        103        102         86         87        104        103         87         88        105        104         88         89        106        105         89         90        107        106         90         91        108        107         91         92        109        108         92         93        110        109         93         94        111        110         94         95        112        111         95         96        113        112         96         97        114        113         97         98        115        114         98         99        116        115         99        100        117        116        100        101        118        117        102        103        120        119        103        104        121        120        104        105        122        121        105        106        123        122        106        107        124        123        107        108        125        124        108        109        126        125        109        110        127        126        110        111        128        127        111        112        129        128        112        113        130        129        113        114        131        130        114        115        132        131        115        116        133        132        116        117        134        133        117        118        135        134        119        120        137        136        120        121        138        137        121        122        139        138        122        123        140        139        123        124        141        140        124        125        142        141        125        126        143        142        126        127        144        143        127        128        145        144        128        129        146        145        129        130        147        146        130        131        148        147        131        132        149        148        132        133        150        149        133        134        151        150        134        135        152        151        136        137        154        153        137        138        155        154        138        139        156        155        139        140        157        156        140        141        158        157        141        142        159        158        142        143        160        159        143        144        161        160        144        145        162        161        145        146        163        162        146        147        164        163        147        148        165        164        148        149        166        165        149        150        167        166        150        151        168        167        151        152        169        168        153        154        171        170        154        155        172        171        155        156        173        172        156        157        174        173        157        158        175        174        158        159        176        175        159        160        177        176        160        161        178        177        161        162        179        178        162        163        180        179        163        164        181        180        164        165        182        181        165        166        183        182        166        167        184        183        167        168        185        184        168        169        186        185        170        171        188        187        171        172        189        188        172        173        190        189        173        174        191        190        174        175        192        191        175        176        193        192        176        177        194        193        177        178        195        194        178        179        196        195        179        180        197        196        180        181        198        197        181        182        199        198        182        183        200        199        183        184        201        200        184        185        202        201        185        186        203        202        187        188        205        204        188        189        206        205        189        190        207        206        190        191        208        207        191        192        209        208        192        193        210        209        193        194        211        210        194        195        212        211        195        196        213        212        196        197        214        213        197        198        215        214        198        199        216        215        199        200        217        216        200        201        218        217        201        202        219        218        202        203        220        219        204        205        222        221        205        206        223        222        206        207        224        223        207        208        225        224        208        209        226        225        209        210        227        226        210        211        228        227        211        212        229        228        212        213        230        229        213        214        231        230        214        215        232        231        215        216        233        232        216        217        234        233        217        218        235        234        218        219        236        235        219        220        237        236        221        222        239        238        222        223        240        239        223        224        241        240        224        225        242        241        225        226        243        242        226        227        244        243        227        228        245        244        228        229        246        245        229        230        247        246        230        231        248        247        231        232        249        248        232        233        250        249        233        234        251        250        234        235        252        251        235        236        253        252        236        237        254        253        238        239        256        255        239        240        257        256        240        241        258        257        241        242        259        258        242        243        260        259        243        244        261        260        244        245        262        261        245        246        263        262        246        247        264        263        247        248        265        264        248        249        266        265        249        250        267        266        250        251        268        267        251        252        269        268        252        253        270        269        253        254        271        270        255        256        273        272        256        257        274        273        257        258        275        274        258        259        276        275        259        260        277        276        260        261        278        277        261        262        279        278        262        263        280        279        263        264        281        280        264        265        282        281        265        266        283        282        266        267        284        283        267        268        285        284        268        269        286        285        269        270        287        286        270        271        288        287        306        307          1          0        307        308          2          1        308        309          3          2        309        310          4          3        310        311          5          4        311        312          6          5        312        313          7          6        313        314          8          7        314        315          9          8        315        316         10          9        316        317         11         10        317        318         12         11        318        319         13         12        319        320         14         13        320        321         15         14        321        322         16         15        323        324        307        306        324        325        308        307        325        326        309        308        326        327        310        309        327        328        311        310        328        329        312        311        329        330        313        312        330        331        314        313        331        332        315        314        332        333        316        315        333        334        317        316        334        335        318        317        335        336        319        318        336        337        320        319        337        338        321        320        338        339        322        321        340        341        324        323        341        342        325        324        342        343        326        325        343        344        327        326        344        345        328        327        345        346        329        328        346        347        330        329        347        348        331        330        348        349        332        331        349        350        333        332        350        351        334        333        351        352        335        334        352        353        336        335        353        354        337        336        354        355        338        337        355        356        339        338        357        358        341        340        358        359        342        341        359        360        343        342        360        361        344        343        361        362        345        344        362        363        346        345        363        364        347        346        364        365        348        347        365        366        349        348        366        367        350        349        367        368        351        350        368        369        352        351        369        370        353        352        370        371        354        353        371        372        355        354        372        373        356        355        374        375        358        357        375        376        359        358        376        377        360        359        377        378        361        360        378        379        362        361        379        380        363        362        380        381        364        363        381        382        365        364        382        383        366        365        383        384        367        366        384        385        368        367        385        386        369        368        386        387        370        369        387        388        371        370        388        389        372        371        389        390        373        372        391        392        375        374        392        393        376        375        393        394        377        376        394        395        378        377        395        396        379        378        396        397        380        379        397        398        381        380        398        399        382        381        399        400        383        382        400        401        384        383        401        402        385        384        402        403        386        385        403        404        387        386        404        405        388        387        405        406        389        388        406        407        390        389        408        409        392        391        409        410        393        392        410        411        394        393        411        412        395        394        412        413        396        395        413        414        397        396        414        415        398        397        415        416        399        398        416        417        400        399        417        418        401        400        418        419        402        401        419        420        403        402        420        421        404        403        421        422        405        404        422        423        406        405        423        424        407        406        425        426        409        408        426        427        410        409        427        428        411        410        428        429        412        411        429        430        413        412        430        431        414        413        431        432        415        414        432        433        416        415        433        434        417        416        434        435        418        417        435        436        419        418        436        437        420        419        437        438        421        420        438        439        422        421        439        440        423        422        440        441        424        423        442        443        426        425        443        444        427        426        444        445        428        427        445        446        429        428        446        447        430        429        447        448        431        430        448        449        432        431        449        450        433        432        450        451        434        433        451        452        435        434        452        453        436        435        453        454        437        436        454        455        438        437        455        456        439        438        456        457        440        439        457        458        441        440        459        460        443        442        460        461        444        443        461        462        445        444        462        463        446        445        463        464        447        446        464        465        448        447        465        466        449        448        466        467        450        449        467        468        451        450        468        469        452        451        469        470        453        452        470        471        454        453        471        472        455        454        472        473        456        455        473        474        457        456        474        475        458        457        476        477        460        459        477        478        461        460        478        479        462        461        479        480        463        462        480        481        464        463        481        482        465        464        482        483        466        465        483        484        467        466        484        485        468        467        485        486        469        468        486        487        470        469        487        488        471        470        488        489        472        471        489        490        473        472        490        491        474        473        491        492        475        474        493        494        477        476        494        495        478        477        495        496        479        478        496        497        480        479        497        498        481        480        498        499        482        481        499        500        483        482        500        501        484        483        501        502        485        484        502        503        486        485        503        504        487        486        504        505        488        487        505        506        489        488        506        507        490        489        507        508        491        490        508        509        492        491        510        511        494        493        511        512        495        494        512        513        496        495        513        514        497        496        514        515        498        497        515        516        499        498        516        517        500        499        517        518        501        500        518        519        502        501        519        520        503        502        520        521        504        503        521        522        505        504        522        523        506        505        523        524        507        506        524        525        508        507        525        526        509        508        527        528        511        510        528        529        512        511        529        530        513        512        530        531        514        513        531        532        515        514        532        533        516        515        533        534        517        516        534        535        518        517        535        536        519        518        536        537        520        519        537        538        521        520        538        539        522        521        539        540        523        522        540        541        524        523        541        542        525        524        542        543        526        525        544        545        528        527        545        546        529        528        546        547        530        529        547        548        531        530        548        549        532        531        549        550        533        532        550        551        534        533        551        552        535        534        552        553        536        535        553        554        537        536        554        555        538        537        555        556        539        538        556        557        540        539        557        558        541        540        558        559        542        541        559        560        543        542        561        562        545        544        562        563        546        545        563        564        547        546        564        565        548        547        565        566        549        548        566        567        550        549        567        568        551        550        568        569        552        551        569        570        553        552        570        571        554        553        571        572        555        554        572        573        556        555        573        574        557        556        574        575        558        557        575        576        559        558        576        577        560        559        578        579        596        595        579        580        597        596        580        581        598        597        581        582        599        598        582        583        600        599        583        584        601        600        584        585        602        601        585        586        603        602        586        587        604        603        587        588        605        604        588        589        606        605        589        590        607        606        590        591        608        607        591        592        609        608        592        593        610        609        593        594        611        610        595        596        613        612        596        597        614        613        597        598        615        614        598        599        616        615        599        600        617        616        600        601        618        617        601        602        619        618        602        603        620        619        603        604        621        620        604        605        622        621        605        606        623        622        606        607        624        623        607        608        625        624        608        609        626        625        609        610        627        626        610        611        628        627        612        613        630        629        613        614        631        630        614        615        632        631        615        616        633        632        616        617        634        633        617        618        635        634        618        619        636        635        619        620        637        636        620        621        638        637        621        622        639        638        622        623        640        639        623        624        641        640        624        625        642        641        625        626        643        642        626        627        644        643        627        628        645        644        629        630        647        646        630        631        648        647        631        632        649        648        632        633        650        649        633        634        651        650        634        635        652        651        635        636        653        652        636        637        654        653        637        638        655        654        638        639        656        655        639        640        657        656        640        641        658        657        641        642        659        658        642        643        660        659        643        644        661        660        644        645        662        661        646        647        664        663        647        648        665        664        648        649        666        665        649        650        667        666        650        651        668        667        651        652        669        668        652        653        670        669        653        654        671        670        654        655        672        671        655        656        673        672        656        657        674        673        657        658        675        674        658        659        676        675        659        660        677        676        660        661        678        677        661        662        679        678        663        664        681        680        664        665        682        681        665        666        683        682        666        667        684        683        667        668        685        684        668        669        686        685        669        670        687        686        670        671        688        687        671        672        689        688        672        673        690        689        673        674        691        690        674        675        692        691        675        676        693        692        676        677        694        693        677        678        695        694        678        679        696        695        680        681        698        697        681        682        699        698        682        683        700        699        683        684        701        700        684        685        702        701        685        686        703        702        686        687        704        703        687        688        705        704        688        689        706        705        689        690        707        706        690        691        708        707        691        692        709        708        692        693        710        709        693        694        711        710        694        695        712        711        695        696        713        712        697        698        715        714        698        699        716        715        699        700        717        716        700        701        718        717        701        702        719        718        702        703        720        719        703        704        721        720        704        705        722        721        705        706        723        722        706        707        724        723        707        708        725        724        708        709        726        725        709        710        727        726        710        711        728        727        711        712        729        728        712        713        730        729        714        715        732        731        715        716        733        732        716        717        734        733        717        718        735        734        718        719        736        735        719        720        737        736        720        721        738        737        721        722        739        738        722        723        740        739        723        724        741        740        724        725        742        741        725        726        743        742        726        727        744        743        727        728        745        744        728        729        746        745        729        730        747        746        731        732        749        748        732        733        750        749        733        734        751        750        734        735        752        751        735        736        753        752        736        737        754        753        737        738        755        754        738        739        756        755        739        740        757        756        740        741        758        757        741        742        759        758        742        743        760        759        743        744        761        760        744        745        762        761        745        746        763        762        746        747        764        763        748        749        766        765        749        750        767        766        750        751        768        767        751        752        769        768        752        753        770        769        753        754        771        770        754        755        772        771        755        756        773        772        756        757        774        773        757        758        775        774        758        759        776        775        759        760        777        776        760        761        778        777        761        762        779        778        762        763        780        779        763        764        781        780        765        766        783        782        766        767        784        783        767        768        785        784        768        769        786        785        769        770        787        786        770        771        788        787        771        772        789        788        772        773        790        789        773        774        791        790        774        775        792        791        775        776        793        792        776        777        794        793        777        778        795        794        778        779        796        795        779        780        797        796        780        781        798        797        782        783        800        799        783        784        801        800        784        785        802        801        785        786        803        802        786        787        804        803        787        788        805        804        788        789        806        805        789        790        807        806        790        791        808        807        791        792        809        808        792        793        810        809        793        794        811        810        794        795        812        811        795        796        813        812        796        797        814        813        797        798        815        814        799        800        817        816        800        801        818        817        801        802        819        818        802        803        820        819        803        804        821        820        804        805        822        821        805        806        823        822        806        807        824        823        807        808        825        824        808        809        826        825        809        810        827        826        810        811        828        827        811        812        829        828        812        813        830        829        813        814        831        830        814        815        832        831        816        817        834        833        817        818        835        834        818        819        836        835        819        820        837        836        820        821        838        837        821        822        839        838        822        823        840        839        823        824        841        840        824        825        842        841        825        826        843        842        826        827        844        843        827        828        845        844        828        829        846        845        829        830        847        846        830        831        848        847        831        832        849        848        833        834        562        561        834        835        563        562        835        836        564        563        836        837        565        564        837        838        566        565        838        839        567        566        839        840        568        567        840        841        569        568        841        842        570        569        842        843        571        570        843        844        572        571        844        845        573        572        845        846        574        573        846        847        575        574        847        848        576        575        848        849        577        576        884        885        579        578        885        886        580        579        886        887        581        580        887        888        582        581        888        889        583        582        889        890        584        583        890        891        585        584        891        892        586        585        892        893        587        586        893        894        588        587        894        895        589        588        895        896        590        589        896        897        591        590        897        898        592        591        898        899        593        592        899        900        594        593        901        902        885        884        902        903        886        885        903        904        887        886        904        905        888        887        905        906        889        888        906        907        890        889        907        908        891        890        908        909        892        891        909        910        893        892        910        911        894        893        911        912        895        894        912        913        896        895        913        914        897        896        914        915        898        897        915        916        899        898        916        917        900        899        918        919        902        901        919        920        903        902        920        921        904        903        921        922        905        904        922        923        906        905        923        924        907        906        924        925        908        907        925        926        909        908        926        927        910        909        927        928        911        910        928        929        912        911        929        930        913        912        930        931        914        913        931        932        915        914        932        933        916        915        933        934        917        916        935        936        919        918        936        937        920        919        937        938        921        920        938        939        922        921        939        940        923        922        940        941        924        923        941        942        925        924        942        943        926        925        943        944        927        926        944        945        928        927        945        946        929        928        946        947        930        929        947        948        931        930        948        949        932        931        949        950        933        932        950        951        934        933        952        953        936        935        953        954        937        936        954        955        938        937        955        956        939        938        956        957        940        939        957        958        941        940        958        959        942        941        959        960        943        942        960        961        944        943        961        962        945        944        962        963        946        945        963        964        947        946        964        965        948        947        965        966        949        948        966        967        950        949        967        968        951        950        969        970        953        952        970        971        954        953        971        972        955        954        972        973        956        955        973        974        957        956        974        975        958        957        975        976        959        958        976        977        960        959        977        978        961        960        978        979        962        961        979        980        963        962        980        981        964        963        981        982        965        964        982        983        966        965        983        984        967        966        984        985        968        967        986        987        970        969        987        988        971        970        988        989        972        971        989        990        973        972        990        991        974        973        991        992        975        974        992        993        976        975        993        994        977        976        994        995        978        977        995        996        979        978        996        997        980        979        997        998        981        980        998        999        982        981        999       1000        983        982       1000       1001        984        983       1001       1002        985        984       1003       1004        987        986       1004       1005        988        987       1005       1006        989        988       1006       1007        990        989       1007       1008        991        990       1008       1009        992        991       1009       1010        993        992       1010       1011        994        993       1011       1012        995        994       1012       1013        996        995       1013       1014        997        996       1014       1015        998        997       1015       1016        999        998       1016       1017       1000        999       1017       1018       1001       1000       1018       1019       1002       1001       1020       1021       1004       1003       1021       1022       1005       1004       1022       1023       1006       1005       1023       1024       1007       1006       1024       1025       1008       1007       1025       1026       1009       1008       1026       1027       1010       1009       1027       1028       1011       1010       1028       1029       1012       1011       1029       1030       1013       1012       1030       1031       1014       1013       1031       1032       1015       1014       1032       1033       1016       1015       1033       1034       1017       1016       1034       1035       1018       1017       1035       1036       1019       1018       1037       1038       1021       1020       1038       1039       1022       1021       1039       1040       1023       1022       1040       1041       1024       1023       1041       1042       1025       1024       1042       1043       1026       1025       1043       1044       1027       1026       1044       1045       1028       1027       1045       1046       1029       1028       1046       1047       1030       1029       1047       1048       1031       1030       1048       1049       1032       1031       1049       1050       1033       1032       1050       1051       1034       1033       1051       1052       1035       1034       1052       1053       1036       1035       1054       1055       1038       1037       1055       1056       1039       1038       1056       1057       1040       1039       1057       1058       1041       1040       1058       1059       1042       1041       1059       1060       1043       1042       1060       1061       1044       1043       1061       1062       1045       1044       1062       1063       1046       1045       1063       1064       1047       1046       1064       1065       1048       1047       1065       1066       1049       1048       1066       1067       1050       1049       1067       1068       1051       1050       1068       1069       1052       1051       1069       1070       1053       1052       1071       1072       1055       1054       1072       1073       1056       1055       1073       1074       1057       1056       1074       1075       1058       1057       1075       1076       1059       1058       1076       1077       1060       1059       1077       1078       1061       1060       1078       1079       1062       1061       1079       1080       1063       1062       1080       1081       1064       1063       1081       1082       1065       1064       1082       1083       1066       1065       1083       1084       1067       1066       1084       1085       1068       1067       1085       1086       1069       1068       1086       1087       1070       1069       1088       1089       1072       1071       1089       1090       1073       1072       1090       1091       1074       1073       1091       1092       1075       1074       1092       1093       1076       1075       1093       1094       1077       1076       1094       1095       1078       1077       1095       1096       1079       1078       1096       1097       1080       1079       1097       1098       1081       1080       1098       1099       1082       1081       1099       1100       1083       1082       1100       1101       1084       1083       1101       1102       1085       1084       1102       1103       1086       1085       1103       1104       1087       1086       1105       1106       1089       1088       1106       1107       1090       1089       1107       1108       1091       1090       1108       1109       1092       1091       1109       1110       1093       1092       1110       1111       1094       1093       1111       1112       1095       1094       1112       1113       1096       1095       1113       1114       1097       1096       1114       1115       1098       1097       1115       1116       1099       1098       1116       1117       1100       1099       1117       1118       1101       1100       1118       1119       1102       1101       1119       1120       1103       1102       1120       1121       1104       1103       1122       1123       1106       1105       1123       1124       1107       1106       1124       1125       1108       1107       1125       1126       1109       1108       1126       1127       1110       1109       1127       1128       1111       1110       1128       1129       1112       1111       1129       1130       1113       1112       1130       1131       1114       1113       1131       1132       1115       1114       1132       1133       1116       1115       1133       1134       1117       1116       1134       1135       1118       1117       1135       1136       1119       1118       1136       1137       1120       1119       1137       1138       1121       1120        272        273       1123       1122        273        274       1124       1123        274        275       1125       1124        275        276       1126       1125        276        277       1127       1126        277        278       1128       1127        278        279       1129       1128        279        280       1130       1129        280        281       1131       1130        281        282       1132       1131        282        283       1133       1132        283        284       1134       1133        284        285       1135       1134        285        286       1136       1135        286        287       1137       1136        287        288       1138       1137 </DataArray>
<DataArray type="Int32"                                    Name="offsets"                                                      NumberOfComponents=" 1" format="ascii">
         4          8         12         16         20         24         28         32         36         40         44         48         52         56         60         64         68         72         76         80         84         88         92         96        100        104        108        112        116        120        124        128        132        136        140        144        148        152        156        160        164        168        172        176        180        184        188        192        196        200        204        208        212        216        220        224        228        232        236        240        244        248        252        256        260        264        268        272        276        280        284        288        292        296        300        304        308        312        316        320        324        328        332        336        340        344        348        352        356        360        364        368        372        376        380        384        388        392        396        400        404        408        412        416        420        424        428        432        436        440        444        448        452        456        460        464        468        472        476        480        484        488        492        496        500        504        508        512        516        520        524        528        532        536        540        544        548        552        556        560        564        568        572        576        580        584        588        592        596        600        604        608        612        616        620        624        628        632        636        640        644        648        652        656        660        664        668        672        676        680        684        688        692        696        700        704        708        712        716        720        724        728        732        736        740        744        748        752        756        760        764        768        772        776        780        784        788        792        796        800        804        808        812        816        820        824        828        832        836        840        844        848        852        856        860        864        868        872        876        880        884        888        892        896        900        904        908        912        916        920        924        928        932        936        940        944        948        952        956        960        964        968        972        976        980        984        988        992        996       1000       1004       1008       1012       1016       1020       1024       1028       1032       1036       1040       1044       1048       1052       1056       1060       1064       1068       1072       1076       1080       1084       1088       1092       1096       1100       1104       1108       1112       1116       1120       1124       1128       1132       1136       1140       1144       1148       1152       1156       1160       1164       1168       1172       1176       1180       1184       1188       1192       1196       1200       1204       1208       1212       1216       1220       1224       1228       1232       1236       1240       1244       1248       1252       1256       1260       1264       1268       1272       1276       1280       1284       1288       1292       1296       1300       1304       1308       1312       1316       1320       1324       1328       1332       1336       1340       1344       1348       1352       1356       1360       1364       1368       1372       1376       1380       1384       1388       1392       1396       1400       1404       1408       1412       1416       1420       1424       1428       1432       1436       1440       1444       1448       1452       1456       1460       1464       1468       1472       1476       1480       1484       1488       1492       1496       1500       1504       1508       1512       1516       1520       1524       1528       1532       1536       1540       1544       1548       1552       1556       1560       1564       1568       1572       1576       1580       1584       1588       1592       1596       1600       1604       1608       1612       1616       1620       1624       1628       1632       1636       1640       1644       1648       1652       1656       1660       1664       1668       1672       1676       1680       1684       1688       1692       1696       1700       1704       1708       1712       1716       1720       1724       1728       1732       1736       1740       1744       1748       1752       1756       1760       1764       1768       1772       1776       1780       1784       1788       1792       1796       1800       1804       1808       1812       1816       1820       1824       1828       1832       1836       1840       1844       1848       1852       1856       1860       1864       1868       1872       1876       1880       1884       1888       1892       1896       1900       1904       1908       1912       1916       1920       1924       1928       1932       1936       1940       1944       1948       1952       1956       1960       1964       1968       1972       1976       1980       1984       1988       1992       1996       2000       2004       2008       2012       2016       2020       2024       2028       2032       2036       2040       2044       2048       2052       2056       2060       2064       2068       2072       2076       2080       2084       2088       2092       2096       2100       2104       2108       2112       2116       2120       2124       2128       2132       2136       2140       2144       2148       2152       2156       2160       2164       2168       2172       2176       2180       2184       2188       2192       2196       2200       2204       2208       2212       2216       2220       2224       2228       2232       2236       2240       2244       2248       2252       2256       2260       2264       2268       2272       2276       2280       2284       2288       2292       2296       2300       2304       2308       2312       2316       2320       2324       2328       2332       2336       2340       2344       2348       2352       2356       2360       2364       2368       2372       2376       2380       2384       2388       2392       2396       2400       2404       2408       2412       2416       2420       2424       2428       2432       2436       2440       2444       2448       2452       2456       2460       2464       2468       2472       2476       2480       2484       2488       2492       2496       2500       2504       2508       2512       2516       2520       2524       2528       2532       2536       2540       2544       2548       2552       2556       2560       2564       2568       2572       2576       2580       2584       2588       2592       2596       2600       2604       2608       2612       2616       2620       2624       2628       2632       2636       2640       2644       2648       2652       2656       2660       2664       2668       2672       2676       2680       2684       2688       2692       2696       2700       2704       2708       2712       2716       2720       2724       2728       2732       2736       2740       2744       2748       2752       2756       2760       2764       2768       2772       2776       2780       2784       2788       2792       2796       2800       2804       2808       2812       2816       2820       2824       2828       2832       2836       2840       2844       2848       2852       2856       2860       2864       2868       2872       2876       2880       2884       2888       2892       2896       2900       2904       2908       2912       2916       2920       2924       2928       2932       2936       2940       2944       2948       2952       2956       2960       2964       2968       2972       2976       2980       2984       2988       2992       2996       3000       3004       3008       3012       3016       3020       3024       3028       3032       3036       3040       3044       3048       3052       3056       3060       3064       3068       3072       3076       3080       3084       3088       3092       3096       3100       3104       3108       3112       3116       3120       3124       3128       3132       3136       3140       3144       3148       3152       3156       3160       3164       3168       3172       3176       3180       3184       3188       3192       3196       3200       3204       3208       3212       3216       3220       3224       3228       3232       3236       3240       3244       3248       3252       3256       3260       3264       3268       3272       3276       3280       3284       3288       3292       3296       3300       3304       3308       3312       3316       3320       3324       3328       3332       3336       3340       3344       3348       3352       3356       3360       3364       3368       3372       3376       3380       3384       3388       3392       3396       3400       3404       3408       3412       3416       3420       3424       3428       3432       3436       3440       3444       3448       3452       3456       3460       3464       3468       3472       3476       3480       3484       3488       3492       3496       3500       3504       3508       3512       3516       3520       3524       3528       3532       3536       3540       3544       3548       3552       3556       3560       3564       3568       3572       3576       3580       3584       3588       3592       3596       3600       3604       3608       3612       3616       3620       3624       3628       3632       3636       3640       3644       3648       3652       3656       3660       3664       3668       3672       3676       3680       3684       3688       3692       3696       3700       3704       3708       3712       3716       3720       3724       3728       3732       3736       3740       3744       3748       3752       3756       3760       3764       3768       3772       3776       3780       3784       3788       3792       3796       3800       3804       3808       3812       3816       3820       3824       3828       3832       3836       3840       3844       3848       3852       3856       3860       3864       3868       3872       3876       3880       3884       3888       3892       3896       3900       3904       3908       3912       3916       3920       3924       3928       3932       3936       3940       3944       3948       3952       3956       3960       3964       3968       3972       3976       3980       3984       3988       3992       3996       4000       4004       4008       4012       4016       4020       4024       4028       4032       4036       4040       4044       4048       4052       4056       4060       4064       4068       4072       4076       4080       4084       4088       4092       4096 </DataArray>
<DataArray type="UInt8"                                    Name="types"                                                      NumberOfComponents=" 1" format="ascii">
         9          9          9          9          9          9          9          9          9          9          9          9          9          9          9          9          9          9          9          9          9          9          9          9          9          9          9          9          9          9          9          9          9          9          9          9          9          9          9          9          9          9          9          9          9          9          9          9          9          9          9          9          9          9          9          9          9          9          9          9          9          9          9          9          9          9          9          9          9          9          9          9          9          9          9          9          9          9          9          9          9          9          9          9          9          9          9          9          9          9          9          9          9          9          9          9          9          9          9          9          9          9          9          9          9          9          9          9          9          9          9          9          9          9          9          9          9          9          9          9          9          9          9          9          9          9          9          9          9          9          9          9          9          9          9          9          9          9          9          9          9          9          9          9          9          9          9          9          9          9          9          9          9          9          9          9          9          9          9          9          9          9          9          9          9          9          9          9          9          9          9          9          9          9          9          9          9          9          9          9          9          9          9          9          9          9          9          9          9          9          9          9          9          9          9          9          9          9          9          9          9          9          9          9          9          9          9          9          9          9          9          9          9          9          9          9          9          9          9          9          9          9          9          9          9          9          9          9          9          9          9          9          9          9          9          9          9          9          9          9          9          9          9          9          9          9          9          9          9          9          9          9          9          9          9          9          9          9          9          9          9          9          9          9          9          9          9          9          9          9          9          9          9          9          9          9          9          9          9          9          9          9          9          9          9          9          9          9          9          9          9          9          9          9          9          9          9          9          9          9          9          9          9          9          9          9          9          9          9          9          9          9          9          9          9          9          9          9          9          9          9          9          9          9          9          9          9          9          9          9          9          9          9          9          9          9          9          9          9          9          9          9          9          9          9          9          9          9          9          9          9          9          9          9          9          9          9          9          9          9          9          9          9          9          9          9          9          9          9          9          9          9          9          9          9          9          9          9          9          9          9          9          9          9          9          9          9          9          9          9          9          9          9          9          9          9          9          9          9          9          9          9          9          9          9          9          9          9          9          9          9          9          9          9          9          9          9          9          9          9          9          9          9          9          9          9          9          9          9          9          9          9          9          9          9          9          9          9          9          9          9          9          9          9          9          9          9          9          9          9          9          9          9          9          9          9          9          9          9          9          9          9          9          9          9          9          9          9          9          9          9          9          9          9          9          9          9          9          9          9          9          9          9          9          9          9          9          9          9          9          9          9          9          9          9          9          9          9          9          9          9          9          9          9          9          9          9          9          9          9          9          9          9          9          9          9          9          9          9          9          9          9          9          9          9          9          9          9          9          9          9          9          9          9          9          9          9          9          9          9          9          9          9          9          9          9          9          9          9          9          9          9          9          9          9          9          9          9          9          9          9          9          9          9          9          9          9          9          9          9          9          9          9          9          9          9          9          9          9          9          9          9          9          9          9          9          9          9          9          9          9          9          9          9          9          9          9          9          9          9          9          9          9          9          9          9          9          9          9          9          9          9          9          9          9          9          9          9          9          9          9          9          9          9          9          9          9          9          9          9          9          9          9          9          9          9          9          9          9          9          9          9          9          9          9          9          9          9          9          9          9          9          9          9          9          9          9          9          9          9          9          9          9          9          9          9          9          9          9          9          9          9          9          9          9          9          9          9          9          9          9          9          9          9          9          9          9          9          9          9          9          9          9          9          9          9          9          9          9          9          9          9          9          9          9          9          9          9          9          9          9          9          9          9          9          9          9          9          9          9          9          9          9          9          9          9          9          9          9          9          9          9          9          9          9          9          9          9          9          9          9          9          9          9          9          9          9          9          9          9          9          9          9          9          9          9          9          9          9          9          9          9          9          9          9          9          9          9          9          9          9          9          9          9          9          9          9          9          9          9          9          9          9          9          9          9          9          9          9          9          9          9          9          9          9          9          9          9          9          9          9          9          9          9          9          9          9          9          9          9          9          9          9          9          9          9          9          9          9          9          9          9          9          9          9          9          9          9          9          9          9          9          9          9          9          9          9          9          9          9          9          9          9          9          9          9          9          9          9          9          9          9          9          9          9          9          9          9          9          9          9          9          9          9          9          9          9          9          9          9          9          9          9          9          9          9          9          9          9          9          9          9          9          9          9          9          9          9          9          9          9          9          9          9          9          9          9          9          9          9          9          9          9          9          9          9          9          9          9          9          9          9          9          9          9          9          9          9          9          9          9          9          9          9          9          9          9          9          9          9          9          9          9          9          9          9          9          9          9          9          9          9          9          9          9          9          9          9          9          9          9          9          9          9          9          9          9          9          9          9          9          9          9          9          9          9          9          9          9          9          9          9          9          9          9          9          9          9          9          9          9          9          9          9          9          9          9          9          9          9          9          9          9          9          9          9          9          9          9          9          9          9          9          9          9          9          9          9          9          9          9          9          9          9          9          9          9          9          9          9          9          9          9          9 </DataArray>
</Cells>
<CellData>
<DataArray type="Int32"                                    Name="material"                                                      NumberOfComponents=" 1" format="ascii">
         1          1          1          1          1          1          1          1          1          1          1          1          1          1          1          1          1          1          1          1          1          1          1          1          1          1          1          1          1          1          1          1          1          1          1          1          1          1          1          1          1          1          1          1          1          1          1          1          1          1          1          1          1          1          1          1          1          1          1          1          1          1          1          1          1          1          1          1          1          1          1          1          1          1          1          1          1          1          1          1          1          1          1          1          1          1          1          1          1          1          1          1          1          1          1          1          1          1          1          1          1          1          1          1          1          1          1          1          1          1          1          1          1          1          1          1          1          1          1          1          1          1          1          1          1          1          1          1          1          1          1          1          1          1          1          1          1          1          1          1          1          1          1          1          1          1          1          1          1          1          1          1          1          1          1          1          1          1          1          1          1          1          1          1          1          1          1          1          1          1          1          1          1          1          1          1          1          1          1          1          1          1          1          1          1          1          1          1          1          1          1          1          1          1          1          1          1          1          1          1          1          1          1          1          1          1          1          1          1          1          1          1          1          1          1          1          1          1          1          1          1          1          1          1          1          1          1          1          1          1          1          1          1          1          1          1          1          1          1          1          1          1          1          1          1          1          1          1          1          1          1          1          1          1          1          1          1          1          1          1          1          1          1          1          1          1          1          1          1          1          1          1          1          1          1          1          1          1          1          1          1          1          1          1          1          1          1          1          1          1          1          1          1          1          1          1          1          1          1          1          1          1          1          1          1          1          1          1          1          1          1          1          1          1          1          1          1          1          1          1          1          1          1          1          1          1          1          1          1          1          1          1          1          1          1          1          1          1          1          1          1          1          1          1          1          1          1          1          1          1          1          1          1          1          1          1          1          1          1          1          1          1          1          1          1          1          1          1          1          1          1          1          1          1          1          1          1          1          1          1          1          1          1          1          1          1          1          1          1          1          1          1          1          1          1          1          1          1          1          1          1          1          1          1          1          1          1          1          1          1          1          1          1          1          1          1          1          1          1          1          1          1          1          1          1          1          1          1          1          1          1          1          1          1          1          1          1          1          1          1          1          1          1          1          1          1          1          1          1          1          1          1          1          1          1          1          1          1          1          1          1          1          1          1          1          1          1          1          1          1          1          1          1          1          1          1          1          1          1          1          1          1          1          1          1          1          1          1          1          1          1          1          1          1          1          1          1          1          1          1          1          1          1          1          1          1          1          1          1          1          1          1          1          1          1          1          1          1          1          1          1          1          1          1          1          1          1          1          1          1          1          1          1          1          1          1          1          1          1          1          1          1          1          1          1          1          1          1          1          1          1          1          1          1          1          1          1          1          1          1          1          1          1          1          1          1          1          1          1          1          1          1          1          1          1          1          1          1          1          1          1          1          1          1          1          1          1          1          1          1          1          1          1          1          1          1          1          1          1          1          1          1          1          1          1          1          1          1          1          1          1          1          1          1          1          1          1          1          1          1          1          1          1          1          1          1          1          1          1          1          1          1          1          1          1          1          1          1          1          1          1          1          1          1          1          1          1          1          1          1          1          1          1          1          1          1          1          1          1          1          1          1          1          1          1          1          1          1          1          1          1          1          1          1          1          1          1          1          1          1          1          1          1          1          1          1          1          1          1          1          1          1          1          1          1          1          1          1          1          1          1          1          1          1          1          1          1          1          1          1          1          1          1          1          1          1          1          1          1          1          1          1          1          1          1          1          1          1          1          1          1          1          1          1          1          1          1          1          1          1          1          1          1          1          1          1          1          1          1          1          1          1          1          1          1          1          1          1          1          1          1          1          1          1          1          1          1          1          1          1          1          1          1          1          1          1          1          1          1          1          1          1          1          1          1          1          1          1          1          1          1          1          1          1          1          1          1          1          1          1          1          1          1          1          1          1          1          1          1          1          1          1          1          1          1          1          1          1          1          1          1          1          1          1          1          1          1          1          1          1          1          1          1          1          1          1          1          1          1          1          1          1          1          1          1          1          1          1          1          1          1          1          1          1          1          1          1          1          1          1          1          1          1          1          1          1          1          1          1          1          1          1          1          1          1          1          1          1          1          1          1          1          1          1          1          1          1          1          1          1          1          1          1          1          1          1          1          1          1          1          1          1          1          1          1          1          1          1          1          1          1          1          1          1          1          1          1          1          1          1          1          1          1          1          1          1          1          1          1          1          1          1          1          1          1          1          1          1          1          1          1          1          1          1          1          1          1          1          1          1          1          1          1          1          1          1          1          1          1          1          1          1          1          1          1          1          1          1          1          1          1          1          1          1          1          1          1          1          1          1          1          1          1          1          1          1          1          1          1          1          1          1          1          1          1          1          1          1          1          1          1          1          1          1          1          1          1          1          1          1          1          1          1          1          1          1          1          1          1          1          1          1          1          1 </DataArray>
</CellData>
<PointData>
<DataArray type="Float64"                                    Name="u"                                                      NumberOfComponents=" 3" format="ascii">
             -0.000000016              -0.000000000               1.000000000              -0.000000001               0.000000000               1.000000000               0.000000023              -0.000000000               1.000000000               0.000000015              -0.000000000               1.000000000              -0.000000030               0.000000000               1.000000000              -0.000000048               0.000000000               1.000000000               0.000000003              -0.000000000               1.000000000               0.000000068               0.000000000               1.000000000               0.000000077               0.000000000               1.000000000               0.000000020               0.000000000               1.000000000              -0.000000057              -0.000000000               1.000000000              -0.000000105              -0.000000000               1.000000000              -0.000000105              -0.000000000               1.000000000              -0.000000062               0.000000000               1.000000000              -0.000000005               0.000000000               1.000000000               0.000000030               0.000000000               1.000000000               0.000000020               0.000000000               1.000000000               0.000000009               0.000000001               1.000000000               0.000000005              -0.000000008               1.000000000              -0.000000016              -0.000000001               1.000000000              -0.000000021               0.000000005               1.000000000               0.000000019               0.000000001               1.000000000               0.000000050              -0.000000007               1.000000000               0.000000015              -0.000000001               1.000000000              -0.000000050               0.000000011               1.000000000              -0.000000078               0.000000012               1.000000000              -0.000000051              -0.000000007               1.000000000               0.000000008              -0.000000035               1.000000000               0.000000067              -0.000000050               1.000000000               0.000000102              -0.000000044               1.000000000               0.000000100              -0.000000006               1.000000000               0.000000062               0.000000065               1.000000000               0.000000012               0.000000149               1.000000000              -0.000000018               0.000000213               1.000000000               0.000000009              -0.000000004               1.000000000              -0.000000009               0.000000002               1.000000000              -0.000000004               0.000000001               1.000000000               0.000000029              -0.000000001               1.000000000               0.000000011               0.000000003               1.000000000              -0.000000043               0.000000010               1.000000000              -0.000000047              -0.000000006               1.000000000              -0.000000003              -0.000000029               1.000000000               0.000000051              -0.000000030               1.000000000               0.000000090               0.000000005               1.000000000               0.000000097               0.000000061               1.000000000               0.000000063               0.000000107               1.000000000              -0.000000011               0.000000141               1.000000000              -0.000000101               0.000000155               1.000000000              -0.000000161               0.000000121               1.000000000              -0.000000149               0.000000019               1.000000000              -0.000000062              -0.000000129               1.000000000              -0.000000015              -0.000000006               1.000000000               0.000000002               0.000000006               1.000000000               0.000000024               0.000000004               1.000000000              -0.000000017               0.000000001               1.000000000              -0.000000041              -0.000000008               1.000000000               0.000000013              -0.000000022               1.000000000               0.000000054              -0.000000004               1.000000000               0.000000054               0.000000040               1.000000000               0.000000027               0.000000072               1.000000000              -0.000000033               0.000000062               1.000000000              -0.000000110               0.000000002               1.000000000              -0.000000183              -0.000000074               1.000000000              -0.000000210              -0.000000157               1.000000000              -0.000000148              -0.000000289               1.000000000               0.000000007              -0.000000481               1.000000000               0.000000197              -0.000000696               1.000000000               0.000000309              -0.000000848               1.000000000              -0.000000004               0.000000003               1.000000000               0.000000010               0.000000004               1.000000000              -0.000000017              -0.000000001               1.000000000              -0.000000015              -0.000000010               1.000000000               0.000000043              -0.000000010               1.000000000               0.000000021               0.000000015               1.000000000              -0.000000022               0.000000047               1.000000000              -0.000000042               0.000000034               1.000000000              -0.000000070              -0.000000039               1.000000000              -0.000000080              -0.000000150               1.000000000              -0.000000062              -0.000000233               1.000000000               0.000000013              -0.000000267               1.000000000               0.000000168              -0.000000308               1.000000000               0.000000369              -0.000000345               1.000000000               0.000000518              -0.000000295               1.000000000               0.000000463               0.000000013               1.000000000               0.000000038               0.000000799               1.000000000               0.000000009               0.000000012               1.000000000              -0.000000005              -0.000000001               1.000000000              -0.000000007              -0.000000011               1.000000000               0.000000027              -0.000000013               1.000000000              -0.000000016               0.000000021               1.000000000              -0.000000029               0.000000057               1.000000000               0.000000001               0.000000005               1.000000000              -0.000000010              -0.000000126               1.000000000              -0.000000001              -0.000000239               1.000000000               0.000000029              -0.000000216               1.000000000               0.000000104              -0.000000030               1.000000000               0.000000224               0.000000242               1.000000000               0.000000325               0.000000593               1.000000000               0.000000289               0.000001120               1.000000000              -0.000000050               0.000002012               1.000000000              -0.000000840               0.000003517               1.000000000              -0.000002166               0.000005856               1.000000000               0.000000005               0.000000015               1.000000000              -0.000000005              -0.000000014               1.000000000               0.000000007              -0.000000019               1.000000000              -0.000000008               0.000000031               1.000000000              -0.000000008               0.000000065               1.000000000               0.000000024              -0.000000047               1.000000000              -0.000000016              -0.000000201               1.000000000              -0.000000001              -0.000000198               1.000000000               0.000000044               0.000000069               1.000000000               0.000000115               0.000000625               1.000000000               0.000000185               0.000001392               1.000000000               0.000000178               0.000002327               1.000000000              -0.000000018               0.000003516               1.000000000              -0.000000580               0.000005141               1.000000000              -0.000001644               0.000007437               1.000000000              -0.000003268               0.000010565               1.000000000              -0.000005439               0.000014611               1.000000000               0.000000001               0.000000004               1.000000000               0.000000000              -0.000000028               1.000000000               0.000000000               0.000000023               1.000000000              -0.000000001               0.000000072               1.000000000               0.000000008              -0.000000078               1.000000000              -0.000000013              -0.000000212               1.000000000               0.000000011              -0.000000069               1.000000000               0.000000051               0.000000433               1.000000000               0.000000077               0.000001371               1.000000000               0.000000097               0.000002705               1.000000000               0.000000021               0.000004357               1.000000000              -0.000000237               0.000006358               1.000000000              -0.000000879               0.000008875               1.000000000              -0.000002033               0.000012107               1.000000000              -0.000003770               0.000016199               1.000000000              -0.000006070               0.000021176               1.000000000              -0.000008847               0.000026988               1.000000000              -0.000000002              -0.000000029               1.000000000               0.000000001              -0.000000007               1.000000000               0.000000004               0.000000080               1.000000000              -0.000000002              -0.000000050               1.000000000              -0.000000005              -0.000000209               1.000000000              -0.000000007              -0.000000018               1.000000000              -0.000000004               0.000000641               1.000000000               0.000000026               0.000001951               1.000000000               0.000000054               0.000003828               1.000000000              -0.000000000               0.000006220               1.000000000              -0.000000223               0.000009098               1.000000000              -0.000000775               0.000012609               1.000000000              -0.000001824               0.000016920               1.000000000              -0.000003431               0.000022186               1.000000000              -0.000005588               0.000028438               1.000000000              -0.000008169               0.000035605               1.000000000              -0.000011053               0.000043481               1.000000000              -0.000000008              -0.000000060               1.000000000               0.000000001               0.000000031               1.000000000               0.000000008               0.000000078               1.000000000              -0.000000002              -0.000000120               1.000000000              -0.000000006              -0.000000186               1.000000000              -0.000000018               0.000000060               1.000000000              -0.000000007               0.000000880               1.000000000               0.000000028               0.000002248               1.000000000               0.000000037               0.000004210               1.000000000               0.000000007               0.000006732               1.000000000              -0.000000067               0.000009756               1.000000000              -0.000000269               0.000013319               1.000000000              -0.000000700               0.000017491               1.000000000              -0.000001485               0.000022425               1.000000000              -0.000002642               0.000028173               1.000000000              -0.000004145               0.000034835               1.000000000              -0.000005915               0.000042368               1.000000000              -0.000000010              -0.000000062               1.000000000              -0.000000001               0.000000065               1.000000000               0.000000008               0.000000043               1.000000000              -0.000000008              -0.000000175               1.000000000               0.000000002              -0.000000139               1.000000000              -0.000000001               0.000000199               1.000000000              -0.000000015               0.000001084               1.000000000              -0.000000011               0.000002522               1.000000000               0.000000022               0.000004550               1.000000000               0.000000024               0.000007161               1.000000000               0.000000016               0.000010291               1.000000000              -0.000000024               0.000013949               1.000000000              -0.000000139               0.000018129               1.000000000              -0.000000392               0.000022918               1.000000000              -0.000000859               0.000028376               1.000000000              -0.000001547               0.000034569               1.000000000              -0.000002455               0.000041527               1.000000000              -0.000000003              -0.000000028               1.000000000              -0.000000008               0.000000074               1.000000000               0.000000010              -0.000000007               1.000000000              -0.000000006              -0.000000183               1.000000000              -0.000000009              -0.000000135               1.000000000              -0.000000001               0.000000338               1.000000000               0.000000002               0.000001320               1.000000000              -0.000000001               0.000002815               1.000000000               0.000000006               0.000004871               1.000000000               0.000000009               0.000007464               1.000000000               0.000000007               0.000010659               1.000000000               0.000000018               0.000014358               1.000000000               0.000000030               0.000018604               1.000000000               0.000000013               0.000023359               1.000000000              -0.000000072               0.000028701               1.000000000              -0.000000264               0.000034639               1.000000000              -0.000000564               0.000041240               1.000000000               0.000000007               0.000000021               1.000000000              -0.000000012               0.000000065               1.000000000               0.000000002              -0.000000067               1.000000000               0.000000003              -0.000000174               1.000000000              -0.000000004              -0.000000074               1.000000000              -0.000000005               0.000000442               1.000000000              -0.000000009               0.000001495               1.000000000              -0.000000007               0.000003039               1.000000000               0.000000008               0.000005153               1.000000000               0.000000017               0.000007766               1.000000000               0.000000012               0.000010948               1.000000000               0.000000007               0.000014648               1.000000000               0.000000021               0.000018902               1.000000000               0.000000055               0.000023644               1.000000000               0.000000089               0.000028939               1.000000000               0.000000100               0.000034747               1.000000000               0.000000060               0.000041151               1.000000000               0.000000010               0.000000066               1.000000000              -0.000000005               0.000000043               1.000000000              -0.000000005              -0.000000087               1.000000000               0.000000000              -0.000000198               1.000000000              -0.000000004              -0.000000031               1.000000000               0.000000003               0.000000577               1.000000000               0.000000009               0.000001643               1.000000000              -0.000000003               0.000003250               1.000000000              -0.000000017               0.000005374               1.000000000              -0.000000007               0.000008000               1.000000000               0.000000005               0.000011166               1.000000000               0.000000001               0.000014844               1.000000000              -0.000000006               0.000019077               1.000000000              -0.000000003               0.000023805               1.000000000               0.000000020               0.000029066               1.000000000               0.000000051               0.000034812               1.000000000               0.000000078               0.000041105               1.000000000               0.000000008               0.000000119               1.000000000              -0.000000000               0.000000011               1.000000000              -0.000000005              -0.000000108               1.000000000              -0.000000001              -0.000000169               1.000000000              -0.000000001              -0.000000022               1.000000000              -0.000000004               0.000000649               1.000000000              -0.000000006               0.000001771               1.000000000               0.000000010               0.000003396               1.000000000               0.000000011               0.000005537               1.000000000              -0.000000004               0.000008194               1.000000000              -0.000000003               0.000011361               1.000000000               0.000000002               0.000015027               1.000000000              -0.000000002               0.000019223               1.000000000              -0.000000017               0.000023927               1.000000000              -0.000000030               0.000029164               1.000000000              -0.000000033               0.000034892               1.000000000              -0.000000025               0.000041143               1.000000000               0.000000003               0.000000149               1.000000000              -0.000000006               0.000000001               1.000000000               0.000000001              -0.000000147               1.000000000               0.000000004              -0.000000161               1.000000000              -0.000000005               0.000000038               1.000000000               0.000000000               0.000000697               1.000000000               0.000000001               0.000001821               1.000000000              -0.000000005               0.000003481               1.000000000               0.000000001               0.000005629               1.000000000               0.000000006               0.000008295               1.000000000               0.000000001               0.000011470               1.000000000              -0.000000001               0.000015143               1.000000000               0.000000005               0.000019323               1.000000000               0.000000012               0.000024002               1.000000000               0.000000012               0.000029206               1.000000000               0.000000005               0.000034911               1.000000000              -0.000000004               0.000041139               1.000000000               0.000000000               0.000000142               1.000000000              -0.000000000               0.000000008               1.000000000              -0.000000000              -0.000000131               1.000000000               0.000000000              -0.000000178               1.000000000              -0.000000000               0.000000018               1.000000000              -0.000000000               0.000000724               1.000000000              -0.000000000               0.000001870               1.000000000              -0.000000000               0.000003523               1.000000000              -0.000000000               0.000005668               1.000000000              -0.000000000               0.000008324               1.000000000               0.000000000               0.000011485               1.000000000               0.000000000               0.000015162               1.000000000               0.000000000               0.000019355               1.000000000              -0.000000000               0.000024042               1.000000000              -0.000000000               0.000029237               1.000000000               0.000000000               0.000034923               1.000000000               0.000000000               0.000041129               1.000000000              -0.000000016              -0.000000000               1.000000000              -0.000000001               0.000000000               1.000000000               0.000000023              -0.000000000               1.000000000               0.000000015              -0.000000000               1.000000000              -0.000000030               0.000000000               1.000000000              -0.000000048               0.000000000               1.000000000               0.000000003              -0.000000000               1.000000000               0.000000068               0.000000000               1.000000000               0.000000077               0.000000000               1.000000000               0.000000020               0.000000000               1.000000000              -0.000000057              -0.000000000               1.000000000              -0.000000105              -0.000000000               1.000000000              -0.000000105              -0.000000000               1.000000000              -0.000000062               0.000000000               1.000000000              -0.000000005               0.000000000               1.000000000               0.000000030               0.000000000               1.000000000               0.000000020               0.000000000               1.000000000               0.000000009              -0.000000001               1.000000000               0.000000005               0.000000008               1.000000000              -0.000000016               0.000000001               1.000000000              -0.000000021              -0.000000005               1.000000000               0.000000019              -0.000000001               1.000000000               0.000000050               0.000000007               1.000000000               0.000000015               0.000000001               1.000000000              -0.000000050              -0.000000011               1.000000000              -0.000000078              -0.000000012               1.000000000              -0.000000051               0.000000007               1.000000000               0.000000008               0.000000035               1.000000000               0.000000067               0.000000050               1.000000000               0.000000102               0.000000044               1.000000000               0.000000100               0.000000006               1.000000000               0.000000062              -0.000000065               1.000000000               0.000000012              -0.000000149               1.000000000              -0.000000018              -0.000000213               1.000000000               0.000000009               0.000000004               1.000000000              -0.000000009              -0.000000002               1.000000000              -0.000000004              -0.000000001               1.000000000               0.000000029               0.000000001               1.000000000               0.000000011              -0.000000003               1.000000000              -0.000000043              -0.000000010               1.000000000              -0.000000047               0.000000006               1.000000000              -0.000000003               0.000000029               1.000000000               0.000000051               0.000000030               1.000000000               0.000000090              -0.000000005               1.000000000               0.000000097              -0.000000061               1.000000000               0.000000063              -0.000000107               1.000000000              -0.000000011              -0.000000141               1.000000000              -0.000000101              -0.000000155               1.000000000              -0.000000161              -0.000000121               1.000000000              -0.000000149              -0.000000019               1.000000000              -0.000000062               0.000000129               1.000000000              -0.000000015               0.000000006               1.000000000               0.000000002              -0.000000006               1.000000000               0.000000024              -0.000000004               1.000000000              -0.000000017              -0.000000001               1.000000000              -0.000000041               0.000000008               1.000000000               0.000000013               0.000000022               1.000000000               0.000000054               0.000000004               1.000000000               0.000000054              -0.000000040               1.000000000               0.000000027              -0.000000072               1.000000000              -0.000000033              -0.000000062               1.000000000              -0.000000110              -0.000000002               1.000000000              -0.000000183               0.000000074               1.000000000              -0.000000210               0.000000157               1.000000000              -0.000000148               0.000000289               1.000000000               0.000000007               0.000000481               1.000000000               0.000000197               0.000000696               1.000000000               0.000000309               0.000000848               1.000000000              -0.000000004              -0.000000003               1.000000000               0.000000010              -0.000000004               1.000000000              -0.000000017               0.000000001               1.000000000              -0.000000015               0.000000010               1.000000000               0.000000043               0.000000010               1.000000000               0.000000021              -0.000000015               1.000000000              -0.000000022              -0.000000047               1.000000000              -0.000000042              -0.000000034               1.000000000              -0.000000070               0.000000039               1.000000000              -0.000000080               0.000000150               1.000000000              -0.000000062               0.000000233               1.000000000               0.000000013               0.000000267               1.000000000               0.000000168               0.000000308               1.000000000               0.000000369               0.000000345               1.000000000               0.000000518               0.000000295               1.000000000               0.000000463              -0.000000013               1.000000000               0.000000038              -0.000000799               1.000000000               0.000000009              -0.000000012               1.000000000              -0.000000005               0.000000001               1.000000000              -0.000000007               0.000000011               1.000000000               0.000000027               0.000000013               1.000000000              -0.000000016              -0.000000021               1.000000000              -0.000000029              -0.000000057               1.000000000               0.000000001              -0.000000005               1.000000000              -0.000000010               0.000000126               1.000000000              -0.000000001               0.000000239               1.000000000               0.000000029               0.000000216               1.000000000               0.000000104               0.000000030               1.000000000               0.000000224              -0.000000242               1.000000000               0.000000325              -0.000000593               1.000000000               0.000000289              -0.000001120               1.000000000              -0.000000050              -0.000002012               1.000000000              -0.000000840              -0.000003517               1.000000000              -0.000002166              -0.000005856               1.000000000               0.000000005              -0.000000015               1.000000000              -0.000000005               0.000000014               1.000000000               0.000000007               0.000000019               1.000000000              -0.000000008              -0.000000031               1.000000000              -0.000000008              -0.000000065               1.000000000               0.000000024               0.000000047               1.000000000              -0.000000016               0.000000201               1.000000000              -0.000000001               0.000000198               1.000000000               0.000000044              -0.000000069               1.000000000               0.000000115              -0.000000625               1.000000000               0.000000185              -0.000001392               1.000000000               0.000000178              -0.000002327               1.000000000              -0.000000018              -0.000003516               1.000000000              -0.000000580              -0.000005141               1.000000000              -0.000001644              -0.000007437               1.000000000              -0.000003268              -0.000010565               1.000000000              -0.000005439              -0.000014611               1.000000000               0.000000001              -0.000000004               1.000000000               0.000000000               0.000000028               1.000000000               0.000000000              -0.000000023               1.000000000              -0.000000001              -0.000000072               1.000000000               0.000000008               0.000000078               1.000000000              -0.000000013               0.000000212               1.000000000               0.000000011               0.000000069               1.000000000               0.000000051              -0.000000433               1.000000000               0.000000077              -0.000001371               1.000000000               0.000000097              -0.000002705               1.000000000               0.000000021              -0.000004357               1.000000000              -0.000000237              -0.000006358               1.000000000              -0.000000879              -0.000008875               1.000000000              -0.000002033              -0.000012107               1.000000000              -0.000003770              -0.000016199               1.000000000              -0.000006070              -0.000021176               1.000000000              -0.000008847              -0.000026988               1.000000000              -0.000000002               0.000000029               1.000000000               0.000000001               0.000000007               1.000000000               0.000000004              -0.000000080               1.000000000              -0.000000002               0.000000050               1.000000000              -0.000000005               0.000000209               1.000000000              -0.000000007               0.000000018               1.000000000              -0.000000004              -0.000000641               1.000000000               0.000000026              -0.000001951               1.000000000               0.000000054              -0.000003828               1.000000000              -0.000000000              -0.000006220               1.000000000              -0.000000223              -0.000009098               1.000000000              -0.000000775              -0.000012609               1.000000000              -0.000001824              -0.000016920               1.000000000              -0.000003431              -0.000022186               1.000000000              -0.000005588              -0.000028438               1.000000000              -0.000008169              -0.000035605               1.000000000              -0.000011053              -0.000043481               1.000000000              -0.000000008               0.000000060               1.000000000               0.000000001              -0.000000031               1.000000000               0.000000008              -0.000000078               1.000000000              -0.000000002               0.000000120               1.000000000              -0.000000006               0.000000186               1.000000000              -0.000000018              -0.000000060               1.000000000              -0.000000007              -0.000000880               1.000000000               0.000000028              -0.000002248               1.000000000               0.000000037              -0.000004210               1.000000000               0.000000007              -0.000006732               1.000000000              -0.000000067              -0.000009756               1.000000000              -0.000000269              -0.000013319               1.000000000              -0.000000700              -0.000017491               1.000000000              -0.000001485              -0.000022425               1.000000000              -0.000002642              -0.000028173               1.000000000              -0.000004145              -0.000034835               1.000000000              -0.000005915              -0.000042368               1.000000000              -0.000000010               0.000000062               1.000000000              -0.000000001              -0.000000065               1.000000000               0.000000008              -0.000000043               1.000000000              -0.000000008               0.000000175               1.000000000               0.000000002               0.000000139               1.000000000              -0.000000001              -0.000000199               1.000000000              -0.000000015              -0.000001084               1.000000000              -0.000000011              -0.000002522               1.000000000               0.000000022              -0.000004550               1.000000000               0.000000024              -0.000007161               1.000000000               0.000000016              -0.000010291               1.000000000              -0.000000024              -0.000013949               1.000000000              -0.000000139              -0.000018129               1.000000000              -0.000000392              -0.000022918               1.000000000              -0.000000859              -0.000028376               1.000000000              -0.000001547              -0.000034569               1.000000000              -0.000002455              -0.000041527               1.000000000              -0.000000003               0.000000028               1.000000000              -0.000000008              -0.000000074               1.000000000               0.000000010               0.000000007               1.000000000              -0.000000006               0.000000183               1.000000000              -0.000000009               0.000000135               1.000000000              -0.000000001              -0.000000338               1.000000000               0.000000002              -0.000001320               1.000000000              -0.000000001              -0.000002815               1.000000000               0.000000006              -0.000004871               1.000000000               0.000000009              -0.000007464               1.000000000               0.000000007              -0.000010659               1.000000000               0.000000018              -0.000014358               1.000000000               0.000000030              -0.000018604               1.000000000               0.000000013              -0.000023359               1.000000000              -0.000000072              -0.000028701               1.000000000              -0.000000264              -0.000034639               1.000000000              -0.000000564              -0.000041240               1.000000000               0.000000007              -0.000000021               1.000000000              -0.000000012              -0.000000065               1.000000000               0.000000002               0.000000067               1.000000000               0.000000003               0.000000174               1.000000000              -0.000000004               0.000000074               1.000000000              -0.000000005              -0.000000442               1.000000000              -0.000000009              -0.000001495               1.000000000              -0.000000007              -0.000003039               1.000000000               0.000000008              -0.000005153               1.000000000               0.000000017              -0.000007766               1.000000000               0.000000012              -0.000010948               1.000000000               0.000000007              -0.000014648               1.000000000               0.000000021              -0.000018902               1.000000000               0.000000055              -0.000023644               1.000000000               0.000000089              -0.000028939               1.000000000               0.000000100              -0.000034747               1.000000000               0.000000060              -0.000041151               1.000000000               0.000000010              -0.000000066               1.000000000              -0.000000005              -0.000000043               1.000000000              -0.000000005               0.000000087               1.000000000               0.000000000               0.000000198               1.000000000              -0.000000004               0.000000031               1.000000000               0.000000003              -0.000000577               1.000000000               0.000000009              -0.000001643               1.000000000              -0.000000003              -0.000003250               1.000000000              -0.000000017              -0.000005374               1.000000000              -0.000000007              -0.000008000               1.000000000               0.000000005              -0.000011166               1.000000000               0.000000001              -0.000014844               1.000000000              -0.000000006              -0.000019077               1.000000000              -0.000000003              -0.000023805               1.000000000               0.000000020              -0.000029066               1.000000000               0.000000051              -0.000034812               1.000000000               0.000000078              -0.000041105               1.000000000               0.000000008              -0.000000119               1.000000000              -0.000000000              -0.000000011               1.000000000              -0.000000005               0.000000108               1.000000000              -0.000000001               0.000000169               1.000000000              -0.000000001               0.000000022               1.000000000              -0.000000004              -0.000000649               1.000000000              -0.000000006              -0.000001771               1.000000000               0.000000010              -0.000003396               1.000000000               0.000000011              -0.000005537               1.000000000              -0.000000004              -0.000008194               1.000000000              -0.000000003              -0.000011361               1.000000000               0.000000002              -0.000015027               1.000000000              -0.000000002              -0.000019223               1.000000000              -0.000000017              -0.000023927               1.000000000              -0.000000030              -0.000029164               1.000000000              -0.000000033              -0.000034892               1.000000000              -0.000000025              -0.000041143               1.000000000               0.000000003              -0.000000149               1.000000000              -0.000000006              -0.000000001               1.000000000               0.000000001               0.000000147               1.000000000               0.000000004               0.000000161               1.000000000              -0.000000005              -0.000000038               1.000000000               0.000000000              -0.000000697               1.000000000               0.000000001              -0.000001821               1.000000000              -0.000000005              -0.000003481               1.000000000               0.000000001              -0.000005629               1.000000000               0.000000006              -0.000008295               1.000000000               0.000000001              -0.000011470               1.000000000              -0.000000001              -0.000015143               1.000000000               0.000000005              -0.000019323               1.000000000               0.000000012              -0.000024002               1.000000000               0.000000012              -0.000029206               1.000000000               0.000000005              -0.000034911               1.000000000              -0.000000004              -0.000041139               1.000000000              -0.000000000              -0.000000142               1.000000000               0.000000000              -0.000000008               1.000000000               0.000000000               0.000000131               1.000000000              -0.000000000               0.000000178               1.000000000               0.000000000              -0.000000018               1.000000000               0.000000000              -0.000000724               1.000000000              -0.000000000              -0.000001870               1.000000000               0.000000000              -0.000003523               1.000000000               0.000000000              -0.000005668               1.000000000              -0.000000000              -0.000008324               1.000000000              -0.000000000              -0.000011485               1.000000000               0.000000000              -0.000015162               1.000000000              -0.000000000              -0.000019355               1.000000000              -0.000000000              -0.000024042               1.000000000              -0.000000000              -0.000029237               1.000000000               0.000000000              -0.000034923               1.000000000               0.000000000              -0.000041129               1.000000000               0.000000016               0.000000000               1.000000000               0.000000001               0.000000000               1.000000000              -0.000000023              -0.000000000               1.000000000              -0.000000015               0.000000000               1.000000000               0.000000030               0.000000000               1.000000000               0.000000048              -0.000000000               1.000000000              -0.000000003               0.000000000               1.000000000              -0.000000068               0.000000000               1.000000000              -0.000000077              -0.000000000               1.000000000              -0.000000020              -0.000000000               1.000000000               0.000000057               0.000000000               1.000000000               0.000000105               0.000000000               1.000000000               0.000000105              -0.000000000               1.000000000               0.000000062              -0.000000000               1.000000000               0.000000005              -0.000000000               1.000000000              -0.000000030              -0.000000000               1.000000000              -0.000000020              -0.000000000               1.000000000              -0.000000009              -0.000000001               1.000000000              -0.000000005               0.000000008               1.000000000               0.000000016               0.000000001               1.000000000               0.000000021              -0.000000005               1.000000000              -0.000000019              -0.000000001               1.000000000              -0.000000050               0.000000007               1.000000000              -0.000000015               0.000000001               1.000000000               0.000000050              -0.000000011               1.000000000               0.000000078              -0.000000012               1.000000000               0.000000051               0.000000007               1.000000000              -0.000000008               0.000000035               1.000000000              -0.000000067               0.000000050               1.000000000              -0.000000102               0.000000044               1.000000000              -0.000000100               0.000000006               1.000000000              -0.000000062              -0.000000065               1.000000000              -0.000000012              -0.000000149               1.000000000               0.000000018              -0.000000213               1.000000000              -0.000000009               0.000000004               1.000000000               0.000000009              -0.000000002               1.000000000               0.000000004              -0.000000001               1.000000000              -0.000000029               0.000000001               1.000000000              -0.000000011              -0.000000003               1.000000000               0.000000043              -0.000000010               1.000000000               0.000000047               0.000000006               1.000000000               0.000000003               0.000000029               1.000000000              -0.000000051               0.000000030               1.000000000              -0.000000090              -0.000000005               1.000000000              -0.000000097              -0.000000061               1.000000000              -0.000000063              -0.000000107               1.000000000               0.000000011              -0.000000141               1.000000000               0.000000101              -0.000000155               1.000000000               0.000000161              -0.000000121               1.000000000               0.000000149              -0.000000019               1.000000000               0.000000062               0.000000129               1.000000000               0.000000015               0.000000006               1.000000000              -0.000000002              -0.000000006               1.000000000              -0.000000024              -0.000000004               1.000000000               0.000000017              -0.000000001               1.000000000               0.000000041               0.000000008               1.000000000              -0.000000013               0.000000022               1.000000000              -0.000000054               0.000000004               1.000000000              -0.000000054              -0.000000040               1.000000000              -0.000000027              -0.000000072               1.000000000               0.000000033              -0.000000062               1.000000000               0.000000110              -0.000000002               1.000000000               0.000000183               0.000000074               1.000000000               0.000000210               0.000000157               1.000000000               0.000000148               0.000000289               1.000000000              -0.000000007               0.000000481               1.000000000              -0.000000197               0.000000696               1.000000000              -0.000000309               0.000000848               1.000000000               0.000000004              -0.000000003               1.000000000              -0.000000010              -0.000000004               1.000000000               0.000000017               0.000000001               1.000000000               0.000000015               0.000000010               1.000000000              -0.000000043               0.000000010               1.000000000              -0.000000021              -0.000000015               1.000000000               0.000000022              -0.000000047               1.000000000               0.000000042              -0.000000034               1.000000000               0.000000070               0.000000039               1.000000000               0.000000080               0.000000150               1.000000000               0.000000062               0.000000233               1.000000000              -0.000000013               0.000000267               1.000000000              -0.000000168               0.000000308               1.000000000              -0.000000369               0.000000345               1.000000000              -0.000000518               0.000000295               1.000000000              -0.000000463              -0.000000013               1.000000000              -0.000000038              -0.000000799               1.000000000              -0.000000009              -0.000000012               1.000000000               0.000000005               0.000000001               1.000000000               0.000000007               0.000000011               1.000000000              -0.000000027               0.000000013               1.000000000               0.000000016              -0.000000021               1.000000000               0.000000029              -0.000000057               1.000000000              -0.000000001              -0.000000005               1.000000000               0.000000010               0.000000126               1.000000000               0.000000001               0.000000239               1.000000000              -0.000000029               0.000000216               1.000000000              -0.000000104               0.000000030               1.000000000              -0.000000224              -0.000000242               1.000000000              -0.000000325              -0.000000593               1.000000000              -0.000000289              -0.000001120               1.000000000               0.000000050              -0.000002012               1.000000000               0.000000840              -0.000003517               1.000000000               0.000002166              -0.000005856               1.000000000              -0.000000005              -0.000000015               1.000000000               0.000000005               0.000000014               1.000000000              -0.000000007               0.000000019               1.000000000               0.000000008              -0.000000031               1.000000000               0.000000008              -0.000000065               1.000000000              -0.000000024               0.000000047               1.000000000               0.000000016               0.000000201               1.000000000               0.000000001               0.000000198               1.000000000              -0.000000044              -0.000000069               1.000000000              -0.000000115              -0.000000625               1.000000000              -0.000000185              -0.000001392               1.000000000              -0.000000178              -0.000002327               1.000000000               0.000000018              -0.000003516               1.000000000               0.000000580              -0.000005141               1.000000000               0.000001644              -0.000007437               1.000000000               0.000003268              -0.000010565               1.000000000               0.000005439              -0.000014611               1.000000000              -0.000000001              -0.000000004               1.000000000              -0.000000000               0.000000028               1.000000000              -0.000000000              -0.000000023               1.000000000               0.000000001              -0.000000072               1.000000000              -0.000000008               0.000000078               1.000000000               0.000000013               0.000000212               1.000000000              -0.000000011               0.000000069               1.000000000              -0.000000051              -0.000000433               1.000000000              -0.000000077              -0.000001371               1.000000000              -0.000000097              -0.000002705               1.000000000              -0.000000021              -0.000004357               1.000000000               0.000000237              -0.000006358               1.000000000               0.000000879              -0.000008875               1.000000000               0.000002033              -0.000012107               1.000000000               0.000003770              -0.000016199               1.000000000               0.000006070              -0.000021176               1.000000000               0.000008847              -0.000026988               1.000000000               0.000000002               0.000000029               1.000000000              -0.000000001               0.000000007               1.000000000              -0.000000004              -0.000000080               1.000000000               0.000000002               0.000000050               1.000000000               0.000000005               0.000000209               1.000000000               0.000000007               0.000000018               1.000000000               0.000000004              -0.000000641               1.000000000              -0.000000026              -0.000001951               1.000000000              -0.000000054              -0.000003828               1.000000000               0.000000000              -0.000006220               1.000000000               0.000000223              -0.000009098               1.000000000               0.000000775              -0.000012609               1.000000000               0.000001824              -0.000016920               1.000000000               0.000003431              -0.000022186               1.000000000               0.000005588              -0.000028438               1.000000000               0.000008169              -0.000035605               1.000000000               0.000011053              -0.000043481               1.000000000               0.000000008               0.000000060               1.000000000              -0.000000001              -0.000000031               1.000000000              -0.000000008              -0.000000078               1.000000000               0.000000002               0.000000120               1.000000000               0.000000006               0.000000186               1.000000000               0.000000018              -0.000000060               1.000000000               0.000000007              -0.000000880               1.000000000              -0.000000028              -0.000002248               1.000000000              -0.000000037              -0.000004210               1.000000000              -0.000000007              -0.000006732               1.000000000               0.000000067              -0.000009756               1.000000000               0.000000269              -0.000013319               1.000000000               0.000000700              -0.000017491               1.000000000               0.000001485              -0.000022425               1.000000000               0.000002642              -0.000028173               1.000000000               0.000004145              -0.000034835               1.000000000               0.000005915              -0.000042368               1.000000000               0.000000010               0.000000062               1.000000000               0.000000001              -0.000000065               1.000000000              -0.000000008              -0.000000043               1.000000000               0.000000008               0.000000175               1.000000000              -0.000000002               0.000000139               1.000000000               0.000000001              -0.000000199               1.000000000               0.000000015              -0.000001084               1.000000000               0.000000011              -0.000002522               1.000000000              -0.000000022              -0.000004550               1.000000000              -0.000000024              -0.000007161               1.000000000              -0.000000016              -0.000010291               1.000000000               0.000000024              -0.000013949               1.000000000               0.000000139              -0.000018129               1.000000000               0.000000392              -0.000022918               1.000000000               0.000000859              -0.000028376               1.000000000               0.000001547              -0.000034569               1.000000000               0.000002455              -0.000041527               1.000000000               0.000000003               0.000000028               1.000000000               0.000000008              -0.000000074               1.000000000              -0.000000010               0.000000007               1.000000000               0.000000006               0.000000183               1.000000000               0.000000009               0.000000135               1.000000000               0.000000001              -0.000000338               1.000000000              -0.000000002              -0.000001320               1.000000000               0.000000001              -0.000002815               1.000000000              -0.000000006              -0.000004871               1.000000000              -0.000000009              -0.000007464               1.000000000              -0.000000007              -0.000010659               1.000000000              -0.000000018              -0.000014358               1.000000000              -0.000000030              -0.000018604               1.000000000              -0.000000013              -0.000023359               1.000000000               0.000000072              -0.000028701               1.000000000               0.000000264              -0.000034639               1.000000000               0.000000564              -0.000041240               1.000000000              -0.000000007              -0.000000021               1.000000000               0.000000012              -0.000000065               1.000000000              -0.000000002               0.000000067               1.000000000              -0.000000003               0.000000174               1.000000000               0.000000004               0.000000074               1.000000000               0.000000005              -0.000000442               1.000000000               0.000000009              -0.000001495               1.000000000               0.000000007              -0.000003039               1.000000000              -0.000000008              -0.000005153               1.000000000              -0.000000017              -0.000007766               1.000000000              -0.000000012              -0.000010948               1.000000000              -0.000000007              -0.000014648               1.000000000              -0.000000021              -0.000018902               1.000000000              -0.000000055              -0.000023644               1.000000000              -0.000000089              -0.000028939               1.000000000              -0.000000100              -0.000034747               1.000000000              -0.000000060              -0.000041151               1.000000000              -0.000000010              -0.000000066               1.000000000               0.000000005              -0.000000043               1.000000000               0.000000005               0.000000087               1.000000000              -0.000000000               0.000000198               1.000000000               0.000000004               0.000000031               1.000000000              -0.000000003              -0.000000577               1.000000000              -0.000000009              -0.000001643               1.000000000               0.000000003              -0.000003250               1.000000000               0.000000017              -0.000005374               1.000000000               0.000000007              -0.000008000               1.000000000              -0.000000005              -0.000011166               1.000000000              -0.000000001              -0.000014844               1.000000000               0.000000006              -0.000019077               1.000000000               0.000000003              -0.000023805               1.000000000              -0.000000020              -0.000029066               1.000000000              -0.000000051              -0.000034812               1.000000000              -0.000000078              -0.000041105               1.000000000              -0.000000008              -0.000000119               1.000000000               0.000000000              -0.000000011               1.000000000               0.000000005               0.000000108               1.000000000               0.000000001               0.000000169               1.000000000               0.000000001               0.000000022               1.000000000               0.000000004              -0.000000649               1.000000000               0.000000006              -0.000001771               1.000000000              -0.000000010              -0.000003396               1.000000000              -0.000000011              -0.000005537               1.000000000               0.000000004              -0.000008194               1.000000000               0.000000003              -0.000011361               1.000000000              -0.000000002              -0.000015027               1.000000000               0.000000002              -0.000019223               1.000000000               0.000000017              -0.000023927               1.000000000               0.000000030              -0.000029164               1.000000000               0.000000033              -0.000034892               1.000000000               0.000000025              -0.000041143               1.000000000              -0.000000003              -0.000000149               1.000000000               0.000000006              -0.000000001               1.000000000              -0.000000001               0.000000147               1.000000000              -0.000000004               0.000000161               1.000000000               0.000000005              -0.000000038               1.000000000              -0.000000000              -0.000000697               1.000000000              -0.000000001              -0.000001821               1.000000000               0.000000005              -0.000003481               1.000000000              -0.000000001              -0.000005629               1.000000000              -0.000000006              -0.000008295               1.000000000              -0.000000001              -0.000011470               1.000000000               0.000000001              -0.000015143               1.000000000              -0.000000005              -0.000019323               1.000000000              -0.000000012              -0.000024002               1.000000000              -0.000000012              -0.000029206               1.000000000              -0.000000005              -0.000034911               1.000000000               0.000000004              -0.000041139               1.000000000              -0.000000000              -0.000000142               1.000000000               0.000000000              -0.000000008               1.000000000               0.000000000               0.000000131               1.000000000              -0.000000000               0.000000178               1.000000000               0.000000000              -0.000000018               1.000000000               0.000000000              -0.000000724               1.000000000              -0.000000000              -0.000001870               1.000000000               0.000000000              -0.000003523               1.000000000               0.000000000              -0.000005668               1.000000000              -0.000000000              -0.000008324               1.000000000              -0.000000000              -0.000011485               1.000000000               0.000000000              -0.000015162               1.000000000              -0.000000000              -0.000019355               1.000000000              -0.000000000              -0.000024042               1.000000000              -0.000000000              -0.000029237               1.000000000               0.000000000              -0.000034923               1.000000000               0.000000000              -0.000041129               1.000000000               0.000000016               0.000000000               1.000000000               0.000000001               0.000000000               1.000000000              -0.000000023              -0.000000000               1.000000000              -0.000000015               0.000000000               1.000000000               0.000000030               0.000000000               1.000000000               0.000000048              -0.000000000               1.000000000              -0.000000003               0.000000000               1.000000000              -0.000000068               0.000000000               1.000000000              -0.000000077              -0.000000000               1.000000000              -0.000000020              -0.000000000               1.000000000               0.000000057               0.000000000               1.000000000               0.000000105               0.000000000               1.000000000               0.000000105              -0.000000000               1.000000000               0.000000062              -0.000000000               1.000000000               0.000000005              -0.000000000               1.000000000              -0.000000030              -0.000000000               1.000000000              -0.000000020              -0.000000000               1.000000000              -0.000000009               0.000000001               1.000000000              -0.000000005              -0.000000008               1.000000000               0.000000016              -0.000000001               1.000000000               0.000000021               0.000000005               1.000000000              -0.000000019               0.000000001               1.000000000              -0.000000050              -0.000000007               1.000000000              -0.000000015              -0.000000001               1.000000000               0.000000050               0.000000011               1.000000000               0.000000078               0.000000012               1.000000000               0.000000051              -0.000000007               1.000000000              -0.000000008              -0.000000035               1.000000000              -0.000000067              -0.000000050               1.000000000              -0.000000102              -0.000000044               1.000000000              -0.000000100              -0.000000006               1.000000000              -0.000000062               0.000000065               1.000000000              -0.000000012               0.000000149               1.000000000               0.000000018               0.000000213               1.000000000              -0.000000009              -0.000000004               1.000000000               0.000000009               0.000000002               1.000000000               0.000000004               0.000000001               1.000000000              -0.000000029              -0.000000001               1.000000000              -0.000000011               0.000000003               1.000000000               0.000000043               0.000000010               1.000000000               0.000000047              -0.000000006               1.000000000               0.000000003              -0.000000029               1.000000000              -0.000000051              -0.000000030               1.000000000              -0.000000090               0.000000005               1.000000000              -0.000000097               0.000000061               1.000000000              -0.000000063               0.000000107               1.000000000               0.000000011               0.000000141               1.000000000               0.000000101               0.000000155               1.000000000               0.000000161               0.000000121               1.000000000               0.000000149               0.000000019               1.000000000               0.000000062              -0.000000129               1.000000000               0.000000015              -0.000000006               1.000000000              -0.000000002               0.000000006               1.000000000              -0.000000024               0.000000004               1.000000000               0.000000017               0.000000001               1.000000000               0.000000041              -0.000000008               1.000000000              -0.000000013              -0.000000022               1.000000000              -0.000000054              -0.000000004               1.000000000              -0.000000054               0.000000040               1.000000000              -0.000000027               0.000000072               1.000000000               0.000000033               0.000000062               1.000000000               0.000000110               0.000000002               1.000000000               0.000000183              -0.000000074               1.000000000               0.000000210              -0.000000157               1.000000000               0.000000148              -0.000000289               1.000000000              -0.000000007              -0.000000481               1.000000000              -0.000000197              -0.000000696               1.000000000              -0.000000309              -0.000000848               1.000000000               0.000000004               0.000000003               1.000000000              -0.000000010               0.000000004               1.000000000               0.000000017              -0.000000001               1.000000000               0.000000015              -0.000000010               1.000000000              -0.000000043              -0.000000010               1.000000000              -0.000000021               0.000000015               1.000000000               0.000000022               0.000000047               1.000000000               0.000000042               0.000000034               1.000000000               0.000000070              -0.000000039               1.000000000               0.000000080              -0.000000150               1.000000000               0.000000062              -0.000000233               1.000000000              -0.000000013              -0.000000267               1.000000000              -0.000000168              -0.000000308               1.000000000              -0.000000369              -0.000000345               1.000000000              -0.000000518              -0.000000295               1.000000000              -0.000000463               0.000000013               1.000000000              -0.000000038               0.000000799               1.000000000              -0.000000009               0.000000012               1.000000000               0.000000005              -0.000000001               1.000000000               0.000000007              -0.000000011               1.000000000              -0.000000027              -0.000000013               1.000000000               0.000000016               0.000000021               1.000000000               0.000000029               0.000000057               1.000000000              -0.000000001               0.000000005               1.000000000               0.000000010              -0.000000126               1.000000000               0.000000001              -0.000000239               1.000000000              -0.000000029              -0.000000216               1.000000000              -0.000000104              -0.000000030               1.000000000              -0.000000224               0.000000242               1.000000000              -0.000000325               0.000000593               1.000000000              -0.000000289               0.000001120               1.000000000               0.000000050               0.000002012               1.000000000               0.000000840               0.000003517               1.000000000               0.000002166               0.000005856               1.000000000              -0.000000005               0.000000015               1.000000000               0.000000005              -0.000000014               1.000000000              -0.000000007              -0.000000019               1.000000000               0.000000008               0.000000031               1.000000000               0.000000008               0.000000065               1.000000000              -0.000000024              -0.000000047               1.000000000               0.000000016              -0.000000201               1.000000000               0.000000001              -0.000000198               1.000000000              -0.000000044               0.000000069               1.000000000              -0.000000115               0.000000625               1.000000000              -0.000000185               0.000001392               1.000000000              -0.000000178               0.000002327               1.000000000               0.000000018               0.000003516               1.000000000               0.000000580               0.000005141               1.000000000               0.000001644               0.000007437               1.000000000               0.000003268               0.000010565               1.000000000               0.000005439               0.000014611               1.000000000              -0.000000001               0.000000004               1.000000000              -0.000000000              -0.000000028               1.000000000              -0.000000000               0.000000023               1.000000000               0.000000001               0.000000072               1.000000000              -0.000000008              -0.000000078               1.000000000               0.000000013              -0.000000212               1.000000000              -0.000000011              -0.000000069               1.000000000              -0.000000051               0.000000433               1.000000000              -0.000000077               0.000001371               1.000000000              -0.000000097               0.000002705               1.000000000              -0.000000021               0.000004357               1.000000000               0.000000237               0.000006358               1.000000000               0.000000879               0.000008875               1.000000000               0.000002033               0.000012107               1.000000000               0.000003770               0.000016199               1.000000000               0.000006070               0.000021176               1.000000000               0.000008847               0.000026988               1.000000000               0.000000002              -0.000000029               1.000000000              -0.000000001              -0.000000007               1.000000000              -0.000000004               0.000000080               1.000000000               0.000000002              -0.000000050               1.000000000               0.000000005              -0.000000209               1.000000000               0.000000007              -0.000000018               1.000000000               0.000000004               0.000000641               1.000000000              -0.000000026               0.000001951               1.000000000              -0.000000054               0.000003828               1.000000000               0.000000000               0.000006220               1.000000000               0.000000223               0.000009098               1.000000000               0.000000775               0.000012609               1.000000000               0.000001824               0.000016920               1.000000000               0.000003431               0.000022186               1.000000000               0.000005588               0.000028438               1.000000000               0.000008169               0.000035605               1.000000000               0.000011053               0.000043481               1.000000000               0.000000008              -0.000000060               1.000000000              -0.000000001               0.000000031               1.000000000              -0.000000008               0.000000078               1.000000000               0.000000002              -0.000000120               1.000000000               0.000000006              -0.000000186               1.000000000               0.000000018               0.000000060               1.000000000               0.000000007               0.000000880               1.000000000              -0.000000028               0.000002248               1.000000000              -0.000000037               0.000004210               1.000000000              -0.000000007               0.000006732               1.000000000               0.000000067               0.000009756               1.000000000               0.000000269               0.000013319               1.000000000               0.000000700               0.000017491               1.000000000               0.000001485               0.000022425               1.000000000               0.000002642               0.000028173               1.000000000               0.000004145               0.000034835               1.000000000               0.000005915               0.000042368               1.000000000               0.000000010              -0.000000062               1.000000000               0.000000001               0.000000065               1.000000000              -0.000000008               0.000000043               1.000000000               0.000000008              -0.000000175               1.000000000              -0.000000002              -0.000000139               1.000000000               0.000000001               0.000000199               1.000000000               0.000000015               0.000001084               1.000000000               0.000000011               0.000002522               1.000000000              -0.000000022               0.000004550               1.000000000              -0.000000024               0.000007161               1.000000000              -0.000000016               0.000010291               1.000000000               0.000000024               0.000013949               1.000000000               0.000000139               0.000018129               1.000000000               0.000000392               0.000022918               1.000000000               0.000000859               0.000028376               1.000000000               0.000001547               0.000034569               1.000000000               0.000002455               0.000041527               1.000000000               0.000000003              -0.000000028               1.000000000               0.000000008               0.000000074               1.000000000              -0.000000010              -0.000000007               1.000000000               0.000000006              -0.000000183               1.000000000               0.000000009              -0.000000135               1.000000000               0.000000001               0.000000338               1.000000000              -0.000000002               0.000001320               1.000000000               0.000000001               0.000002815               1.000000000              -0.000000006               0.000004871               1.000000000              -0.000000009               0.000007464               1.000000000              -0.000000007               0.000010659               1.000000000              -0.000000018               0.000014358               1.000000000              -0.000000030               0.000018604               1.000000000              -0.000000013               0.000023359               1.000000000               0.000000072               0.000028701               1.000000000               0.000000264               0.000034639               1.000000000               0.000000564               0.000041240               1.000000000              -0.000000007               0.000000021               1.000000000               0.000000012               0.000000065               1.000000000              -0.000000002              -0.000000067               1.000000000              -0.000000003              -0.000000174               1.000000000               0.000000004              -0.000000074               1.000000000               0.000000005               0.000000442               1.000000000               0.000000009               0.000001495               1.000000000               0.000000007               0.000003039               1.000000000              -0.000000008               0.000005153               1.000000000              -0.000000017               0.000007766               1.000000000              -0.000000012               0.000010948               1.000000000              -0.000000007               0.000014648               1.000000000              -0.000000021               0.000018902               1.000000000              -0.000000055               0.000023644               1.000000000              -0.000000089               0.000028939               1.000000000              -0.000000100               0.000034747               1.000000000              -0.000000060               0.000041151               1.000000000              -0.000000010               0.000000066               1.000000000               0.000000005               0.000000043               1.000000000               0.000000005              -0.000000087               1.000000000              -0.000000000              -0.000000198               1.000000000               0.000000004              -0.000000031               1.000000000              -0.000000003               0.000000577               1.000000000              -0.000000009               0.000001643               1.000000000               0.000000003               0.000003250               1.000000000               0.000000017               0.000005374               1.000000000               0.000000007               0.000008000               1.000000000              -0.000000005               0.000011166               1.000000000              -0.000000001               0.000014844               1.000000000               0.000000006               0.000019077               1.000000000               0.000000003               0.000023805               1.000000000              -0.000000020               0.000029066               1.000000000              -0.000000051               0.000034812               1.000000000              -0.000000078               0.000041105               1.000000000              -0.000000008               0.000000119               1.000000000               0.000000000               0.000000011               1.000000000               0.000000005              -0.000000108               1.000000000               0.000000001              -0.000000169               1.000000000               0.000000001              -0.000000022               1.000000000               0.000000004               0.000000649               1.000000000               0.000000006               0.000001771               1.000000000              -0.000000010               0.000003396               1.000000000              -0.000000011               0.000005537               1.000000000               0.000000004               0.000008194               1.000000000               0.000000003               0.000011361               1.000000000              -0.000000002               0.000015027               1.000000000               0.000000002               0.000019223               1.000000000               0.000000017               0.000023927               1.000000000               0.000000030               0.000029164               1.000000000               0.000000033               0.000034892               1.000000000               0.000000025               0.000041143               1.000000000              -0.000000003               0.000000149               1.000000000               0.000000006               0.000000001               1.000000000              -0.000000001              -0.000000147               1.000000000              -0.000000004              -0.000000161               1.000000000               0.000000005               0.000000038               1.000000000              -0.000000000               0.000000697               1.000000000              -0.000000001               0.000001821               1.000000000               0.000000005               0.000003481               1.000000000              -0.000000001               0.000005629               1.000000000              -0.000000006               0.000008295               1.000000000              -0.000000001               0.000011470               1.000000000               0.000000001               0.000015143               1.000000000              -0.000000005               0.000019323               1.000000000              -0.000000012               0.000024002               1.000000000              -0.000000012               0.000029206               1.000000000              -0.000000005               0.000034911               1.000000000               0.000000004               0.000041139               1.000000000               0.000000000               0.000000142               1.000000000              -0.000000000               0.000000008               1.000000000              -0.000000000              -0.000000131               1.000000000               0.000000000              -0.000000178               1.000000000              -0.000000000               0.000000018               1.000000000              -0.000000000               0.000000724               1.000000000              -0.000000000               0.000001870               1.000000000              -0.000000000               0.000003523               1.000000000              -0.000000000               0.000005668               1.000000000              -0.000000000               0.000008324               1.000000000               0.000000000               0.000011485               1.000000000               0.000000000               0.000015162               1.000000000               0.000000000               0.000019355               1.000000000              -0.000000000               0.000024042               1.000000000              -0.000000000               0.000029237               1.000000000               0.000000000               0.000034923               1.000000000               0.000000000               0.000041129               1.000000000 </DataArray>
<DataArray type="Float64"                                    Name="defo"                                                      NumberOfComponents=" 3" format="ascii">
             -0.000000016              -0.000000000               1.000000000              -0.000000001               0.000000000               1.000000000               0.000000023              -0.000000000               1.000000000               0.000000015              -0.000000000               1.000000000              -0.000000030               0.000000000               1.000000000              -0.000000048               0.000000000               1.000000000               0.000000003              -0.000000000               1.000000000               0.000000068               0.000000000               1.000000000               0.000000077               0.000000000               1.000000000               0.000000020               0.000000000               1.000000000              -0.000000057              -0.000000000               1.000000000              -0.000000105              -0.000000000               1.000000000              -0.000000105              -0.000000000               1.000000000              -0.000000062               0.000000000               1.000000000              -0.000000005               0.000000000               1.000000000               0.000000030               0.000000000               1.000000000               0.000000020               0.000000000               1.000000000               0.000000009               0.000000001               1.000000000               0.000000005              -0.000000008               1.000000000              -0.000000016              -0.000000001               1.000000000              -0.000000021               0.000000005               1.000000000               0.000000019               0.000000001               1.000000000               0.000000050              -0.000000007               1.000000000               0.000000015              -0.000000001               1.000000000              -0.000000050               0.000000011               1.000000000              -0.000000078               0.000000012               1.000000000              -0.000000051              -0.000000007               1.000000000               0.000000008              -0.000000035               1.000000000               0.000000067              -0.000000050               1.000000000               0.000000102              -0.000000044               1.000000000               0.000000100              -0.000000006               1.000000000               0.000000062               0.000000065               1.000000000               0.000000012               0.000000149               1.000000000              -0.000000018               0.000000213               1.000000000               0.000000009              -0.000000004               1.000000000              -0.000000009               0.000000002               1.000000000              -0.000000004               0.000000001               1.000000000               0.000000029              -0.000000001               1.000000000               0.000000011               0.000000003               1.000000000              -0.000000043               0.000000010               1.000000000              -0.000000047              -0.000000006               1.000000000              -0.000000003              -0.000000029               1.000000000               0.000000051              -0.000000030               1.000000000               0.000000090               0.000000005               1.000000000               0.000000097               0.000000061               1.000000000               0.000000063               0.000000107               1.000000000              -0.000000011               0.000000141               1.000000000              -0.000000101               0.000000155               1.000000000              -0.000000161               0.000000121               1.000000000              -0.000000149               0.000000019               1.000000000              -0.000000062              -0.000000129               1.000000000              -0.000000015              -0.000000006               1.000000000               0.000000002               0.000000006               1.000000000               0.000000024               0.000000004               1.000000000              -0.000000017               0.000000001               1.000000000              -0.000000041              -0.000000008               1.000000000               0.000000013              -0.000000022               1.000000000               0.000000054              -0.000000004               1.000000000               0.000000054               0.000000040               1.000000000               0.000000027               0.000000072               1.000000000              -0.000000033               0.000000062               1.000000000              -0.000000110               0.000000002               1.000000000              -0.000000183              -0.000000074               1.000000000              -0.000000210              -0.000000157               1.000000000              -0.000000148              -0.000000289               1.000000000               0.000000007              -0.000000481               1.000000000               0.000000197              -0.000000696               1.000000000               0.000000309              -0.000000848               1.000000000              -0.000000004               0.000000003               1.000000000               0.000000010               0.000000004               1.000000000              -0.000000017              -0.000000001               1.000000000              -0.000000015              -0.000000010               1.000000000               0.000000043              -0.000000010               1.000000000               0.000000021               0.000000015               1.000000000              -0.000000022               0.000000047               1.000000000              -0.000000042               0.000000034               1.000000000              -0.000000070              -0.000000039               1.000000000              -0.000000080              -0.000000150               1.000000000              -0.000000062              -0.000000233               1.000000000               0.000000013              -0.000000267               1.000000000               0.000000168              -0.000000308               1.000000000               0.000000369              -0.000000345               1.000000000               0.000000518              -0.000000295               1.000000000               0.000000463               0.000000013               1.000000000               0.000000038               0.000000799               1.000000000               0.000000009               0.000000012               1.000000000              -0.000000005              -0.000000001               1.000000000              -0.000000007              -0.000000011               1.000000000               0.000000027              -0.000000013               1.000000000              -0.000000016               0.000000021               1.000000000              -0.000000029               0.000000057               1.000000000               0.000000001               0.000000005               1.000000000              -0.000000010              -0.000000126               1.000000000              -0.000000001              -0.000000239               1.000000000               0.000000029              -0.000000216               1.000000000               0.000000104              -0.000000030               1.000000000               0.000000224               0.000000242               1.000000000               0.000000325               0.000000593               1.000000000               0.000000289               0.000001120               1.000000000              -0.000000050               0.000002012               1.000000000              -0.000000840               0.000003517               1.000000000              -0.000002166               0.000005856               1.000000000               0.000000005               0.000000015               1.000000000              -0.000000005              -0.000000014               1.000000000               0.000000007              -0.000000019               1.000000000              -0.000000008               0.000000031               1.000000000              -0.000000008               0.000000065               1.000000000               0.000000024              -0.000000047               1.000000000              -0.000000016              -0.000000201               1.000000000              -0.000000001              -0.000000198               1.000000000               0.000000044               0.000000069               1.000000000               0.000000115               0.000000625               1.000000000               0.000000185               0.000001392               1.000000000               0.000000178               0.000002327               1.000000000              -0.000000018               0.000003516               1.000000000              -0.000000580               0.000005141               1.000000000              -0.000001644               0.000007437               1.000000000              -0.000003268               0.000010565               1.000000000              -0.000005439               0.000014611               1.000000000               0.000000001               0.000000004               1.000000000               0.000000000              -0.000000028               1.000000000               0.000000000               0.000000023               1.000000000              -0.000000001               0.000000072               1.000000000               0.000000008              -0.000000078               1.000000000              -0.000000013              -0.000000212               1.000000000               0.000000011              -0.000000069               1.000000000               0.000000051               0.000000433               1.000000000               0.000000077               0.000001371               1.000000000               0.000000097               0.000002705               1.000000000               0.000000021               0.000004357               1.000000000              -0.000000237               0.000006358               1.000000000              -0.000000879               0.000008875               1.000000000              -0.000002033               0.000012107               1.000000000              -0.000003770               0.000016199               1.000000000              -0.000006070               0.000021176               1.000000000              -0.000008847               0.000026988               1.000000000              -0.000000002              -0.000000029               1.000000000               0.000000001              -0.000000007               1.000000000               0.000000004               0.000000080               1.000000000              -0.000000002              -0.000000050               1.000000000              -0.000000005              -0.000000209               1.000000000              -0.000000007              -0.000000018               1.000000000              -0.000000004               0.000000641               1.000000000               0.000000026               0.000001951               1.000000000               0.000000054               0.000003828               1.000000000              -0.000000000               0.000006220               1.000000000              -0.000000223               0.000009098               1.000000000              -0.000000775               0.000012609               1.000000000              -0.000001824               0.000016920               1.000000000              -0.000003431               0.000022186               1.000000000              -0.000005588               0.000028438               1.000000000              -0.000008169               0.000035605               1.000000000              -0.000011053               0.000043481               1.000000000              -0.000000008              -0.000000060               1.000000000               0.000000001               0.000000031               1.000000000               0.000000008               0.000000078               1.000000000              -0.000000002              -0.000000120               1.000000000              -0.000000006              -0.000000186               1.000000000              -0.000000018               0.000000060               1.000000000              -0.000000007               0.000000880               1.000000000               0.000000028               0.000002248               1.000000000               0.000000037               0.000004210               1.000000000               0.000000007               0.000006732               1.000000000              -0.000000067               0.000009756               1.000000000              -0.000000269               0.000013319               1.000000000              -0.000000700               0.000017491               1.000000000              -0.000001485               0.000022425               1.000000000              -0.000002642               0.000028173               1.000000000              -0.000004145               0.000034835               1.000000000              -0.000005915               0.000042368               1.000000000              -0.000000010              -0.000000062               1.000000000              -0.000000001               0.000000065               1.000000000               0.000000008               0.000000043               1.000000000              -0.000000008              -0.000000175               1.000000000               0.000000002              -0.000000139               1.000000000              -0.000000001               0.000000199               1.000000000              -0.000000015               0.000001084               1.000000000              -0.000000011               0.000002522               1.000000000               0.000000022               0.000004550               1.000000000               0.000000024               0.000007161               1.000000000               0.000000016               0.000010291               1.000000000              -0.000000024               0.000013949               1.000000000              -0.000000139               0.000018129               1.000000000              -0.000000392               0.000022918               1.000000000              -0.000000859               0.000028376               1.000000000              -0.000001547               0.000034569               1.000000000              -0.000002455               0.000041527               1.000000000              -0.000000003              -0.000000028               1.000000000              -0.000000008               0.000000074               1.000000000               0.000000010              -0.000000007               1.000000000              -0.000000006              -0.000000183               1.000000000              -0.000000009              -0.000000135               1.000000000              -0.000000001               0.000000338               1.000000000               0.000000002               0.000001320               1.000000000              -0.000000001               0.000002815               1.000000000               0.000000006               0.000004871               1.000000000               0.000000009               0.000007464               1.000000000               0.000000007               0.000010659               1.000000000               0.000000018               0.000014358               1.000000000               0.000000030               0.000018604               1.000000000               0.000000013               0.000023359               1.000000000              -0.000000072               0.000028701               1.000000000              -0.000000264               0.000034639               1.000000000              -0.000000564               0.000041240               1.000000000               0.000000007               0.000000021               1.000000000              -0.000000012               0.000000065               1.000000000               0.000000002              -0.000000067               1.000000000               0.000000003              -0.000000174               1.000000000              -0.000000004              -0.000000074               1.000000000              -0.000000005               0.000000442               1.000000000              -0.000000009               0.000001495               1.000000000              -0.000000007               0.000003039               1.000000000               0.000000008               0.000005153               1.000000000               0.000000017               0.000007766               1.000000000               0.000000012               0.000010948               1.000000000               0.000000007               0.000014648               1.000000000               0.000000021               0.000018902               1.000000000               0.000000055               0.000023644               1.000000000               0.000000089               0.000028939               1.000000000               0.000000100               0.000034747               1.000000000               0.000000060               0.000041151               1.000000000               0.000000010               0.000000066               1.000000000              -0.000000005               0.000000043               1.000000000              -0.000000005              -0.000000087               1.000000000               0.000000000              -0.000000198               1.000000000              -0.000000004              -0.000000031               1.000000000               0.000000003               0.000000577               1.000000000               0.000000009               0.000001643               1.000000000              -0.000000003               0.000003250               1.000000000              -0.000000017               0.000005374               1.000000000              -0.000000007               0.000008000               1.000000000               0.000000005               0.000011166               1.000000000               0.000000001               0.000014844               1.000000000              -0.000000006               0.000019077               1.000000000              -0.000000003               0.000023805               1.000000000               0.000000020               0.000029066               1.000000000               0.000000051               0.000034812               1.000000000               0.000000078               0.000041105               1.000000000               0.000000008               0.000000119               1.000000000              -0.000000000               0.000000011               1.000000000              -0.000000005              -0.000000108               1.000000000              -0.000000001              -0.000000169               1.000000000              -0.000000001              -0.000000022               1.000000000              -0.000000004               0.000000649               1.000000000              -0.000000006               0.000001771               1.000000000               0.000000010               0.000003396               1.000000000               0.000000011               0.000005537               1.000000000              -0.000000004               0.000008194               1.000000000              -0.000000003               0.000011361               1.000000000               0.000000002               0.000015027               1.000000000              -0.000000002               0.000019223               1.000000000              -0.000000017               0.000023927               1.000000000              -0.000000030               0.000029164               1.000000000              -0.000000033               0.000034892               1.000000000              -0.000000025               0.000041143               1.000000000               0.000000003               0.000000149               1.000000000              -0.000000006               0.000000001               1.000000000               0.000000001              -0.000000147               1.000000000               0.000000004              -0.000000161               1.000000000              -0.000000005               0.000000038               1.000000000               0.000000000               0.000000697               1.000000000               0.000000001               0.000001821               1.000000000              -0.000000005               0.000003481               1.000000000               0.000000001               0.000005629               1.000000000               0.000000006               0.000008295               1.000000000               0.000000001               0.000011470               1.000000000              -0.000000001               0.000015143               1.000000000               0.000000005               0.000019323               1.000000000               0.000000012               0.000024002               1.000000000               0.000000012               0.000029206               1.000000000               0.000000005               0.000034911               1.000000000              -0.000000004               0.000041139               1.000000000               0.000000000               0.000000142               1.000000000              -0.000000000               0.000000008               1.000000000              -0.000000000              -0.000000131               1.000000000               0.000000000              -0.000000178               1.000000000              -0.000000000               0.000000018               1.000000000              -0.000000000               0.000000724               1.000000000              -0.000000000               0.000001870               1.000000000              -0.000000000               0.000003523               1.000000000              -0.000000000               0.000005668               1.000000000              -0.000000000               0.000008324               1.000000000               0.000000000               0.000011485               1.000000000               0.000000000               0.000015162               1.000000000               0.000000000               0.000019355               1.000000000              -0.000000000               0.000024042               1.000000000              -0.000000000               0.000029237               1.000000000               0.000000000               0.000034923               1.000000000               0.000000000               0.000041129               1.000000000              -0.000000016              -0.000000000               1.000000000              -0.000000001               0.000000000               1.000000000               0.000000023              -0.000000000               1.000000000               0.000000015              -0.000000000               1.000000000              -0.000000030               0.000000000               1.000000000              -0.000000048               0.000000000               1.000000000               0.000000003              -0.000000000               1.000000000               0.000000068               0.000000000               1.000000000               0.000000077               0.000000000               1.000000000               0.000000020               0.000000000               1.000000000              -0.000000057              -0.000000000               1.000000000              -0.000000105              -0.000000000               1.000000000              -0.000000105              -0.000000000               1.000000000              -0.000000062               0.000000000               1.000000000              -0.000000005               0.000000000               1.000000000               0.000000030               0.000000000               1.000000000               0.000000020               0.000000000               1.000000000               0.000000009              -0.000000001               1.000000000               0.000000005               0.000000008               1.000000000              -0.000000016               0.000000001               1.000000000              -0.000000021              -0.000000005               1.000000000               0.000000019              -0.000000001               1.000000000               0.000000050               0.000000007               1.000000000               0.000000015               0.000000001               1.000000000              -0.000000050              -0.000000011               1.000000000              -0.000000078              -0.000000012               1.000000000              -0.000000051               0.000000007               1.000000000               0.000000008               0.000000035               1.000000000               0.000000067               0.000000050               1.000000000               0.000000102               0.000000044               1.000000000               0.000000100               0.000000006               1.000000000               0.000000062              -0.000000065               1.000000000               0.000000012              -0.000000149               1.000000000              -0.000000018              -0.000000213               1.000000000               0.000000009               0.000000004               1.000000000              -0.000000009              -0.000000002               1.000000000              -0.000000004              -0.000000001               1.000000000               0.000000029               0.000000001               1.000000000               0.000000011              -0.000000003               1.000000000              -0.000000043              -0.000000010               1.000000000              -0.000000047               0.000000006               1.000000000              -0.000000003               0.000000029               1.000000000               0.000000051               0.000000030               1.000000000               0.000000090              -0.000000005               1.000000000               0.000000097              -0.000000061               1.000000000               0.000000063              -0.000000107               1.000000000              -0.000000011              -0.000000141               1.000000000              -0.000000101              -0.000000155               1.000000000              -0.000000161              -0.000000121               1.000000000              -0.000000149              -0.000000019               1.000000000              -0.000000062               0.000000129               1.000000000              -0.000000015               0.000000006               1.000000000               0.000000002              -0.000000006               1.000000000               0.000000024              -0.000000004               1.000000000              -0.000000017              -0.000000001               1.000000000              -0.000000041               0.000000008               1.000000000               0.000000013               0.000000022               1.000000000               0.000000054               0.000000004               1.000000000               0.000000054              -0.000000040               1.000000000               0.000000027              -0.000000072               1.000000000              -0.000000033              -0.000000062               1.000000000              -0.000000110              -0.000000002               1.000000000              -0.000000183               0.000000074               1.000000000              -0.000000210               0.000000157               1.000000000              -0.000000148               0.000000289               1.000000000               0.000000007               0.000000481               1.000000000               0.000000197               0.000000696               1.000000000               0.000000309               0.000000848               1.000000000              -0.000000004              -0.000000003               1.000000000               0.000000010              -0.000000004               1.000000000              -0.000000017               0.000000001               1.000000000              -0.000000015               0.000000010               1.000000000               0.000000043               0.000000010               1.000000000               0.000000021              -0.000000015               1.000000000              -0.000000022              -0.000000047               1.000000000              -0.000000042              -0.000000034               1.000000000              -0.000000070               0.000000039               1.000000000              -0.000000080               0.000000150               1.000000000              -0.000000062               0.000000233               1.000000000               0.000000013               0.000000267               1.000000000               0.000000168               0.000000308               1.000000000               0.000000369               0.000000345               1.000000000               0.000000518               0.000000295               1.000000000               0.000000463              -0.000000013               1.000000000               0.000000038              -0.000000799               1.000000000               0.000000009              -0.000000012               1.000000000              -0.000000005               0.000000001               1.000000000              -0.000000007               0.000000011               1.000000000               0.000000027               0.000000013               1.000000000              -0.000000016              -0.000000021               1.000000000              -0.000000029              -0.000000057               1.000000000               0.000000001              -0.000000005               1.000000000              -0.000000010               0.000000126               1.000000000              -0.000000001               0.000000239               1.000000000               0.000000029               0.000000216               1.000000000               0.000000104               0.000000030               1.000000000               0.000000224              -0.000000242               1.000000000               0.000000325              -0.000000593               1.000000000               0.000000289              -0.000001120               1.000000000              -0.000000050              -0.000002012               1.000000000              -0.000000840              -0.000003517               1.000000000              -0.000002166              -0.000005856               1.000000000               0.000000005              -0.000000015               1.000000000              -0.000000005               0.000000014               1.000000000               0.000000007               0.000000019               1.000000000              -0.000000008              -0.000000031               1.000000000              -0.000000008              -0.000000065               1.000000000               0.000000024               0.000000047               1.000000000              -0.000000016               0.000000201               1.000000000              -0.000000001               0.000000198               1.000000000               0.000000044              -0.000000069               1.000000000               0.000000115              -0.000000625               1.000000000               0.000000185              -0.000001392               1.000000000               0.000000178              -0.000002327               1.000000000              -0.000000018              -0.000003516               1.000000000              -0.000000580              -0.000005141               1.000000000              -0.000001644              -0.000007437               1.000000000              -0.000003268              -0.000010565               1.000000000              -0.000005439              -0.000014611               1.000000000               0.000000001              -0.000000004               1.000000000               0.000000000               0.000000028               1.000000000               0.000000000              -0.000000023               1.000000000              -0.000000001              -0.000000072               1.000000000               0.000000008               0.000000078               1.000000000              -0.000000013               0.000000212               1.000000000               0.000000011               0.000000069               1.000000000               0.000000051              -0.000000433               1.000000000               0.000000077              -0.000001371               1.000000000               0.000000097              -0.000002705               1.000000000               0.000000021              -0.000004357               1.000000000              -0.000000237              -0.000006358               1.000000000              -0.000000879              -0.000008875               1.000000000              -0.000002033              -0.000012107               1.000000000              -0.000003770              -0.000016199               1.000000000              -0.000006070              -0.000021176               1.000000000              -0.000008847              -0.000026988               1.000000000              -0.000000002               0.000000029               1.000000000               0.000000001               0.000000007               1.000000000               0.000000004              -0.000000080               1.000000000              -0.000000002               0.000000050               1.000000000              -0.000000005               0.000000209               1.000000000              -0.000000007               0.000000018               1.000000000              -0.000000004              -0.000000641               1.000000000               0.000000026              -0.000001951               1.000000000               0.000000054              -0.000003828               1.000000000              -0.000000000              -0.000006220               1.000000000              -0.000000223              -0.000009098               1.000000000              -0.000000775              -0.000012609               1.000000000              -0.000001824              -0.000016920               1.000000000              -0.000003431              -0.000022186               1.000000000              -0.000005588              -0.000028438               1.000000000              -0.000008169              -0.000035605               1.000000000              -0.000011053              -0.000043481               1.000000000              -0.000000008               0.000000060               1.000000000               0.000000001              -0.000000031               1.000000000               0.000000008              -0.000000078               1.000000000              -0.000000002               0.000000120               1.000000000              -0.000000006               0.000000186               1.000000000              -0.000000018              -0.000000060               1.000000000              -0.000000007              -0.000000880               1.000000000               0.000000028              -0.000002248               1.000000000               0.000000037              -0.000004210               1.000000000               0.000000007              -0.000006732               1.000000000              -0.000000067              -0.000009756               1.000000000              -0.000000269              -0.000013319               1.000000000              -0.000000700              -0.000017491               1.000000000              -0.000001485              -0.000022425               1.000000000              -0.000002642              -0.000028173               1.000000000              -0.000004145              -0.000034835               1.000000000              -0.000005915              -0.000042368               1.000000000              -0.000000010               0.000000062               1.000000000              -0.000000001              -0.000000065               1.000000000               0.000000008              -0.000000043               1.000000000              -0.000000008               0.000000175               1.000000000               0.000000002               0.000000139               1.000000000              -0.000000001              -0.000000199               1.000000000              -0.000000015              -0.000001084               1.000000000              -0.000000011              -0.000002522               1.000000000               0.000000022              -0.000004550               1.000000000               0.000000024              -0.000007161               1.000000000               0.000000016              -0.000010291               1.000000000              -0.000000024              -0.000013949               1.000000000              -0.000000139              -0.000018129               1.000000000              -0.000000392              -0.000022918               1.000000000              -0.000000859              -0.000028376               1.000000000              -0.000001547              -0.000034569               1.000000000              -0.000002455              -0.000041527               1.000000000              -0.000000003               0.000000028               1.000000000              -0.000000008              -0.000000074               1.000000000               0.000000010               0.000000007               1.000000000              -0.000000006               0.000000183               1.000000000              -0.000000009               0.000000135               1.000000000              -0.000000001              -0.000000338               1.000000000               0.000000002              -0.000001320               1.000000000              -0.000000001              -0.000002815               1.000000000               0.000000006              -0.000004871               1.000000000               0.000000009              -0.000007464               1.000000000               0.000000007              -0.000010659               1.000000000               0.000000018              -0.000014358               1.000000000               0.000000030              -0.000018604               1.000000000               0.000000013              -0.000023359               1.000000000              -0.000000072              -0.000028701               1.000000000              -0.000000264              -0.000034639               1.000000000              -0.000000564              -0.000041240               1.000000000               0.000000007              -0.000000021               1.000000000              -0.000000012              -0.000000065               1.000000000               0.000000002               0.000000067               1.000000000               0.000000003               0.000000174               1.000000000              -0.000000004               0.000000074               1.000000000              -0.000000005              -0.000000442               1.000000000              -0.000000009              -0.000001495               1.000000000              -0.000000007              -0.000003039               1.000000000               0.000000008              -0.000005153               1.000000000               0.000000017              -0.000007766               1.000000000               0.000000012              -0.000010948               1.000000000               0.000000007              -0.000014648               1.000000000               0.000000021              -0.000018902               1.000000000               0.000000055              -0.000023644               1.000000000               0.000000089              -0.000028939               1.000000000               0.000000100              -0.000034747               1.000000000               0.000000060              -0.000041151               1.000000000               0.000000010              -0.000000066               1.000000000              -0.000000005              -0.000000043               1.000000000              -0.000000005               0.000000087               1.000000000               0.000000000               0.000000198               1.000000000              -0.000000004               0.000000031               1.000000000               0.000000003              -0.000000577               1.000000000               0.000000009              -0.000001643               1.000000000              -0.000000003              -0.000003250               1.000000000              -0.000000017              -0.000005374               1.000000000              -0.000000007              -0.000008000               1.000000000               0.000000005              -0.000011166               1.000000000               0.000000001              -0.000014844               1.000000000              -0.000000006              -0.000019077               1.000000000              -0.000000003              -0.000023805               1.000000000               0.000000020              -0.000029066               1.000000000               0.000000051              -0.000034812               1.000000000               0.000000078              -0.000041105               1.000000000               0.000000008              -0.000000119               1.000000000              -0.000000000              -0.000000011               1.000000000              -0.000000005               0.000000108               1.000000000              -0.000000001               0.000000169               1.000000000              -0.000000001               0.000000022               1.000000000              -0.000000004              -0.000000649               1.000000000              -0.000000006              -0.000001771               1.000000000               0.000000010              -0.000003396               1.000000000               0.000000011              -0.000005537               1.000000000              -0.000000004              -0.000008194               1.000000000              -0.000000003              -0.000011361               1.000000000               0.000000002              -0.000015027               1.000000000              -0.000000002              -0.000019223               1.000000000              -0.000000017              -0.000023927               1.000000000              -0.000000030              -0.000029164               1.000000000              -0.000000033              -0.000034892               1.000000000              -0.000000025              -0.000041143               1.000000000               0.000000003              -0.000000149               1.000000000              -0.000000006              -0.000000001               1.000000000               0.000000001               0.000000147               1.000000000               0.000000004               0.000000161               1.000000000              -0.000000005              -0.000000038               1.000000000               0.000000000              -0.000000697               1.000000000               0.000000001              -0.000001821               1.000000000              -0.000000005              -0.000003481               1.000000000               0.000000001              -0.000005629               1.000000000               0.000000006              -0.000008295               1.000000000               0.000000001              -0.000011470               1.000000000              -0.000000001              -0.000015143               1.000000000               0.000000005              -0.000019323               1.000000000               0.000000012              -0.000024002               1.000000000               0.000000012              -0.000029206               1.000000000               0.000000005              -0.000034911               1.000000000              -0.000000004              -0.000041139               1.000000000              -0.000000000              -0.000000142               1.000000000               0.000000000              -0.000000008               1.000000000               0.000000000               0.000000131               1.000000000              -0.000000000               0.000000178               1.000000000               0.000000000              -0.000000018               1.000000000               0.000000000              -0.000000724               1.000000000              -0.000000000              -0.000001870               1.000000000               0.000000000              -0.000003523               1.000000000               0.000000000              -0.000005668               1.000000000              -0.000000000              -0.000008324               1.000000000              -0.000000000              -0.000011485               1.000000000               0.000000000              -0.000015162               1.000000000              -0.000000000              -0.000019355               1.000000000              -0.000000000              -0.000024042               1.000000000              -0.000000000              -0.000029237               1.000000000               0.000000000              -0.000034923               1.000000000               0.000000000              -0.000041129               1.000000000               0.000000016               0.000000000               1.000000000               0.000000001               0.000000000               1.000000000              -0.000000023              -0.000000000               1.000000000              -0.000000015               0.000000000               1.000000000               0.000000030               0.000000000               1.000000000               0.000000048              -0.000000000               1.000000000              -0.000000003               0.000000000               1.000000000              -0.000000068               0.000000000               1.000000000              -0.000000077              -0.000000000               1.000000000              -0.000000020              -0.000000000               1.000000000               0.000000057               0.000000000               1.000000000               0.000000105               0.000000000               1.000000000               0.000000105              -0.000000000               1.000000000               0.000000062              -0.000000000               1.000000000               0.000000005              -0.000000000               1.000000000              -0.000000030              -0.000000000               1.000000000              -0.000000020              -0.000000000               1.000000000              -0.000000009              -0.000000001               1.000000000              -0.000000005               0.000000008               1.000000000               0.000000016               0.000000001               1.000000000               0.000000021              -0.000000005               1.000000000              -0.000000019              -0.000000001               1.000000000              -0.000000050               0.000000007               1.000000000              -0.000000015               0.000000001               1.000000000               0.000000050              -0.000000011               1.000000000               0.000000078              -0.000000012               1.000000000               0.000000051               0.000000007               1.000000000              -0.000000008               0.000000035               1.000000000              -0.000000067               0.000000050               1.000000000              -0.000000102               0.000000044               1.000000000              -0.000000100               0.000000006               1.000000000              -0.000000062              -0.000000065               1.000000000              -0.000000012              -0.000000149               1.000000000               0.000000018              -0.000000213               1.000000000              -0.000000009               0.000000004               1.000000000               0.000000009              -0.000000002               1.000000000               0.000000004              -0.000000001               1.000000000              -0.000000029               0.000000001               1.000000000              -0.000000011              -0.000000003               1.000000000               0.000000043              -0.000000010               1.000000000               0.000000047               0.000000006               1.000000000               0.000000003               0.000000029               1.000000000              -0.000000051               0.000000030               1.000000000              -0.000000090              -0.000000005               1.000000000              -0.000000097              -0.000000061               1.000000000              -0.000000063              -0.000000107               1.000000000               0.000000011              -0.000000141               1.000000000               0.000000101              -0.000000155               1.000000000               0.000000161              -0.000000121               1.000000000               0.000000149              -0.000000019               1.000000000               0.000000062               0.000000129               1.000000000               0.000000015               0.000000006               1.000000000              -0.000000002              -0.000000006               1.000000000              -0.000000024              -0.000000004               1.000000000               0.000000017              -0.000000001               1.000000000               0.000000041               0.000000008               1.000000000              -0.000000013               0.000000022               1.000000000              -0.000000054               0.000000004               1.000000000              -0.000000054              -0.000000040               1.000000000              -0.000000027              -0.000000072               1.000000000               0.000000033              -0.000000062               1.000000000               0.000000110              -0.000000002               1.000000000               0.000000183               0.000000074               1.000000000               0.000000210               0.000000157               1.000000000               0.000000148               0.000000289               1.000000000              -0.000000007               0.000000481               1.000000000              -0.000000197               0.000000696               1.000000000              -0.000000309               0.000000848               1.000000000               0.000000004              -0.000000003               1.000000000              -0.000000010              -0.000000004               1.000000000               0.000000017               0.000000001               1.000000000               0.000000015               0.000000010               1.000000000              -0.000000043               0.000000010               1.000000000              -0.000000021              -0.000000015               1.000000000               0.000000022              -0.000000047               1.000000000               0.000000042              -0.000000034               1.000000000               0.000000070               0.000000039               1.000000000               0.000000080               0.000000150               1.000000000               0.000000062               0.000000233               1.000000000              -0.000000013               0.000000267               1.000000000              -0.000000168               0.000000308               1.000000000              -0.000000369               0.000000345               1.000000000              -0.000000518               0.000000295               1.000000000              -0.000000463              -0.000000013               1.000000000              -0.000000038              -0.000000799               1.000000000              -0.000000009              -0.000000012               1.000000000               0.000000005               0.000000001               1.000000000               0.000000007               0.000000011               1.000000000              -0.000000027               0.000000013               1.000000000               0.000000016              -0.000000021               1.000000000               0.000000029              -0.000000057               1.000000000              -0.000000001              -0.000000005               1.000000000               0.000000010               0.000000126               1.000000000               0.000000001               0.000000239               1.000000000              -0.000000029               0.000000216               1.000000000              -0.000000104               0.000000030               1.000000000              -0.000000224              -0.000000242               1.000000000              -0.000000325              -0.000000593               1.000000000              -0.000000289              -0.000001120               1.000000000               0.000000050              -0.000002012               1.000000000               0.000000840              -0.000003517               1.000000000               0.000002166              -0.000005856               1.000000000              -0.000000005              -0.000000015               1.000000000               0.000000005               0.000000014               1.000000000              -0.000000007               0.000000019               1.000000000               0.000000008              -0.000000031               1.000000000               0.000000008              -0.000000065               1.000000000              -0.000000024               0.000000047               1.000000000               0.000000016               0.000000201               1.000000000               0.000000001               0.000000198               1.000000000              -0.000000044              -0.000000069               1.000000000              -0.000000115              -0.000000625               1.000000000              -0.000000185              -0.000001392               1.000000000              -0.000000178              -0.000002327               1.000000000               0.000000018              -0.000003516               1.000000000               0.000000580              -0.000005141               1.000000000               0.000001644              -0.000007437               1.000000000               0.000003268              -0.000010565               1.000000000               0.000005439              -0.000014611               1.000000000              -0.000000001              -0.000000004               1.000000000              -0.000000000               0.000000028               1.000000000              -0.000000000              -0.000000023               1.000000000               0.000000001              -0.000000072               1.000000000              -0.000000008               0.000000078               1.000000000               0.000000013               0.000000212               1.000000000              -0.000000011               0.000000069               1.000000000              -0.000000051              -0.000000433               1.000000000              -0.000000077              -0.000001371               1.000000000              -0.000000097              -0.000002705               1.000000000              -0.000000021              -0.000004357               1.000000000               0.000000237              -0.000006358               1.000000000               0.000000879              -0.000008875               1.000000000               0.000002033              -0.000012107               1.000000000               0.000003770              -0.000016199               1.000000000               0.000006070              -0.000021176               1.000000000               0.000008847              -0.000026988               1.000000000               0.000000002               0.000000029               1.000000000              -0.000000001               0.000000007               1.000000000              -0.000000004              -0.000000080               1.000000000               0.000000002               0.000000050               1.000000000               0.000000005               0.000000209               1.000000000               0.000000007               0.000000018               1.000000000               0.000000004              -0.000000641               1.000000000              -0.000000026              -0.000001951               1.000000000              -0.000000054              -0.000003828               1.000000000               0.000000000              -0.000006220               1.000000000               0.000000223              -0.000009098               1.000000000               0.000000775              -0.000012609               1.000000000               0.000001824              -0.000016920               1.000000000               0.000003431              -0.000022186               1.000000000               0.000005588              -0.000028438               1.000000000               0.000008169              -0.000035605               1.000000000               0.000011053              -0.000043481               1.000000000               0.000000008               0.000000060               1.000000000              -0.000000001              -0.000000031               1.000000000              -0.000000008              -0.000000078               1.000000000               0.000000002               0.000000120               1.000000000               0.000000006               0.000000186               1.000000000               0.000000018              -0.000000060               1.000000000               0.000000007              -0.000000880               1.000000000              -0.000000028              -0.000002248               1.000000000              -0.000000037              -0.000004210               1.000000000              -0.000000007              -0.000006732               1.000000000               0.000000067              -0.000009756               1.000000000               0.000000269              -0.000013319               1.000000000               0.000000700              -0.000017491               1.000000000               0.000001485              -0.000022425               1.000000000               0.000002642              -0.000028173               1.000000000               0.000004145              -0.000034835               1.000000000               0.000005915              -0.000042368               1.000000000               0.000000010               0.000000062               1.000000000               0.000000001              -0.000000065               1.000000000              -0.000000008              -0.000000043               1.000000000               0.000000008               0.000000175               1.000000000              -0.000000002               0.000000139               1.000000000               0.000000001              -0.000000199               1.000000000               0.000000015              -0.000001084               1.000000000               0.000000011              -0.000002522               1.000000000              -0.000000022              -0.000004550               1.000000000              -0.000000024              -0.000007161               1.000000000              -0.000000016              -0.000010291               1.000000000               0.000000024              -0.000013949               1.000000000               0.000000139              -0.000018129               1.000000000               0.000000392              -0.000022918               1.000000000               0.000000859              -0.000028376               1.000000000               0.000001547              -0.000034569               1.000000000               0.000002455              -0.000041527               1.000000000               0.000000003               0.000000028               1.000000000               0.000000008              -0.000000074               1.000000000              -0.000000010               0.000000007               1.000000000               0.000000006               0.000000183               1.000000000               0.000000009               0.000000135               1.000000000               0.000000001              -0.000000338               1.000000000              -0.000000002              -0.000001320               1.000000000               0.000000001              -0.000002815               1.000000000              -0.000000006              -0.000004871               1.000000000              -0.000000009              -0.000007464               1.000000000              -0.000000007              -0.000010659               1.000000000              -0.000000018              -0.000014358               1.000000000              -0.000000030              -0.000018604               1.000000000              -0.000000013              -0.000023359               1.000000000               0.000000072              -0.000028701               1.000000000               0.000000264              -0.000034639               1.000000000               0.000000564              -0.000041240               1.000000000              -0.000000007              -0.000000021               1.000000000               0.000000012              -0.000000065               1.000000000              -0.000000002               0.000000067               1.000000000              -0.000000003               0.000000174               1.000000000               0.000000004               0.000000074               1.000000000               0.000000005              -0.000000442               1.000000000               0.000000009              -0.000001495               1.000000000               0.000000007              -0.000003039               1.000000000              -0.000000008              -0.000005153               1.000000000              -0.000000017              -0.000007766               1.000000000              -0.000000012              -0.000010948               1.000000000              -0.000000007              -0.000014648               1.000000000              -0.000000021              -0.000018902               1.000000000              -0.000000055              -0.000023644               1.000000000              -0.000000089              -0.000028939               1.000000000              -0.000000100              -0.000034747               1.000000000              -0.000000060              -0.000041151               1.000000000              -0.000000010              -0.000000066               1.000000000               0.000000005              -0.000000043               1.000000000               0.000000005               0.000000087               1.000000000              -0.000000000               0.000000198               1.000000000               0.000000004               0.000000031               1.000000000              -0.000000003              -0.000000577               1.000000000              -0.000000009              -0.000001643               1.000000000               0.000000003              -0.000003250               1.000000000               0.000000017              -0.000005374               1.000000000               0.000000007              -0.000008000               1.000000000              -0.000000005              -0.000011166               1.000000000              -0.000000001              -0.000014844               1.000000000               0.000000006              -0.000019077               1.000000000               0.000000003              -0.000023805               1.000000000              -0.000000020              -0.000029066               1.000000000              -0.000000051              -0.000034812               1.000000000              -0.000000078              -0.000041105               1.000000000              -0.000000008              -0.000000119               1.000000000               0.000000000              -0.000000011               1.000000000               0.000000005               0.000000108               1.000000000               0.000000001               0.000000169               1.000000000               0.000000001               0.000000022               1.000000000               0.000000004              -0.000000649               1.000000000               0.000000006              -0.000001771               1.000000000              -0.000000010              -0.000003396               1.000000000              -0.000000011              -0.000005537               1.000000000               0.000000004              -0.000008194               1.000000000               0.000000003              -0.000011361               1.000000000              -0.000000002              -0.000015027               1.000000000               0.000000002              -0.000019223               1.000000000               0.000000017              -0.000023927               1.000000000               0.000000030              -0.000029164               1.000000000               0.000000033              -0.000034892               1.000000000               0.000000025              -0.000041143               1.000000000              -0.000000003              -0.000000149               1.000000000               0.000000006              -0.000000001               1.000000000              -0.000000001               0.000000147               1.000000000              -0.000000004               0.000000161               1.000000000               0.000000005              -0.000000038               1.000000000              -0.000000000              -0.000000697               1.000000000              -0.000000001              -0.000001821               1.000000000               0.000000005              -0.000003481               1.000000000              -0.000000001              -0.000005629               1.000000000              -0.000000006              -0.000008295               1.000000000              -0.000000001              -0.000011470               1.000000000               0.000000001              -0.000015143               1.000000000              -0.000000005              -0.000019323               1.000000000              -0.000000012              -0.000024002               1.000000000              -0.000000012              -0.000029206               1.000000000              -0.000000005              -0.000034911               1.000000000               0.000000004              -0.000041139               1.000000000              -0.000000000              -0.000000142               1.000000000               0.000000000              -0.000000008               1.000000000               0.000000000               0.000000131               1.000000000              -0.000000000               0.000000178               1.000000000               0.000000000              -0.000000018               1.000000000               0.000000000              -0.000000724               1.000000000              -0.000000000              -0.000001870               1.000000000               0.000000000              -0.000003523               1.000000000               0.000000000              -0.000005668               1.000000000              -0.000000000              -0.000008324               1.000000000              -0.000000000              -0.000011485               1.000000000               0.000000000              -0.000015162               1.000000000              -0.000000000              -0.000019355               1.000000000              -0.000000000              -0.000024042               1.000000000              -0.000000000              -0.000029237               1.000000000               0.000000000              -0.000034923               1.000000000               0.000000000              -0.000041129               1.000000000               0.000000016               0.000000000               1.000000000               0.000000001               0.000000000               1.000000000              -0.000000023              -0.000000000               1.000000000              -0.000000015               0.000000000               1.000000000               0.000000030               0.000000000               1.000000000               0.000000048              -0.000000000               1.000000000              -0.000000003               0.000000000               1.000000000              -0.000000068               0.000000000               1.000000000              -0.000000077              -0.000000000               1.000000000              -0.000000020              -0.000000000               1.000000000               0.000000057               0.000000000               1.000000000               0.000000105               0.000000000               1.000000000               0.000000105              -0.000000000               1.000000000               0.000000062              -0.000000000               1.000000000               0.000000005              -0.000000000               1.000000000              -0.000000030              -0.000000000               1.000000000              -0.000000020              -0.000000000               1.000000000              -0.000000009               0.000000001               1.000000000              -0.000000005              -0.000000008               1.000000000               0.000000016              -0.000000001               1.000000000               0.000000021               0.000000005               1.000000000              -0.000000019               0.000000001               1.000000000              -0.000000050              -0.000000007               1.000000000              -0.000000015              -0.000000001               1.000000000               0.000000050               0.000000011               1.000000000               0.000000078               0.000000012               1.000000000               0.000000051              -0.000000007               1.000000000              -0.000000008              -0.000000035               1.000000000              -0.000000067              -0.000000050               1.000000000              -0.000000102              -0.000000044               1.000000000              -0.000000100              -0.000000006               1.000000000              -0.000000062               0.000000065               1.000000000              -0.000000012               0.000000149               1.000000000               0.000000018               0.000000213               1.000000000              -0.000000009              -0.000000004               1.000000000               0.000000009               0.000000002               1.000000000               0.000000004               0.000000001               1.000000000              -0.000000029              -0.000000001               1.000000000              -0.000000011               0.000000003               1.000000000               0.000000043               0.000000010               1.000000000               0.000000047              -0.000000006               1.000000000               0.000000003              -0.000000029               1.000000000              -0.000000051              -0.000000030               1.000000000              -0.000000090               0.000000005               1.000000000              -0.000000097               0.000000061               1.000000000              -0.000000063               0.000000107               1.000000000               0.000000011               0.000000141               1.000000000               0.000000101               0.000000155               1.000000000               0.000000161               0.000000121               1.000000000               0.000000149               0.000000019               1.000000000               0.000000062              -0.000000129               1.000000000               0.000000015              -0.000000006               1.000000000              -0.000000002               0.000000006               1.000000000              -0.000000024               0.000000004               1.000000000               0.000000017               0.000000001               1.000000000               0.000000041              -0.000000008               1.000000000              -0.000000013              -0.000000022               1.000000000              -0.000000054              -0.000000004               1.000000000              -0.000000054               0.000000040               1.000000000              -0.000000027               0.000000072               1.000000000               0.000000033               0.000000062               1.000000000               0.000000110               0.000000002               1.000000000               0.000000183              -0.000000074               1.000000000               0.000000210              -0.000000157               1.000000000               0.000000148              -0.000000289               1.000000000              -0.000000007              -0.000000481               1.000000000              -0.000000197              -0.000000696               1.000000000              -0.000000309              -0.000000848               1.000000000               0.000000004               0.000000003               1.000000000              -0.000000010               0.000000004               1.000000000               0.000000017              -0.000000001               1.000000000               0.000000015              -0.000000010               1.000000000              -0.000000043              -0.000000010               1.000000000              -0.000000021               0.000000015               1.000000000               0.000000022               0.000000047               1.000000000               0.000000042               0.000000034               1.000000000               0.000000070              -0.000000039               1.000000000               0.000000080              -0.000000150               1.000000000               0.000000062              -0.000000233               1.000000000              -0.000000013              -0.000000267               1.000000000              -0.000000168              -0.000000308               1.000000000              -0.000000369              -0.000000345               1.000000000              -0.000000518              -0.000000295               1.000000000              -0.000000463               0.000000013               1.000000000              -0.000000038               0.000000799               1.000000000              -0.000000009               0.000000012               1.000000000               0.000000005              -0.000000001               1.000000000               0.000000007              -0.000000011               1.000000000              -0.000000027              -0.000000013               1.000000000               0.000000016               0.000000021               1.000000000               0.000000029               0.000000057               1.000000000              -0.000000001               0.000000005               1.000000000               0.000000010              -0.000000126               1.000000000               0.000000001              -0.000000239               1.000000000              -0.000000029              -0.000000216               1.000000000              -0.000000104              -0.000000030               1.000000000              -0.000000224               0.000000242               1.000000000              -0.000000325               0.000000593               1.000000000              -0.000000289               0.000001120               1.000000000               0.000000050               0.000002012               1.000000000               0.000000840               0.000003517               1.000000000               0.000002166               0.000005856               1.000000000              -0.000000005               0.000000015               1.000000000               0.000000005              -0.000000014               1.000000000              -0.000000007              -0.000000019               1.000000000               0.000000008               0.000000031               1.000000000               0.000000008               0.000000065               1.000000000              -0.000000024              -0.000000047               1.000000000               0.000000016              -0.000000201               1.000000000               0.000000001              -0.000000198               1.000000000              -0.000000044               0.000000069               1.000000000              -0.000000115               0.000000625               1.000000000              -0.000000185               0.000001392               1.000000000              -0.000000178               0.000002327               1.000000000               0.000000018               0.000003516               1.000000000               0.000000580               0.000005141               1.000000000               0.000001644               0.000007437               1.000000000               0.000003268               0.000010565               1.000000000               0.000005439               0.000014611               1.000000000              -0.000000001               0.000000004               1.000000000              -0.000000000              -0.000000028               1.000000000              -0.000000000               0.000000023               1.000000000               0.000000001               0.000000072               1.000000000              -0.000000008              -0.000000078               1.000000000               0.000000013              -0.000000212               1.000000000              -0.000000011              -0.000000069               1.000000000              -0.000000051               0.000000433               1.000000000              -0.000000077               0.000001371               1.000000000              -0.000000097               0.000002705               1.000000000              -0.000000021               0.000004357               1.000000000               0.000000237               0.000006358               1.000000000               0.000000879               0.000008875               1.000000000               0.000002033               0.000012107               1.000000000               0.000003770               0.000016199               1.000000000               0.000006070               0.000021176               1.000000000               0.000008847               0.000026988               1.000000000               0.000000002              -0.000000029               1.000000000              -0.000000001              -0.000000007               1.000000000              -0.000000004               0.000000080               1.000000000               0.000000002              -0.000000050               1.000000000               0.000000005              -0.000000209               1.000000000               0.000000007              -0.000000018               1.000000000               0.000000004               0.000000641               1.000000000              -0.000000026               0.000001951               1.000000000              -0.000000054               0.000003828               1.000000000               0.000000000               0.000006220               1.000000000               0.000000223               0.000009098               1.000000000               0.000000775               0.000012609               1.000000000               0.000001824               0.000016920               1.000000000               0.000003431               0.000022186               1.000000000               0.000005588               0.000028438               1.000000000               0.000008169               0.000035605               1.000000000               0.000011053               0.000043481               1.000000000               0.000000008              -0.000000060               1.000000000              -0.000000001               0.000000031               1.000000000              -0.000000008               0.000000078               1.000000000               0.000000002              -0.000000120               1.000000000               0.000000006              -0.000000186               1.000000000               0.000000018               0.000000060               1.000000000               0.000000007               0.000000880               1.000000000              -0.000000028               0.000002248               1.000000000              -0.000000037               0.000004210               1.000000000              -0.000000007               0.000006732               1.000000000               0.000000067               0.000009756               1.000000000               0.000000269               0.000013319               1.000000000               0.000000700               0.000017491               1.000000000               0.000001485               0.000022425               1.000000000               0.000002642               0.000028173               1.000000000               0.000004145               0.000034835               1.000000000               0.000005915               0.000042368               1.000000000               0.000000010              -0.000000062               1.000000000               0.000000001               0.000000065               1.000000000              -0.000000008               0.000000043               1.000000000               0.000000008              -0.000000175               1.000000000              -0.000000002              -0.000000139               1.000000000               0.000000001               0.000000199               1.000000000               0.000000015               0.000001084               1.000000000               0.000000011               0.000002522               1.000000000              -0.000000022               0.000004550               1.000000000              -0.000000024               0.000007161               1.000000000              -0.000000016               0.000010291               1.000000000               0.000000024               0.000013949               1.000000000               0.000000139               0.000018129               1.000000000               0.000000392               0.000022918               1.000000000               0.000000859               0.000028376               1.000000000               0.000001547               0.000034569               1.000000000               0.000002455               0.000041527               1.000000000               0.000000003              -0.000000028               1.000000000               0.000000008               0.000000074               1.000000000              -0.000000010              -0.000000007               1.000000000               0.000000006              -0.000000183               1.000000000               0.000000009              -0.000000135               1.000000000               0.000000001               0.000000338               1.000000000              -0.000000002               0.000001320               1.000000000               0.000000001               0.000002815               1.000000000              -0.000000006               0.000004871               1.000000000              -0.000000009               0.000007464               1.000000000              -0.000000007               0.000010659               1.000000000              -0.000000018               0.000014358               1.000000000              -0.000000030               0.000018604               1.000000000              -0.000000013               0.000023359               1.000000000               0.000000072               0.000028701               1.000000000               0.000000264               0.000034639               1.000000000               0.000000564               0.000041240               1.000000000              -0.000000007               0.000000021               1.000000000               0.000000012               0.000000065               1.000000000              -0.000000002              -0.000000067               1.000000000              -0.000000003              -0.000000174               1.000000000               0.000000004              -0.000000074               1.000000000               0.000000005               0.000000442               1.000000000               0.000000009               0.000001495               1.000000000               0.000000007               0.000003039               1.000000000              -0.000000008               0.000005153               1.000000000              -0.000000017               0.000007766               1.000000000              -0.000000012               0.000010948               1.000000000              -0.000000007               0.000014648               1.000000000              -0.000000021               0.000018902               1.000000000              -0.000000055               0.000023644               1.000000000              -0.000000089               0.000028939               1.000000000              -0.000000100               0.000034747               1.000000000              -0.000000060               0.000041151               1.000000000              -0.000000010               0.000000066               1.000000000               0.000000005               0.000000043               1.000000000               0.000000005              -0.000000087               1.000000000              -0.000000000              -0.000000198               1.000000000               0.000000004              -0.000000031               1.000000000              -0.000000003               0.000000577               1.000000000              -0.000000009               0.000001643               1.000000000               0.000000003               0.000003250               1.000000000               0.000000017               0.000005374               1.000000000               0.000000007               0.000008000               1.000000000              -0.000000005               0.000011166               1.000000000              -0.000000001               0.000014844               1.000000000               0.000000006               0.000019077               1.000000000               0.000000003               0.000023805               1.000000000              -0.000000020               0.000029066               1.000000000              -0.000000051               0.000034812               1.000000000              -0.000000078               0.000041105               1.000000000              -0.000000008               0.000000119               1.000000000               0.000000000               0.000000011               1.000000000               0.000000005              -0.000000108               1.000000000               0.000000001              -0.000000169               1.000000000               0.000000001              -0.000000022               1.000000000               0.000000004               0.000000649               1.000000000               0.000000006               0.000001771               1.000000000              -0.000000010               0.000003396               1.000000000              -0.000000011               0.000005537               1.000000000               0.000000004               0.000008194               1.000000000               0.000000003               0.000011361               1.000000000              -0.000000002               0.000015027               1.000000000               0.000000002               0.000019223               1.000000000               0.000000017               0.000023927               1.000000000               0.000000030               0.000029164               1.000000000               0.000000033               0.000034892               1.000000000               0.000000025               0.000041143               1.000000000              -0.000000003               0.000000149               1.000000000               0.000000006               0.000000001               1.000000000              -0.000000001              -0.000000147               1.000000000              -0.000000004              -0.000000161               1.000000000               0.000000005               0.000000038               1.000000000              -0.000000000               0.000000697               1.000000000              -0.000000001               0.000001821               1.000000000               0.000000005               0.000003481               1.000000000              -0.000000001               0.000005629               1.000000000              -0.000000006               0.000008295               1.000000000              -0.000000001               0.000011470               1.000000000               0.000000001               0.000015143               1.000000000              -0.000000005               0.000019323               1.000000000              -0.000000012               0.000024002               1.000000000              -0.000000012               0.000029206               1.000000000              -0.000000005               0.000034911               1.000000000               0.000000004               0.000041139               1.000000000               0.000000000               0.000000142               1.000000000              -0.000000000               0.000000008               1.000000000              -0.000000000              -0.000000131               1.000000000               0.000000000              -0.000000178               1.000000000              -0.000000000               0.000000018               1.000000000              -0.000000000               0.000000724               1.000000000              -0.000000000               0.000001870               1.000000000              -0.000000000               0.000003523               1.000000000              -0.000000000               0.000005668               1.000000000              -0.000000000               0.000008324               1.000000000               0.000000000               0.000011485               1.000000000               0.000000000               0.000015162               1.000000000               0.000000000               0.000019355               1.000000000              -0.000000000               0.000024042               1.000000000              -0.000000000               0.000029237               1.000000000               0.000000000               0.000034923               1.000000000               0.000000000               0.000041129               1.000000000 </DataArray>
<DataArray type="Float64"                                    Name="stress"                                                      NumberOfComponents="10" format="ascii">
              0.000000799              -0.000000082              -0.000000000               0.000000310              -0.000000131               0.000000179               0.000000000               0.000000000               0.000000000               0.000000000               0.000000842              -0.000000550               0.000000000               0.000000385              -0.000000311               0.000000073               0.000000000               0.000000000               0.000000000               0.000000000               0.000000259              -0.000000046              -0.000000000               0.000000103              -0.000000050               0.000000053               0.000000000               0.000000000               0.000000000               0.000000000              -0.000001291              -0.000000017              -0.000000000              -0.000000482               0.000000155              -0.000000327               0.000000000               0.000000000               0.000000000               0.000000000              -0.000001386              -0.000000436              -0.000000000              -0.000000465               0.000000010              -0.000000456               0.000000000               0.000000000               0.000000000               0.000000000               0.000000866              -0.000000141              -0.000000000               0.000000342              -0.000000161               0.000000181               0.000000000               0.000000000               0.000000000               0.000000000               0.000002887               0.000000940              -0.000000000               0.000000965              -0.000000008               0.000000957               0.000000000               0.000000000               0.000000000               0.000000000               0.000001835               0.000001296              -0.000000000               0.000000526               0.000000257               0.000000783               0.000000000               0.000000000               0.000000000               0.000000000              -0.000001474               0.000000125              -0.000000000              -0.000000568               0.000000231              -0.000000337               0.000000000               0.000000000               0.000000000               0.000000000              -0.000003953              -0.000001862              -0.000000000              -0.000001250              -0.000000204              -0.000001454               0.000000000               0.000000000               0.000000000               0.000000000              -0.000003785              -0.000003240              -0.000000000              -0.000001014              -0.000000742              -0.000001756               0.000000000               0.000000000               0.000000000               0.000000000              -0.000001480              -0.000003132              -0.000000000              -0.000000164              -0.000000989              -0.000001153               0.000000000               0.000000000               0.000000000               0.000000000               0.000001321              -0.000001613              -0.000000000               0.000000697              -0.000000770              -0.000000073               0.000000000               0.000000000               0.000000000               0.000000000               0.000003101               0.000001022               0.000000000               0.000001035              -0.000000004               0.000001031               0.000000000               0.000000000               0.000000000               0.000000000               0.000003122               0.000004234               0.000000000               0.000000641               0.000001198               0.000001839               0.000000000               0.000000000               0.000000000               0.000000000               0.000001787               0.000007135              -0.000000000              -0.000000222               0.000002452               0.000002230               0.000000000               0.000000000               0.000000000               0.000000000               0.000001007               0.000008641              -0.000000000              -0.000000703               0.000003114               0.000002412               0.000000000               0.000000000               0.000000000               0.000000000              -0.000000560              -0.000000428               0.000000267              -0.000000156              -0.000000091              -0.000000247               0.000000000               0.000000000               0.000000000               0.000000000              -0.000000681              -0.000000166              -0.000000205              -0.000000235               0.000000023              -0.000000212               0.000000000               0.000000000               0.000000000               0.000000000              -0.000000450              -0.000000052              -0.000000284              -0.000000162               0.000000037              -0.000000125               0.000000000               0.000000000               0.000000000               0.000000000               0.000000887               0.000000304               0.000000316               0.000000295               0.000000003               0.000000298               0.000000000               0.000000000               0.000000000               0.000000000               0.000001577               0.000000712               0.000000469               0.000000502               0.000000070               0.000000572               0.000000000               0.000000000               0.000000000               0.000000000              -0.000000083               0.000000261              -0.000000070              -0.000000064               0.000000108               0.000000045               0.000000000               0.000000000               0.000000000               0.000000000              -0.000002347              -0.000001079              -0.000000597              -0.000000745              -0.000000111              -0.000000856               0.000000000               0.000000000               0.000000000               0.000000000              -0.000002405              -0.000001766              -0.000000696              -0.000000681              -0.000000362              -0.000001043               0.000000000               0.000000000               0.000000000               0.000000000              -0.000000215              -0.000000911              -0.000000295               0.000000033              -0.000000315              -0.000000281               0.000000000               0.000000000               0.000000000               0.000000000               0.000002255               0.000001022               0.000000467               0.000000718               0.000000101               0.000000819               0.000000000               0.000000000               0.000000000               0.000000000               0.000003466               0.000002949               0.000001222               0.000000931               0.000000672               0.000001604               0.000000000               0.000000000               0.000000000               0.000000000               0.000003074               0.000004011               0.000001553               0.000000651               0.000001120               0.000001771               0.000000000               0.000000000               0.000000000               0.000000000               0.000001520               0.000004190               0.000001380               0.000000046               0.000001381               0.000001427               0.000000000               0.000000000               0.000000000               0.000000000              -0.000000354               0.000003588               0.000000916              -0.000000581               0.000001390               0.000000809               0.000000000               0.000000000               0.000000000               0.000000000              -0.000001521               0.000002100               0.000000374              -0.000000833               0.000000978               0.000000145               0.000000000               0.000000000               0.000000000               0.000000000              -0.000001309              -0.000000183              -0.000000027              -0.000000468               0.000000095              -0.000000373               0.000000000               0.000000000               0.000000000               0.000000000              -0.000001150              -0.000002119               0.000000099              -0.000000166              -0.000000651              -0.000000817               0.000000000               0.000000000               0.000000000               0.000000000              -0.000000628              -0.000000127              -0.000000448              -0.000000220               0.000000031              -0.000000189               0.000000000               0.000000000               0.000000000               0.000000000              -0.000000144               0.000000697               0.000000050              -0.000000141               0.000000279               0.000000138               0.000000000               0.000000000               0.000000000               0.000000000               0.000000725               0.000000579               0.000000686               0.000000200               0.000000126               0.000000326               0.000000000               0.000000000               0.000000000               0.000000000               0.000000384              -0.000000063              -0.000000002               0.000000152              -0.000000071               0.000000080               0.000000000               0.000000000               0.000000000               0.000000000              -0.000001440              -0.000000958              -0.000000842              -0.000000420              -0.000000179              -0.000000600               0.000000000               0.000000000               0.000000000               0.000000000              -0.000001571              -0.000001102              -0.000000558              -0.000000451              -0.000000217              -0.000000668               0.000000000               0.000000000               0.000000000               0.000000000               0.000000364               0.000000128               0.000000328               0.000000121               0.000000002               0.000000123               0.000000000               0.000000000               0.000000000               0.000000000               0.000002270               0.000001893               0.000001184               0.000000614               0.000000426               0.000001041               0.000000000               0.000000000               0.000000000               0.000000000               0.000003098               0.000003061               0.000001450               0.000000779               0.000000761               0.000001540               0.000000000               0.000000000               0.000000000               0.000000000               0.000002509               0.000002908               0.000000781               0.000000577               0.000000777               0.000001354               0.000000000               0.000000000               0.000000000               0.000000000               0.000000346               0.000001102              -0.000000554              -0.000000008               0.000000370               0.000000362               0.000000000               0.000000000               0.000000000               0.000000000              -0.000002699              -0.000001714              -0.000001774              -0.000000798              -0.000000305              -0.000001103               0.000000000               0.000000000               0.000000000               0.000000000              -0.000005221              -0.000005139              -0.000002302              -0.000001316              -0.000001274              -0.000002590               0.000000000               0.000000000               0.000000000               0.000000000              -0.000005843              -0.000009493              -0.000002204              -0.000001005              -0.000002830              -0.000003834               0.000000000               0.000000000               0.000000000               0.000000000              -0.000004282              -0.000014578              -0.000001722               0.000000216              -0.000004931              -0.000004715               0.000000000               0.000000000               0.000000000               0.000000000              -0.000001954              -0.000019361              -0.000000875               0.000001687              -0.000007016              -0.000005329               0.000000000               0.000000000               0.000000000               0.000000000              -0.000000994              -0.000021805              -0.000000294               0.000002353              -0.000008053              -0.000005700               0.000000000               0.000000000               0.000000000               0.000000000               0.000001471               0.000001233               0.000000326               0.000000398               0.000000278               0.000000676               0.000000000               0.000000000               0.000000000               0.000000000               0.000001115               0.000000647               0.000000432               0.000000337               0.000000103               0.000000440               0.000000000               0.000000000               0.000000000               0.000000000              -0.000000309              -0.000000352              -0.000000443              -0.000000072              -0.000000094              -0.000000165               0.000000000               0.000000000               0.000000000               0.000000000              -0.000001523              -0.000001098              -0.000000754              -0.000000434              -0.000000221              -0.000000655               0.000000000               0.000000000               0.000000000               0.000000000              -0.000000071              -0.000000569               0.000000389               0.000000045              -0.000000205              -0.000000160               0.000000000               0.000000000               0.000000000               0.000000000               0.000001855               0.000001146               0.000001112               0.000000552               0.000000198               0.000000750               0.000000000               0.000000000               0.000000000               0.000000000               0.000002110               0.000002792               0.000000850               0.000000442               0.000000783               0.000001225               0.000000000               0.000000000               0.000000000               0.000000000               0.000001069               0.000002311              -0.000000177               0.000000112               0.000000733               0.000000845               0.000000000               0.000000000               0.000000000               0.000000000              -0.000001483              -0.000001308              -0.000001572              -0.000000393              -0.000000305              -0.000000698               0.000000000               0.000000000               0.000000000               0.000000000              -0.000004978              -0.000006817              -0.000002496              -0.000001015              -0.000001934              -0.000002949               0.000000000               0.000000000               0.000000000               0.000000000              -0.000007385              -0.000011200              -0.000002271              -0.000001369              -0.000003277              -0.000004646               0.000000000               0.000000000               0.000000000               0.000000000              -0.000007124              -0.000013045              -0.000000981              -0.000001041              -0.000004001              -0.000005042               0.000000000               0.000000000               0.000000000               0.000000000              -0.000003831              -0.000013203               0.000000443               0.000000214              -0.000004472              -0.000004259               0.000000000               0.000000000               0.000000000               0.000000000               0.000001172              -0.000011654               0.000001311               0.000001896              -0.000004517              -0.000002620               0.000000000               0.000000000               0.000000000               0.000000000               0.000004913              -0.000006942               0.000001607               0.000002710              -0.000003217              -0.000000507               0.000000000               0.000000000               0.000000000               0.000000000               0.000004168               0.000003297               0.000001533               0.000001151               0.000000715               0.000001866               0.000000000               0.000000000               0.000000000               0.000000000               0.000005357               0.000015309              -0.000000323               0.000000095               0.000005071               0.000005166               0.000000000               0.000000000               0.000000000               0.000000000               0.000000672               0.000001079               0.000000415               0.000000117               0.000000320               0.000000438               0.000000000               0.000000000               0.000000000               0.000000000              -0.000000216              -0.000000446              -0.000000235              -0.000000025              -0.000000140              -0.000000165               0.000000000               0.000000000               0.000000000               0.000000000              -0.000000698              -0.000001266              -0.000000470              -0.000000103              -0.000000388              -0.000000491               0.000000000               0.000000000               0.000000000               0.000000000               0.000000512              -0.000000258               0.000000736               0.000000224              -0.000000161               0.000000063               0.000000000               0.000000000               0.000000000               0.000000000               0.000001470               0.000002229               0.000000543               0.000000272               0.000000652               0.000000925               0.000000000               0.000000000               0.000000000               0.000000000               0.000000611               0.000003096              -0.000000435              -0.000000158               0.000001085               0.000000927               0.000000000               0.000000000               0.000000000               0.000000000              -0.000000975              -0.000000751              -0.000000928              -0.000000272              -0.000000160              -0.000000432               0.000000000               0.000000000               0.000000000               0.000000000              -0.000003698              -0.000007704              -0.000001296              -0.000000424              -0.000002427              -0.000002850               0.000000000               0.000000000               0.000000000               0.000000000              -0.000005764              -0.000012155              -0.000001064              -0.000000642              -0.000003838              -0.000004480               0.000000000               0.000000000               0.000000000               0.000000000              -0.000004628              -0.000009606               0.000000169              -0.000000535              -0.000003024              -0.000003559               0.000000000               0.000000000               0.000000000               0.000000000               0.000000133              -0.000000372               0.000001931               0.000000097              -0.000000156              -0.000000060               0.000000000               0.000000000               0.000000000               0.000000000               0.000007886               0.000012059               0.000002686               0.000001450               0.000003536               0.000004986               0.000000000               0.000000000               0.000000000               0.000000000               0.000016414               0.000026490               0.000001692               0.000002844               0.000007882               0.000010726               0.000000000               0.000000000               0.000000000               0.000000000               0.000022183               0.000044633              -0.000000368               0.000002739               0.000013964               0.000016704               0.000000000               0.000000000               0.000000000               0.000000000               0.000021870               0.000069177              -0.000002140              -0.000000446               0.000023208               0.000022762               0.000000000               0.000000000               0.000000000               0.000000000               0.000013447               0.000102387              -0.000001927              -0.000007756               0.000036714               0.000028958               0.000000000               0.000000000               0.000000000               0.000000000               0.000013929               0.000132460              -0.000005040              -0.000011334               0.000047931               0.000036597               0.000000000               0.000000000               0.000000000               0.000000000              -0.000001001              -0.000000704              -0.000000573              -0.000000287              -0.000000139              -0.000000426               0.000000000               0.000000000               0.000000000               0.000000000              -0.000000906              -0.000001626              -0.000000321              -0.000000136              -0.000000497              -0.000000633               0.000000000               0.000000000               0.000000000               0.000000000               0.000000112              -0.000000499               0.000000508               0.000000104              -0.000000201              -0.000000097               0.000000000               0.000000000               0.000000000               0.000000000               0.000000982               0.000002770               0.000000111               0.000000022               0.000000916               0.000000938               0.000000000               0.000000000               0.000000000               0.000000000               0.000000562               0.000002814              -0.000000533              -0.000000141               0.000000985               0.000000844               0.000000000               0.000000000               0.000000000               0.000000000              -0.000001305              -0.000003941              -0.000000145               0.000000003              -0.000001315              -0.000001312               0.000000000               0.000000000               0.000000000               0.000000000              -0.000004016              -0.000010926              -0.000000456              -0.000000140              -0.000003595              -0.000003735               0.000000000               0.000000000               0.000000000               0.000000000              -0.000003876              -0.000008530              -0.000000369              -0.000000387              -0.000002714              -0.000003102               0.000000000               0.000000000               0.000000000               0.000000000               0.000001703               0.000006462               0.000000882              -0.000000169               0.000002210               0.000002041               0.000000000               0.000000000               0.000000000               0.000000000               0.000011448               0.000030809               0.000002276               0.000000442               0.000010122               0.000010564               0.000000000               0.000000000               0.000000000               0.000000000               0.000023764               0.000058666               0.000001628               0.000001578               0.000019029               0.000020608               0.000000000               0.000000000               0.000000000               0.000000000               0.000035486               0.000087361              -0.000001940               0.000002387               0.000028324               0.000030712               0.000000000               0.000000000               0.000000000               0.000000000               0.000043112               0.000118809              -0.000007104               0.000001316               0.000039164               0.000040480               0.000000000               0.000000000               0.000000000               0.000000000               0.000043544               0.000155439              -0.000011654              -0.000003101               0.000052846               0.000049745               0.000000000               0.000000000               0.000000000               0.000000000               0.000035441               0.000198428              -0.000013046              -0.000011513               0.000069980               0.000058467               0.000000000               0.000000000               0.000000000               0.000000000               0.000019823               0.000246233              -0.000009122              -0.000023346               0.000089859               0.000066513               0.000000000               0.000000000               0.000000000               0.000000000               0.000018076               0.000282803              -0.000010067              -0.000028572               0.000103791               0.000075219               0.000000000               0.000000000               0.000000000               0.000000000              -0.000001413              -0.000002773              -0.000000664              -0.000000183              -0.000000863              -0.000001047               0.000000000               0.000000000               0.000000000               0.000000000              -0.000000734              -0.000001638               0.000000026              -0.000000070              -0.000000523              -0.000000593               0.000000000               0.000000000               0.000000000               0.000000000               0.000001094               0.000003017               0.000000185               0.000000033               0.000000995               0.000001028               0.000000000               0.000000000               0.000000000               0.000000000               0.000001176               0.000003395              -0.000000285               0.000000017               0.000001126               0.000001143               0.000000000               0.000000000               0.000000000               0.000000000              -0.000002131              -0.000006299               0.000000144              -0.000000012              -0.000002096              -0.000002108               0.000000000               0.000000000               0.000000000               0.000000000              -0.000004669              -0.000012139              -0.000000331              -0.000000234              -0.000003968              -0.000004202               0.000000000               0.000000000               0.000000000               0.000000000              -0.000000827              -0.000000374              -0.000000285              -0.000000263              -0.000000037              -0.000000300               0.000000000               0.000000000               0.000000000               0.000000000               0.000010629               0.000028993               0.000001059               0.000000362               0.000009544               0.000009905               0.000000000               0.000000000               0.000000000               0.000000000               0.000025920               0.000069374               0.000001885               0.000001048               0.000022775               0.000023823               0.000000000               0.000000000               0.000000000               0.000000000               0.000041959               0.000112896               0.000000550               0.000001622               0.000037091               0.000038713               0.000000000               0.000000000               0.000000000               0.000000000               0.000055823               0.000155567              -0.000004280               0.000001488               0.000051359               0.000052847               0.000000000               0.000000000               0.000000000               0.000000000               0.000064762               0.000199368              -0.000011249              -0.000000635               0.000066667               0.000066032               0.000000000               0.000000000               0.000000000               0.000000000               0.000065902               0.000247111              -0.000017874              -0.000006176               0.000084428               0.000078252               0.000000000               0.000000000               0.000000000               0.000000000               0.000057818               0.000299334              -0.000021286              -0.000015735               0.000105022               0.000089287               0.000000000               0.000000000               0.000000000               0.000000000               0.000042373               0.000353816              -0.000019688              -0.000028337               0.000127383               0.000099046               0.000000000               0.000000000               0.000000000               0.000000000               0.000022374               0.000405784              -0.000012435              -0.000042333               0.000149371               0.000107038               0.000000000               0.000000000               0.000000000               0.000000000               0.000017834               0.000440294              -0.000011105              -0.000048349               0.000162879               0.000114531               0.000000000               0.000000000               0.000000000               0.000000000              -0.000001104              -0.000003392               0.000000029               0.000000010              -0.000001134              -0.000001124               0.000000000               0.000000000               0.000000000               0.000000000               0.000000416               0.000001561               0.000000140              -0.000000039               0.000000533               0.000000494               0.000000000               0.000000000               0.000000000               0.000000000               0.000001466               0.000004713              -0.000000094              -0.000000039               0.000001584               0.000001545               0.000000000               0.000000000               0.000000000               0.000000000              -0.000002218              -0.000006466              -0.000000083              -0.000000023              -0.000002148              -0.000002171               0.000000000               0.000000000               0.000000000               0.000000000              -0.000004247              -0.000012576              -0.000000298              -0.000000020              -0.000004185              -0.000004206               0.000000000               0.000000000               0.000000000               0.000000000               0.000003007               0.000006942              -0.000000232               0.000000260               0.000002227               0.000002487               0.000000000               0.000000000               0.000000000               0.000000000               0.000017904               0.000048010               0.000000856               0.000000713               0.000015765               0.000016478               0.000000000               0.000000000               0.000000000               0.000000000               0.000036371               0.000101681               0.000001285               0.000000929               0.000033584               0.000034513               0.000000000               0.000000000               0.000000000               0.000000000               0.000055385               0.000158583               0.000000495               0.000000947               0.000052545               0.000053492               0.000000000               0.000000000               0.000000000               0.000000000               0.000072416               0.000214341              -0.000003504               0.000000363               0.000071325               0.000071689               0.000000000               0.000000000               0.000000000               0.000000000               0.000084392               0.000269967              -0.000010453              -0.000002099               0.000090688               0.000088589               0.000000000               0.000000000               0.000000000               0.000000000               0.000087846               0.000328794              -0.000017842              -0.000008157               0.000112316               0.000104159               0.000000000               0.000000000               0.000000000               0.000000000               0.000081098               0.000391372              -0.000022823              -0.000018510               0.000136626               0.000118116               0.000000000               0.000000000               0.000000000               0.000000000               0.000066150               0.000455782              -0.000023335              -0.000032166               0.000162648               0.000130482               0.000000000               0.000000000               0.000000000               0.000000000               0.000045799               0.000517435              -0.000019192              -0.000047505               0.000188311               0.000140807               0.000000000               0.000000000               0.000000000               0.000000000               0.000023501               0.000572013              -0.000011190              -0.000062689               0.000211565               0.000148877               0.000000000               0.000000000               0.000000000               0.000000000               0.000015748               0.000605264              -0.000009161              -0.000069752               0.000225003               0.000155251               0.000000000               0.000000000               0.000000000               0.000000000               0.000000579               0.000000059               0.000000973               0.000000210              -0.000000050               0.000000160               0.000000000               0.000000000               0.000000000               0.000000000               0.000002084               0.000005845               0.000000187               0.000000051               0.000001931               0.000001982               0.000000000               0.000000000               0.000000000               0.000000000              -0.000000725              -0.000001069              -0.000000495              -0.000000138              -0.000000310              -0.000000449               0.000000000               0.000000000               0.000000000               0.000000000              -0.000005268              -0.000015651              -0.000000046              -0.000000019              -0.000005211              -0.000005230               0.000000000               0.000000000               0.000000000               0.000000000              -0.000000139              -0.000001225               0.000000386               0.000000101              -0.000000442              -0.000000341               0.000000000               0.000000000               0.000000000               0.000000000               0.000014113               0.000041162               0.000001447               0.000000147               0.000013671               0.000013819               0.000000000               0.000000000               0.000000000               0.000000000               0.000035698               0.000101854               0.000002641               0.000000655               0.000033733               0.000034388               0.000000000               0.000000000               0.000000000               0.000000000               0.000058723               0.000168804               0.000003345               0.000000921               0.000055961               0.000056881               0.000000000               0.000000000               0.000000000               0.000000000               0.000079437               0.000234364               0.000001575               0.000000493               0.000077956               0.000078449               0.000000000               0.000000000               0.000000000               0.000000000               0.000096084               0.000297675              -0.000003015              -0.000001178               0.000099617               0.000098439               0.000000000               0.000000000               0.000000000               0.000000000               0.000106029               0.000362330              -0.000009076              -0.000005530               0.000122619               0.000117088               0.000000000               0.000000000               0.000000000               0.000000000               0.000107189               0.000431776              -0.000014909              -0.000013776               0.000148516               0.000134740               0.000000000               0.000000000               0.000000000               0.000000000               0.000099310               0.000505136              -0.000018089              -0.000025901               0.000177011               0.000151110               0.000000000               0.000000000               0.000000000               0.000000000               0.000085509               0.000579349              -0.000017534              -0.000040353               0.000206565               0.000166213               0.000000000               0.000000000               0.000000000               0.000000000               0.000068556               0.000649847              -0.000013067              -0.000055522               0.000235121               0.000179599               0.000000000               0.000000000               0.000000000               0.000000000               0.000051127               0.000713536              -0.000006438              -0.000070019               0.000261183               0.000191164               0.000000000               0.000000000               0.000000000               0.000000000               0.000039804               0.000745436              -0.000003056              -0.000078253               0.000274560               0.000196308               0.000000000               0.000000000               0.000000000               0.000000000               0.000003070               0.000006717               0.000001485               0.000000312               0.000002135               0.000002447               0.000000000               0.000000000               0.000000000               0.000000000               0.000002930               0.000007481               0.000000246               0.000000164               0.000002439               0.000002603               0.000000000               0.000000000               0.000000000               0.000000000              -0.000003150              -0.000009073              -0.000000208              -0.000000047              -0.000003009              -0.000003056               0.000000000               0.000000000               0.000000000               0.000000000              -0.000005237              -0.000015555              -0.000000050              -0.000000020              -0.000005178              -0.000005198               0.000000000               0.000000000               0.000000000               0.000000000               0.000003883               0.000012585              -0.000000410              -0.000000117               0.000004234               0.000004117               0.000000000               0.000000000               0.000000000               0.000000000               0.000021305               0.000064335               0.000000095              -0.000000052               0.000021462               0.000021410               0.000000000               0.000000000               0.000000000               0.000000000               0.000044673               0.000131711               0.000000760               0.000000289               0.000043807               0.000044096               0.000000000               0.000000000               0.000000000               0.000000000               0.000068403               0.000200893               0.000001029               0.000000539               0.000066784               0.000067323               0.000000000               0.000000000               0.000000000               0.000000000               0.000091085               0.000271078              -0.000000431               0.000000272               0.000090268               0.000090540               0.000000000               0.000000000               0.000000000               0.000000000               0.000110769               0.000338614              -0.000003373              -0.000000788               0.000113133               0.000112345               0.000000000               0.000000000               0.000000000               0.000000000               0.000125540               0.000405481              -0.000007214              -0.000003608               0.000136362               0.000132754               0.000000000               0.000000000               0.000000000               0.000000000               0.000133322               0.000474091              -0.000011191              -0.000009266               0.000161117               0.000151852               0.000000000               0.000000000               0.000000000               0.000000000               0.000133414               0.000546071              -0.000014019              -0.000018229               0.000188098               0.000169869               0.000000000               0.000000000               0.000000000               0.000000000               0.000127105               0.000620171              -0.000014495              -0.000029857               0.000216674               0.000186817               0.000000000               0.000000000               0.000000000               0.000000000               0.000117253               0.000695345              -0.000011681              -0.000042948               0.000246095               0.000203147               0.000000000               0.000000000               0.000000000               0.000000000               0.000106670               0.000770020              -0.000006200              -0.000056251               0.000275421               0.000219170               0.000000000               0.000000000               0.000000000               0.000000000               0.000094631               0.000802140              -0.000000616              -0.000064781               0.000288971               0.000224190               0.000000000               0.000000000               0.000000000               0.000000000               0.000004405               0.000012269               0.000001107               0.000000118               0.000004050               0.000004168               0.000000000               0.000000000               0.000000000               0.000000000               0.000002433               0.000005311               0.000000368               0.000000248               0.000001687               0.000001936               0.000000000               0.000000000               0.000000000               0.000000000              -0.000004895              -0.000014637              -0.000000079              -0.000000006              -0.000004877              -0.000004883               0.000000000               0.000000000               0.000000000               0.000000000              -0.000003675              -0.000011055              -0.000000163               0.000000004              -0.000003686              -0.000003682               0.000000000               0.000000000               0.000000000               0.000000000               0.000007631               0.000022884               0.000000224               0.000000001               0.000007628               0.000007629               0.000000000               0.000000000               0.000000000               0.000000000               0.000025259               0.000077611              -0.000000319              -0.000000229               0.000025947               0.000025717               0.000000000               0.000000000               0.000000000               0.000000000               0.000047957               0.000144283              -0.000000013              -0.000000051               0.000048111               0.000048059               0.000000000               0.000000000               0.000000000               0.000000000               0.000072322               0.000213804               0.000000540               0.000000395               0.000071135               0.000071531               0.000000000               0.000000000               0.000000000               0.000000000               0.000095866               0.000284744               0.000000471               0.000000357               0.000094795               0.000095152               0.000000000               0.000000000               0.000000000               0.000000000               0.000117318               0.000353066              -0.000000424              -0.000000139               0.000117734               0.000117595               0.000000000               0.000000000               0.000000000               0.000000000               0.000137034               0.000420598              -0.000002251              -0.000001187               0.000140593               0.000139406               0.000000000               0.000000000               0.000000000               0.000000000               0.000152898               0.000487502              -0.000004536              -0.000003601               0.000163699               0.000160098               0.000000000               0.000000000               0.000000000               0.000000000               0.000163974               0.000556278              -0.000006888              -0.000008045               0.000188106               0.000180061               0.000000000               0.000000000               0.000000000               0.000000000               0.000169466               0.000627102              -0.000008230              -0.000014838               0.000213978               0.000199140               0.000000000               0.000000000               0.000000000               0.000000000               0.000170700               0.000699775              -0.000007833              -0.000023459               0.000241076               0.000217616               0.000000000               0.000000000               0.000000000               0.000000000               0.000169300               0.000772654              -0.000004811              -0.000033094               0.000268580               0.000235486               0.000000000               0.000000000               0.000000000               0.000000000               0.000162385               0.000804466              -0.000000498              -0.000039664               0.000281374               0.000241710               0.000000000               0.000000000               0.000000000               0.000000000               0.000003246               0.000012114              -0.000000189              -0.000000297               0.000004137               0.000003840               0.000000000               0.000000000               0.000000000               0.000000000               0.000000635               0.000000179               0.000000378               0.000000216              -0.000000012               0.000000203               0.000000000               0.000000000               0.000000000               0.000000000              -0.000005263              -0.000016634               0.000000355               0.000000106              -0.000005580              -0.000005474               0.000000000               0.000000000               0.000000000               0.000000000              -0.000002555              -0.000006218              -0.000000570              -0.000000181              -0.000002013              -0.000002193               0.000000000               0.000000000               0.000000000               0.000000000               0.000011020               0.000032542               0.000000228               0.000000065               0.000010825               0.000010890               0.000000000               0.000000000               0.000000000               0.000000000               0.000030414               0.000090828               0.000000173               0.000000052               0.000030258               0.000030310               0.000000000               0.000000000               0.000000000               0.000000000               0.000051825               0.000156045              -0.000000090              -0.000000071               0.000052038               0.000051967               0.000000000               0.000000000               0.000000000               0.000000000               0.000074653               0.000223927               0.000000200               0.000000004               0.000074640               0.000074644               0.000000000               0.000000000               0.000000000               0.000000000               0.000098069               0.000292944               0.000000309               0.000000158               0.000097595               0.000097752               0.000000000               0.000000000               0.000000000               0.000000000               0.000121075               0.000362510               0.000000327               0.000000089               0.000120806               0.000120895               0.000000000               0.000000000               0.000000000               0.000000000               0.000143786               0.000431538              -0.000000023              -0.000000022               0.000143852               0.000143830               0.000000000               0.000000000               0.000000000               0.000000000               0.000164894               0.000498701              -0.000000585              -0.000000502               0.000166399               0.000165897               0.000000000               0.000000000               0.000000000               0.000000000               0.000183687               0.000566118              -0.000001666              -0.000001882               0.000189332               0.000187449               0.000000000               0.000000000               0.000000000               0.000000000               0.000199120               0.000634107              -0.000002665              -0.000004593               0.000212898               0.000208305               0.000000000               0.000000000               0.000000000               0.000000000               0.000211175               0.000703866              -0.000003263              -0.000008793               0.000237551               0.000228758               0.000000000               0.000000000               0.000000000               0.000000000               0.000220359               0.000774556              -0.000002568              -0.000014185               0.000262911               0.000248726               0.000000000               0.000000000               0.000000000               0.000000000               0.000220970               0.000808298              -0.000000579              -0.000018173               0.000275488               0.000257314               0.000000000               0.000000000               0.000000000               0.000000000               0.000000778               0.000006563              -0.000001465              -0.000000529               0.000002364               0.000001835               0.000000000               0.000000000               0.000000000               0.000000000              -0.000002171              -0.000005938               0.000000089              -0.000000072              -0.000001955              -0.000002027               0.000000000               0.000000000               0.000000000               0.000000000              -0.000004607              -0.000015820               0.000000488               0.000000250              -0.000005356              -0.000005107               0.000000000               0.000000000               0.000000000               0.000000000              -0.000000389              -0.000000566              -0.000000078              -0.000000075              -0.000000164              -0.000000239               0.000000000               0.000000000               0.000000000               0.000000000               0.000013427               0.000041077              -0.000000226              -0.000000099               0.000013725               0.000013626               0.000000000               0.000000000               0.000000000               0.000000000               0.000033409               0.000100805              -0.000000050              -0.000000072               0.000033625               0.000033553               0.000000000               0.000000000               0.000000000               0.000000000               0.000054883               0.000165276               0.000000161              -0.000000078               0.000055118               0.000055039               0.000000000               0.000000000               0.000000000               0.000000000               0.000077952               0.000233274               0.000000172               0.000000073               0.000077733               0.000077806               0.000000000               0.000000000               0.000000000               0.000000000               0.000101104               0.000301172               0.000000230               0.000000267               0.000100300               0.000100568               0.000000000               0.000000000               0.000000000               0.000000000               0.000123637               0.000369411               0.000000146               0.000000188               0.000123073               0.000123261               0.000000000               0.000000000               0.000000000               0.000000000               0.000146097               0.000437686               0.000000273               0.000000076               0.000145869               0.000145944               0.000000000               0.000000000               0.000000000               0.000000000               0.000169091               0.000505726               0.000000446               0.000000193               0.000168509               0.000168703               0.000000000               0.000000000               0.000000000               0.000000000               0.000191763               0.000572859               0.000000524               0.000000304               0.000190850               0.000191154               0.000000000               0.000000000               0.000000000               0.000000000               0.000213357               0.000639945               0.000000329               0.000000016               0.000213308               0.000213323               0.000000000               0.000000000               0.000000000               0.000000000               0.000233190               0.000707528              -0.000000033              -0.000000995               0.000236172               0.000235177               0.000000000               0.000000000               0.000000000               0.000000000               0.000251198               0.000776150              -0.000000277              -0.000002820               0.000259654               0.000256834               0.000000000               0.000000000               0.000000000               0.000000000               0.000258672               0.000810904               0.000000144              -0.000004361               0.000271752               0.000267391               0.000000000               0.000000000               0.000000000               0.000000000              -0.000001347              -0.000001480              -0.000002322              -0.000000320              -0.000000387              -0.000000707               0.000000000               0.000000000               0.000000000               0.000000000              -0.000004258              -0.000010699              -0.000000064              -0.000000259              -0.000003480              -0.000003739               0.000000000               0.000000000               0.000000000               0.000000000              -0.000004615              -0.000014728               0.000000144               0.000000110              -0.000004946              -0.000004836               0.000000000               0.000000000               0.000000000               0.000000000               0.000001510               0.000003946              -0.000000028               0.000000073               0.000001291               0.000001364               0.000000000               0.000000000               0.000000000               0.000000000               0.000016332               0.000049300               0.000000390              -0.000000038               0.000016446               0.000016408               0.000000000               0.000000000               0.000000000               0.000000000               0.000036329               0.000109135               0.000000038              -0.000000018               0.000036384               0.000036365               0.000000000               0.000000000               0.000000000               0.000000000               0.000057487               0.000173114              -0.000000149              -0.000000082               0.000057731               0.000057650               0.000000000               0.000000000               0.000000000               0.000000000               0.000079697               0.000240638              -0.000000335              -0.000000193               0.000080276               0.000080083               0.000000000               0.000000000               0.000000000               0.000000000               0.000102224               0.000306821              -0.000000061              -0.000000019               0.000102279               0.000102260               0.000000000               0.000000000               0.000000000               0.000000000               0.000125310               0.000374288               0.000000085               0.000000205               0.000124693               0.000124898               0.000000000               0.000000000               0.000000000               0.000000000               0.000147614               0.000441544               0.000000086               0.000000162               0.000147126               0.000147288               0.000000000               0.000000000               0.000000000               0.000000000               0.000170094               0.000509505               0.000000093               0.000000097               0.000169801               0.000169898               0.000000000               0.000000000               0.000000000               0.000000000               0.000193032               0.000576836               0.000000292               0.000000283               0.000192182               0.000192465               0.000000000               0.000000000               0.000000000               0.000000000               0.000216442               0.000643904               0.000000441               0.000000678               0.000214407               0.000215084               0.000000000               0.000000000               0.000000000               0.000000000               0.000239542               0.000710521               0.000000477               0.000001013               0.000236500               0.000237513               0.000000000               0.000000000               0.000000000               0.000000000               0.000262000               0.000777717               0.000000244               0.000001035               0.000258891               0.000259927               0.000000000               0.000000000               0.000000000               0.000000000               0.000272908               0.000812170               0.000000236               0.000000819               0.000270448               0.000271267               0.000000000               0.000000000               0.000000000               0.000000000              -0.000003448              -0.000011159              -0.000002572               0.000000102              -0.000003754              -0.000003652               0.000000000               0.000000000               0.000000000               0.000000000              -0.000005010              -0.000014873              -0.000000196              -0.000000019              -0.000004951              -0.000004971               0.000000000               0.000000000               0.000000000               0.000000000              -0.000004465              -0.000012474               0.000000636              -0.000000115              -0.000004120              -0.000004235               0.000000000               0.000000000               0.000000000               0.000000000               0.000002234               0.000007268              -0.000000355              -0.000000071               0.000002446               0.000002376               0.000000000               0.000000000               0.000000000               0.000000000               0.000018130               0.000054345              -0.000000172               0.000000006               0.000018113               0.000018118               0.000000000               0.000000000               0.000000000               0.000000000               0.000038784               0.000115907               0.000000177               0.000000056               0.000038617               0.000038673               0.000000000               0.000000000               0.000000000               0.000000000               0.000059956               0.000178995               0.000000286               0.000000109               0.000059628               0.000059737               0.000000000               0.000000000               0.000000000               0.000000000               0.000081812               0.000245428               0.000000230               0.000000001               0.000081808               0.000081809               0.000000000               0.000000000               0.000000000               0.000000000               0.000103425               0.000311772              -0.000000058              -0.000000187               0.000103985               0.000103798               0.000000000               0.000000000               0.000000000               0.000000000               0.000125872               0.000378694              -0.000000216              -0.000000135               0.000126275               0.000126140               0.000000000               0.000000000               0.000000000               0.000000000               0.000148302               0.000444780              -0.000000152               0.000000016               0.000148253               0.000148269               0.000000000               0.000000000               0.000000000               0.000000000               0.000170573               0.000511671              -0.000000245               0.000000006               0.000170553               0.000170559               0.000000000               0.000000000               0.000000000               0.000000000               0.000192563               0.000578440              -0.000000255              -0.000000094               0.000192843               0.000192749               0.000000000               0.000000000               0.000000000               0.000000000               0.000214936               0.000645596              -0.000000202              -0.000000098               0.000215229               0.000215131               0.000000000               0.000000000               0.000000000               0.000000000               0.000237654               0.000712217              -0.000000063               0.000000093               0.000237372               0.000237465               0.000000000               0.000000000               0.000000000               0.000000000               0.000260634               0.000778806              -0.000000028               0.000000387               0.000259470               0.000259857               0.000000000               0.000000000               0.000000000               0.000000000               0.000272408               0.000812666              -0.000000040               0.000000570               0.000270696               0.000271266               0.000000000               0.000000000               0.000000000               0.000000000              -0.000005373              -0.000017444              -0.000001357               0.000000166              -0.000005870              -0.000005704               0.000000000               0.000000000               0.000000000               0.000000000              -0.000006054              -0.000018201              -0.000000438               0.000000005              -0.000006069              -0.000006064               0.000000000               0.000000000               0.000000000               0.000000000              -0.000003872              -0.000010919               0.000000375              -0.000000087              -0.000003611              -0.000003698               0.000000000               0.000000000               0.000000000               0.000000000               0.000003632               0.000011186               0.000000133              -0.000000036               0.000003741               0.000003704               0.000000000               0.000000000               0.000000000               0.000000000               0.000019048               0.000057374              -0.000000110              -0.000000029               0.000019134               0.000019105               0.000000000               0.000000000               0.000000000               0.000000000               0.000039235               0.000118234              -0.000000019              -0.000000066               0.000039433               0.000039367               0.000000000               0.000000000               0.000000000               0.000000000               0.000060678               0.000182401              -0.000000082              -0.000000046               0.000060815               0.000060769               0.000000000               0.000000000               0.000000000               0.000000000               0.000083278               0.000248934              -0.000000030               0.000000113               0.000082940               0.000083052               0.000000000               0.000000000               0.000000000               0.000000000               0.000105232               0.000314802               0.000000134               0.000000112               0.000104896               0.000105007               0.000000000               0.000000000               0.000000000               0.000000000               0.000127089               0.000381377               0.000000103              -0.000000014               0.000127129               0.000127115               0.000000000               0.000000000               0.000000000               0.000000000               0.000148997               0.000447182               0.000000100              -0.000000024               0.000149067               0.000149043               0.000000000               0.000000000               0.000000000               0.000000000               0.000171163               0.000513417               0.000000108               0.000000009               0.000171134               0.000171143               0.000000000               0.000000000               0.000000000               0.000000000               0.000193013               0.000579348               0.000000071              -0.000000038               0.000193127               0.000193088               0.000000000               0.000000000               0.000000000               0.000000000               0.000214892               0.000645925              -0.000000040              -0.000000156               0.000215358               0.000215202               0.000000000               0.000000000               0.000000000               0.000000000               0.000236779               0.000712365              -0.000000086              -0.000000253               0.000237537               0.000237284               0.000000000               0.000000000               0.000000000               0.000000000               0.000258930               0.000778895              -0.000000070              -0.000000263               0.000259717               0.000259454               0.000000000               0.000000000               0.000000000               0.000000000               0.000270206               0.000812402              -0.000000041              -0.000000223               0.000270872               0.000270649               0.000000000               0.000000000               0.000000000               0.000000000              -0.000006011              -0.000018139               0.000000000               0.000000013              -0.000006051              -0.000006037               0.000000000               0.000000000               0.000000000               0.000000000              -0.000006638              -0.000018447              -0.000000000              -0.000000184              -0.000006088              -0.000006271               0.000000000               0.000000000               0.000000000               0.000000000              -0.000003620              -0.000011120               0.000000000               0.000000032              -0.000003718              -0.000003685               0.000000000               0.000000000               0.000000000               0.000000000               0.000003966               0.000011212              -0.000000000               0.000000086               0.000003709               0.000003794               0.000000000               0.000000000               0.000000000               0.000000000               0.000019387               0.000059058              -0.000000000              -0.000000112               0.000019723               0.000019611               0.000000000               0.000000000               0.000000000               0.000000000               0.000040158               0.000120627               0.000000000              -0.000000019               0.000040215               0.000040196               0.000000000               0.000000000               0.000000000               0.000000000               0.000061219               0.000183767              -0.000000000              -0.000000014               0.000061260               0.000061246               0.000000000               0.000000000               0.000000000               0.000000000               0.000082855               0.000249329              -0.000000000              -0.000000096               0.000083141               0.000083045               0.000000000               0.000000000               0.000000000               0.000000000               0.000105050               0.000315047               0.000000000               0.000000013               0.000105010               0.000105023               0.000000000               0.000000000               0.000000000               0.000000000               0.000127471               0.000381601               0.000000000               0.000000102               0.000127165               0.000127267               0.000000000               0.000000000               0.000000000               0.000000000               0.000149348               0.000447841               0.000000000               0.000000025               0.000149270               0.000149296               0.000000000               0.000000000               0.000000000               0.000000000               0.000171568               0.000514698              -0.000000000               0.000000001               0.000171564               0.000171565               0.000000000               0.000000000               0.000000000               0.000000000               0.000193843               0.000580710              -0.000000000               0.000000102               0.000193534               0.000193636               0.000000000               0.000000000               0.000000000               0.000000000               0.000216134               0.000646766              -0.000000000               0.000000204               0.000215518               0.000215723               0.000000000               0.000000000               0.000000000               0.000000000               0.000238049               0.000712582              -0.000000000               0.000000196               0.000237460               0.000237655               0.000000000               0.000000000               0.000000000               0.000000000               0.000259822               0.000778810               0.000000000               0.000000082               0.000259574               0.000259655               0.000000000               0.000000000               0.000000000               0.000000000               0.000270679               0.000812128               0.000000000              -0.000000011               0.000270710               0.000270699               0.000000000               0.000000000               0.000000000               0.000000000               0.000000000               0.000000000               0.000000000               0.000000000               0.000000000               0.000000000               0.000000000               0.000000000               0.000000000               0.000000000               0.000000000               0.000000000               0.000000000               0.000000000               0.000000000               0.000000000               0.000000000               0.000000000               0.000000000               0.000000000               0.000000000               0.000000000               0.000000000               0.000000000               0.000000000               0.000000000               0.000000000               0.000000000               0.000000000               0.000000000               0.000000000               0.000000000               0.000000000               0.000000000               0.000000000               0.000000000               0.000000000               0.000000000               0.000000000               0.000000000               0.000000000               0.000000000               0.000000000               0.000000000               0.000000000               0.000000000               0.000000000               0.000000000               0.000000000               0.000000000               0.000000000               0.000000000               0.000000000               0.000000000               0.000000000               0.000000000               0.000000000               0.000000000               0.000000000               0.000000000               0.000000000               0.000000000               0.000000000               0.000000000               0.000000000               0.000000000               0.000000000               0.000000000               0.000000000               0.000000000               0.000000000               0.000000000               0.000000000               0.000000000               0.000000000               0.000000000               0.000000000               0.000000000               0.000000000               0.000000000               0.000000000               0.000000000               0.000000000               0.000000000               0.000000000               0.000000000               0.000000000               0.000000000               0.000000000               0.000000000               0.000000000               0.000000000               0.000000000               0.000000000               0.000000000               0.000000000               0.000000000               0.000000000               0.000000000               0.000000000               0.000000000               0.000000000               0.000000000               0.000000000               0.000000000               0.000000000               0.000000000               0.000000000               0.000000000               0.000000000               0.000000000               0.000000000               0.000000000               0.000000000               0.000000000               0.000000000               0.000000000               0.000000000               0.000000000               0.000000000               0.000000000               0.000000000               0.000000000               0.000000000               0.000000000               0.000000000               0.000000000               0.000000000               0.000000000               0.000000000               0.000000000               0.000000000               0.000000000               0.000000000               0.000000000               0.000000000               0.000000000               0.000000000               0.000000000               0.000000000               0.000000000               0.000000000               0.000000000               0.000000000               0.000000000               0.000000000               0.000000000               0.000000000               0.000000000               0.000000000               0.000000000               0.000000000               0.000000000               0.000000000               0.000000000               0.000000000               0.000000000               0.000000000               0.000000000               0.000000000               0.000000000               0.000000000               0.000000000               0.000000000               0.000000000               0.000000000               0.000000000               0.000000000               0.000000000               0.000000000              -0.000000560              -0.000000428              -0.000000267              -0.000000156              -0.000000091              -0.000000247               0.000000000               0.000000000               0.000000000               0.000000000              -0.000000681              -0.000000166               0.000000205              -0.000000235               0.000000023              -0.000000212               0.000000000               0.000000000               0.000000000               0.000000000              -0.000000450              -0.000000052               0.000000284              -0.000000162               0.000000037              -0.000000125               0.000000000               0.000000000               0.000000000               0.000000000               0.000000887               0.000000304              -0.000000316               0.000000295               0.000000003               0.000000298               0.000000000               0.000000000               0.000000000               0.000000000               0.000001577               0.000000712              -0.000000469               0.000000502               0.000000070               0.000000572               0.000000000               0.000000000               0.000000000               0.000000000              -0.000000083               0.000000261               0.000000070              -0.000000064               0.000000108               0.000000045               0.000000000               0.000000000               0.000000000               0.000000000              -0.000002347              -0.000001079               0.000000597              -0.000000745              -0.000000111              -0.000000856               0.000000000               0.000000000               0.000000000               0.000000000              -0.000002405              -0.000001766               0.000000696              -0.000000681              -0.000000362              -0.000001043               0.000000000               0.000000000               0.000000000               0.000000000              -0.000000215              -0.000000911               0.000000295               0.000000033              -0.000000315              -0.000000281               0.000000000               0.000000000               0.000000000               0.000000000               0.000002255               0.000001022              -0.000000467               0.000000718               0.000000101               0.000000819               0.000000000               0.000000000               0.000000000               0.000000000               0.000003466               0.000002949              -0.000001222               0.000000931               0.000000672               0.000001604               0.000000000               0.000000000               0.000000000               0.000000000               0.000003074               0.000004011              -0.000001553               0.000000651               0.000001120               0.000001771               0.000000000               0.000000000               0.000000000               0.000000000               0.000001520               0.000004190              -0.000001380               0.000000046               0.000001381               0.000001427               0.000000000               0.000000000               0.000000000               0.000000000              -0.000000354               0.000003588              -0.000000916              -0.000000581               0.000001390               0.000000809               0.000000000               0.000000000               0.000000000               0.000000000              -0.000001521               0.000002100              -0.000000374              -0.000000833               0.000000978               0.000000145               0.000000000               0.000000000               0.000000000               0.000000000              -0.000001309              -0.000000183               0.000000027              -0.000000468               0.000000095              -0.000000373               0.000000000               0.000000000               0.000000000               0.000000000              -0.000001150              -0.000002119              -0.000000099              -0.000000166              -0.000000651              -0.000000817               0.000000000               0.000000000               0.000000000               0.000000000              -0.000000628              -0.000000127               0.000000448              -0.000000220               0.000000031              -0.000000189               0.000000000               0.000000000               0.000000000               0.000000000              -0.000000144               0.000000697              -0.000000050              -0.000000141               0.000000279               0.000000138               0.000000000               0.000000000               0.000000000               0.000000000               0.000000725               0.000000579              -0.000000686               0.000000200               0.000000126               0.000000326               0.000000000               0.000000000               0.000000000               0.000000000               0.000000384              -0.000000063               0.000000002               0.000000152              -0.000000071               0.000000080               0.000000000               0.000000000               0.000000000               0.000000000              -0.000001440              -0.000000958               0.000000842              -0.000000420              -0.000000179              -0.000000600               0.000000000               0.000000000               0.000000000               0.000000000              -0.000001571              -0.000001102               0.000000558              -0.000000451              -0.000000217              -0.000000668               0.000000000               0.000000000               0.000000000               0.000000000               0.000000364               0.000000128              -0.000000328               0.000000121               0.000000002               0.000000123               0.000000000               0.000000000               0.000000000               0.000000000               0.000002270               0.000001893              -0.000001184               0.000000614               0.000000426               0.000001041               0.000000000               0.000000000               0.000000000               0.000000000               0.000003098               0.000003061              -0.000001450               0.000000779               0.000000761               0.000001540               0.000000000               0.000000000               0.000000000               0.000000000               0.000002509               0.000002908              -0.000000781               0.000000577               0.000000777               0.000001354               0.000000000               0.000000000               0.000000000               0.000000000               0.000000346               0.000001102               0.000000554              -0.000000008               0.000000370               0.000000362               0.000000000               0.000000000               0.000000000               0.000000000              -0.000002699              -0.000001714               0.000001774              -0.000000798              -0.000000305              -0.000001103               0.000000000               0.000000000               0.000000000               0.000000000              -0.000005221              -0.000005139               0.000002302              -0.000001316              -0.000001274              -0.000002590               0.000000000               0.000000000               0.000000000               0.000000000              -0.000005843              -0.000009493               0.000002204              -0.000001005              -0.000002830              -0.000003834               0.000000000               0.000000000               0.000000000               0.000000000              -0.000004282              -0.000014578               0.000001722               0.000000216              -0.000004931              -0.000004715               0.000000000               0.000000000               0.000000000               0.000000000              -0.000001954              -0.000019361               0.000000875               0.000001687              -0.000007016              -0.000005329               0.000000000               0.000000000               0.000000000               0.000000000              -0.000000994              -0.000021805               0.000000294               0.000002353              -0.000008053              -0.000005700               0.000000000               0.000000000               0.000000000               0.000000000               0.000001471               0.000001233              -0.000000326               0.000000398               0.000000278               0.000000676               0.000000000               0.000000000               0.000000000               0.000000000               0.000001115               0.000000647              -0.000000432               0.000000337               0.000000103               0.000000440               0.000000000               0.000000000               0.000000000               0.000000000              -0.000000309              -0.000000352               0.000000443              -0.000000072              -0.000000094              -0.000000165               0.000000000               0.000000000               0.000000000               0.000000000              -0.000001523              -0.000001098               0.000000754              -0.000000434              -0.000000221              -0.000000655               0.000000000               0.000000000               0.000000000               0.000000000              -0.000000071              -0.000000569              -0.000000389               0.000000045              -0.000000205              -0.000000160               0.000000000               0.000000000               0.000000000               0.000000000               0.000001855               0.000001146              -0.000001112               0.000000552               0.000000198               0.000000750               0.000000000               0.000000000               0.000000000               0.000000000               0.000002110               0.000002792              -0.000000850               0.000000442               0.000000783               0.000001225               0.000000000               0.000000000               0.000000000               0.000000000               0.000001069               0.000002311               0.000000177               0.000000112               0.000000733               0.000000845               0.000000000               0.000000000               0.000000000               0.000000000              -0.000001483              -0.000001308               0.000001572              -0.000000393              -0.000000305              -0.000000698               0.000000000               0.000000000               0.000000000               0.000000000              -0.000004978              -0.000006817               0.000002496              -0.000001015              -0.000001934              -0.000002949               0.000000000               0.000000000               0.000000000               0.000000000              -0.000007385              -0.000011200               0.000002271              -0.000001369              -0.000003277              -0.000004646               0.000000000               0.000000000               0.000000000               0.000000000              -0.000007124              -0.000013045               0.000000981              -0.000001041              -0.000004001              -0.000005042               0.000000000               0.000000000               0.000000000               0.000000000              -0.000003831              -0.000013203              -0.000000443               0.000000214              -0.000004472              -0.000004259               0.000000000               0.000000000               0.000000000               0.000000000               0.000001172              -0.000011654              -0.000001311               0.000001896              -0.000004517              -0.000002620               0.000000000               0.000000000               0.000000000               0.000000000               0.000004913              -0.000006942              -0.000001607               0.000002710              -0.000003217              -0.000000507               0.000000000               0.000000000               0.000000000               0.000000000               0.000004168               0.000003297              -0.000001533               0.000001151               0.000000715               0.000001866               0.000000000               0.000000000               0.000000000               0.000000000               0.000005357               0.000015309               0.000000323               0.000000095               0.000005071               0.000005166               0.000000000               0.000000000               0.000000000               0.000000000               0.000000672               0.000001079              -0.000000415               0.000000117               0.000000320               0.000000438               0.000000000               0.000000000               0.000000000               0.000000000              -0.000000216              -0.000000446               0.000000235              -0.000000025              -0.000000140              -0.000000165               0.000000000               0.000000000               0.000000000               0.000000000              -0.000000698              -0.000001266               0.000000470              -0.000000103              -0.000000388              -0.000000491               0.000000000               0.000000000               0.000000000               0.000000000               0.000000512              -0.000000258              -0.000000736               0.000000224              -0.000000161               0.000000063               0.000000000               0.000000000               0.000000000               0.000000000               0.000001470               0.000002229              -0.000000543               0.000000272               0.000000652               0.000000925               0.000000000               0.000000000               0.000000000               0.000000000               0.000000611               0.000003096               0.000000435              -0.000000158               0.000001085               0.000000927               0.000000000               0.000000000               0.000000000               0.000000000              -0.000000975              -0.000000751               0.000000928              -0.000000272              -0.000000160              -0.000000432               0.000000000               0.000000000               0.000000000               0.000000000              -0.000003698              -0.000007704               0.000001296              -0.000000424              -0.000002427              -0.000002850               0.000000000               0.000000000               0.000000000               0.000000000              -0.000005764              -0.000012155               0.000001064              -0.000000642              -0.000003838              -0.000004480               0.000000000               0.000000000               0.000000000               0.000000000              -0.000004628              -0.000009606              -0.000000169              -0.000000535              -0.000003024              -0.000003559               0.000000000               0.000000000               0.000000000               0.000000000               0.000000133              -0.000000372              -0.000001931               0.000000097              -0.000000156              -0.000000060               0.000000000               0.000000000               0.000000000               0.000000000               0.000007886               0.000012059              -0.000002686               0.000001450               0.000003536               0.000004986               0.000000000               0.000000000               0.000000000               0.000000000               0.000016414               0.000026490              -0.000001692               0.000002844               0.000007882               0.000010726               0.000000000               0.000000000               0.000000000               0.000000000               0.000022183               0.000044633               0.000000368               0.000002739               0.000013964               0.000016704               0.000000000               0.000000000               0.000000000               0.000000000               0.000021870               0.000069177               0.000002140              -0.000000446               0.000023208               0.000022762               0.000000000               0.000000000               0.000000000               0.000000000               0.000013447               0.000102387               0.000001927              -0.000007756               0.000036714               0.000028958               0.000000000               0.000000000               0.000000000               0.000000000               0.000013929               0.000132460               0.000005040              -0.000011334               0.000047931               0.000036597               0.000000000               0.000000000               0.000000000               0.000000000              -0.000001001              -0.000000704               0.000000573              -0.000000287              -0.000000139              -0.000000426               0.000000000               0.000000000               0.000000000               0.000000000              -0.000000906              -0.000001626               0.000000321              -0.000000136              -0.000000497              -0.000000633               0.000000000               0.000000000               0.000000000               0.000000000               0.000000112              -0.000000499              -0.000000508               0.000000104              -0.000000201              -0.000000097               0.000000000               0.000000000               0.000000000               0.000000000               0.000000982               0.000002770              -0.000000111               0.000000022               0.000000916               0.000000938               0.000000000               0.000000000               0.000000000               0.000000000               0.000000562               0.000002814               0.000000533              -0.000000141               0.000000985               0.000000844               0.000000000               0.000000000               0.000000000               0.000000000              -0.000001305              -0.000003941               0.000000145               0.000000003              -0.000001315              -0.000001312               0.000000000               0.000000000               0.000000000               0.000000000              -0.000004016              -0.000010926               0.000000456              -0.000000140              -0.000003595              -0.000003735               0.000000000               0.000000000               0.000000000               0.000000000              -0.000003876              -0.000008530               0.000000369              -0.000000387              -0.000002714              -0.000003102               0.000000000               0.000000000               0.000000000               0.000000000               0.000001703               0.000006462              -0.000000882              -0.000000169               0.000002210               0.000002041               0.000000000               0.000000000               0.000000000               0.000000000               0.000011448               0.000030809              -0.000002276               0.000000442               0.000010122               0.000010564               0.000000000               0.000000000               0.000000000               0.000000000               0.000023764               0.000058666              -0.000001628               0.000001578               0.000019029               0.000020608               0.000000000               0.000000000               0.000000000               0.000000000               0.000035486               0.000087361               0.000001940               0.000002387               0.000028324               0.000030712               0.000000000               0.000000000               0.000000000               0.000000000               0.000043112               0.000118809               0.000007104               0.000001316               0.000039164               0.000040480               0.000000000               0.000000000               0.000000000               0.000000000               0.000043544               0.000155439               0.000011654              -0.000003101               0.000052846               0.000049745               0.000000000               0.000000000               0.000000000               0.000000000               0.000035441               0.000198428               0.000013046              -0.000011513               0.000069980               0.000058467               0.000000000               0.000000000               0.000000000               0.000000000               0.000019823               0.000246233               0.000009122              -0.000023346               0.000089859               0.000066513               0.000000000               0.000000000               0.000000000               0.000000000               0.000018076               0.000282803               0.000010067              -0.000028572               0.000103791               0.000075219               0.000000000               0.000000000               0.000000000               0.000000000              -0.000001413              -0.000002773               0.000000664              -0.000000183              -0.000000863              -0.000001047               0.000000000               0.000000000               0.000000000               0.000000000              -0.000000734              -0.000001638              -0.000000026              -0.000000070              -0.000000523              -0.000000593               0.000000000               0.000000000               0.000000000               0.000000000               0.000001094               0.000003017              -0.000000185               0.000000033               0.000000995               0.000001028               0.000000000               0.000000000               0.000000000               0.000000000               0.000001176               0.000003395               0.000000285               0.000000017               0.000001126               0.000001143               0.000000000               0.000000000               0.000000000               0.000000000              -0.000002131              -0.000006299              -0.000000144              -0.000000012              -0.000002096              -0.000002108               0.000000000               0.000000000               0.000000000               0.000000000              -0.000004669              -0.000012139               0.000000331              -0.000000234              -0.000003968              -0.000004202               0.000000000               0.000000000               0.000000000               0.000000000              -0.000000827              -0.000000374               0.000000285              -0.000000263              -0.000000037              -0.000000300               0.000000000               0.000000000               0.000000000               0.000000000               0.000010629               0.000028993              -0.000001059               0.000000362               0.000009544               0.000009905               0.000000000               0.000000000               0.000000000               0.000000000               0.000025920               0.000069374              -0.000001885               0.000001048               0.000022775               0.000023823               0.000000000               0.000000000               0.000000000               0.000000000               0.000041959               0.000112896              -0.000000550               0.000001622               0.000037091               0.000038713               0.000000000               0.000000000               0.000000000               0.000000000               0.000055823               0.000155567               0.000004280               0.000001488               0.000051359               0.000052847               0.000000000               0.000000000               0.000000000               0.000000000               0.000064762               0.000199368               0.000011249              -0.000000635               0.000066667               0.000066032               0.000000000               0.000000000               0.000000000               0.000000000               0.000065902               0.000247111               0.000017874              -0.000006176               0.000084428               0.000078252               0.000000000               0.000000000               0.000000000               0.000000000               0.000057818               0.000299334               0.000021286              -0.000015735               0.000105022               0.000089287               0.000000000               0.000000000               0.000000000               0.000000000               0.000042373               0.000353816               0.000019688              -0.000028337               0.000127383               0.000099046               0.000000000               0.000000000               0.000000000               0.000000000               0.000022374               0.000405784               0.000012435              -0.000042333               0.000149371               0.000107038               0.000000000               0.000000000               0.000000000               0.000000000               0.000017834               0.000440294               0.000011105              -0.000048349               0.000162879               0.000114531               0.000000000               0.000000000               0.000000000               0.000000000              -0.000001104              -0.000003392              -0.000000029               0.000000010              -0.000001134              -0.000001124               0.000000000               0.000000000               0.000000000               0.000000000               0.000000416               0.000001561              -0.000000140              -0.000000039               0.000000533               0.000000494               0.000000000               0.000000000               0.000000000               0.000000000               0.000001466               0.000004713               0.000000094              -0.000000039               0.000001584               0.000001545               0.000000000               0.000000000               0.000000000               0.000000000              -0.000002218              -0.000006466               0.000000083              -0.000000023              -0.000002148              -0.000002171               0.000000000               0.000000000               0.000000000               0.000000000              -0.000004247              -0.000012576               0.000000298              -0.000000020              -0.000004185              -0.000004206               0.000000000               0.000000000               0.000000000               0.000000000               0.000003007               0.000006942               0.000000232               0.000000260               0.000002227               0.000002487               0.000000000               0.000000000               0.000000000               0.000000000               0.000017904               0.000048010              -0.000000856               0.000000713               0.000015765               0.000016478               0.000000000               0.000000000               0.000000000               0.000000000               0.000036371               0.000101681              -0.000001285               0.000000929               0.000033584               0.000034513               0.000000000               0.000000000               0.000000000               0.000000000               0.000055385               0.000158583              -0.000000495               0.000000947               0.000052545               0.000053492               0.000000000               0.000000000               0.000000000               0.000000000               0.000072416               0.000214341               0.000003504               0.000000363               0.000071325               0.000071689               0.000000000               0.000000000               0.000000000               0.000000000               0.000084392               0.000269967               0.000010453              -0.000002099               0.000090688               0.000088589               0.000000000               0.000000000               0.000000000               0.000000000               0.000087846               0.000328794               0.000017842              -0.000008157               0.000112316               0.000104159               0.000000000               0.000000000               0.000000000               0.000000000               0.000081098               0.000391372               0.000022823              -0.000018510               0.000136626               0.000118116               0.000000000               0.000000000               0.000000000               0.000000000               0.000066150               0.000455782               0.000023335              -0.000032166               0.000162648               0.000130482               0.000000000               0.000000000               0.000000000               0.000000000               0.000045799               0.000517435               0.000019192              -0.000047505               0.000188311               0.000140807               0.000000000               0.000000000               0.000000000               0.000000000               0.000023501               0.000572013               0.000011190              -0.000062689               0.000211565               0.000148877               0.000000000               0.000000000               0.000000000               0.000000000               0.000015748               0.000605264               0.000009161              -0.000069752               0.000225003               0.000155251               0.000000000               0.000000000               0.000000000               0.000000000               0.000000579               0.000000059              -0.000000973               0.000000210              -0.000000050               0.000000160               0.000000000               0.000000000               0.000000000               0.000000000               0.000002084               0.000005845              -0.000000187               0.000000051               0.000001931               0.000001982               0.000000000               0.000000000               0.000000000               0.000000000              -0.000000725              -0.000001069               0.000000495              -0.000000138              -0.000000310              -0.000000449               0.000000000               0.000000000               0.000000000               0.000000000              -0.000005268              -0.000015651               0.000000046              -0.000000019              -0.000005211              -0.000005230               0.000000000               0.000000000               0.000000000               0.000000000              -0.000000139              -0.000001225              -0.000000386               0.000000101              -0.000000442              -0.000000341               0.000000000               0.000000000               0.000000000               0.000000000               0.000014113               0.000041162              -0.000001447               0.000000147               0.000013671               0.000013819               0.000000000               0.000000000               0.000000000               0.000000000               0.000035698               0.000101854              -0.000002641               0.000000655               0.000033733               0.000034388               0.000000000               0.000000000               0.000000000               0.000000000               0.000058723               0.000168804              -0.000003345               0.000000921               0.000055961               0.000056881               0.000000000               0.000000000               0.000000000               0.000000000               0.000079437               0.000234364              -0.000001575               0.000000493               0.000077956               0.000078449               0.000000000               0.000000000               0.000000000               0.000000000               0.000096084               0.000297675               0.000003015              -0.000001178               0.000099617               0.000098439               0.000000000               0.000000000               0.000000000               0.000000000               0.000106029               0.000362330               0.000009076              -0.000005530               0.000122619               0.000117088               0.000000000               0.000000000               0.000000000               0.000000000               0.000107189               0.000431776               0.000014909              -0.000013776               0.000148516               0.000134740               0.000000000               0.000000000               0.000000000               0.000000000               0.000099310               0.000505136               0.000018089              -0.000025901               0.000177011               0.000151110               0.000000000               0.000000000               0.000000000               0.000000000               0.000085509               0.000579349               0.000017534              -0.000040353               0.000206565               0.000166213               0.000000000               0.000000000               0.000000000               0.000000000               0.000068556               0.000649847               0.000013067              -0.000055522               0.000235121               0.000179599               0.000000000               0.000000000               0.000000000               0.000000000               0.000051127               0.000713536               0.000006438              -0.000070019               0.000261183               0.000191164               0.000000000               0.000000000               0.000000000               0.000000000               0.000039804               0.000745436               0.000003056              -0.000078253               0.000274560               0.000196308               0.000000000               0.000000000               0.000000000               0.000000000               0.000003070               0.000006717              -0.000001485               0.000000312               0.000002135               0.000002447               0.000000000               0.000000000               0.000000000               0.000000000               0.000002930               0.000007481              -0.000000246               0.000000164               0.000002439               0.000002603               0.000000000               0.000000000               0.000000000               0.000000000              -0.000003150              -0.000009073               0.000000208              -0.000000047              -0.000003009              -0.000003056               0.000000000               0.000000000               0.000000000               0.000000000              -0.000005237              -0.000015555               0.000000050              -0.000000020              -0.000005178              -0.000005198               0.000000000               0.000000000               0.000000000               0.000000000               0.000003883               0.000012585               0.000000410              -0.000000117               0.000004234               0.000004117               0.000000000               0.000000000               0.000000000               0.000000000               0.000021305               0.000064335              -0.000000095              -0.000000052               0.000021462               0.000021410               0.000000000               0.000000000               0.000000000               0.000000000               0.000044673               0.000131711              -0.000000760               0.000000289               0.000043807               0.000044096               0.000000000               0.000000000               0.000000000               0.000000000               0.000068403               0.000200893              -0.000001029               0.000000539               0.000066784               0.000067323               0.000000000               0.000000000               0.000000000               0.000000000               0.000091085               0.000271078               0.000000431               0.000000272               0.000090268               0.000090540               0.000000000               0.000000000               0.000000000               0.000000000               0.000110769               0.000338614               0.000003373              -0.000000788               0.000113133               0.000112345               0.000000000               0.000000000               0.000000000               0.000000000               0.000125540               0.000405481               0.000007214              -0.000003608               0.000136362               0.000132754               0.000000000               0.000000000               0.000000000               0.000000000               0.000133322               0.000474091               0.000011191              -0.000009266               0.000161117               0.000151852               0.000000000               0.000000000               0.000000000               0.000000000               0.000133414               0.000546071               0.000014019              -0.000018229               0.000188098               0.000169869               0.000000000               0.000000000               0.000000000               0.000000000               0.000127105               0.000620171               0.000014495              -0.000029857               0.000216674               0.000186817               0.000000000               0.000000000               0.000000000               0.000000000               0.000117253               0.000695345               0.000011681              -0.000042948               0.000246095               0.000203147               0.000000000               0.000000000               0.000000000               0.000000000               0.000106670               0.000770020               0.000006200              -0.000056251               0.000275421               0.000219170               0.000000000               0.000000000               0.000000000               0.000000000               0.000094631               0.000802140               0.000000616              -0.000064781               0.000288971               0.000224190               0.000000000               0.000000000               0.000000000               0.000000000               0.000004405               0.000012269              -0.000001107               0.000000118               0.000004050               0.000004168               0.000000000               0.000000000               0.000000000               0.000000000               0.000002433               0.000005311              -0.000000368               0.000000248               0.000001687               0.000001936               0.000000000               0.000000000               0.000000000               0.000000000              -0.000004895              -0.000014637               0.000000079              -0.000000006              -0.000004877              -0.000004883               0.000000000               0.000000000               0.000000000               0.000000000              -0.000003675              -0.000011055               0.000000163               0.000000004              -0.000003686              -0.000003682               0.000000000               0.000000000               0.000000000               0.000000000               0.000007631               0.000022884              -0.000000224               0.000000001               0.000007628               0.000007629               0.000000000               0.000000000               0.000000000               0.000000000               0.000025259               0.000077611               0.000000319              -0.000000229               0.000025947               0.000025717               0.000000000               0.000000000               0.000000000               0.000000000               0.000047957               0.000144283               0.000000013              -0.000000051               0.000048111               0.000048059               0.000000000               0.000000000               0.000000000               0.000000000               0.000072322               0.000213804              -0.000000540               0.000000395               0.000071135               0.000071531               0.000000000               0.000000000               0.000000000               0.000000000               0.000095866               0.000284744              -0.000000471               0.000000357               0.000094795               0.000095152               0.000000000               0.000000000               0.000000000               0.000000000               0.000117318               0.000353066               0.000000424              -0.000000139               0.000117734               0.000117595               0.000000000               0.000000000               0.000000000               0.000000000               0.000137034               0.000420598               0.000002251              -0.000001187               0.000140593               0.000139406               0.000000000               0.000000000               0.000000000               0.000000000               0.000152898               0.000487502               0.000004536              -0.000003601               0.000163699               0.000160098               0.000000000               0.000000000               0.000000000               0.000000000               0.000163974               0.000556278               0.000006888              -0.000008045               0.000188106               0.000180061               0.000000000               0.000000000               0.000000000               0.000000000               0.000169466               0.000627102               0.000008230              -0.000014838               0.000213978               0.000199140               0.000000000               0.000000000               0.000000000               0.000000000               0.000170700               0.000699775               0.000007833              -0.000023459               0.000241076               0.000217616               0.000000000               0.000000000               0.000000000               0.000000000               0.000169300               0.000772654               0.000004811              -0.000033094               0.000268580               0.000235486               0.000000000               0.000000000               0.000000000               0.000000000               0.000162385               0.000804466               0.000000498              -0.000039664               0.000281374               0.000241710               0.000000000               0.000000000               0.000000000               0.000000000               0.000003246               0.000012114               0.000000189              -0.000000297               0.000004137               0.000003840               0.000000000               0.000000000               0.000000000               0.000000000               0.000000635               0.000000179              -0.000000378               0.000000216              -0.000000012               0.000000203               0.000000000               0.000000000               0.000000000               0.000000000              -0.000005263              -0.000016634              -0.000000355               0.000000106              -0.000005580              -0.000005474               0.000000000               0.000000000               0.000000000               0.000000000              -0.000002555              -0.000006218               0.000000570              -0.000000181              -0.000002013              -0.000002193               0.000000000               0.000000000               0.000000000               0.000000000               0.000011020               0.000032542              -0.000000228               0.000000065               0.000010825               0.000010890               0.000000000               0.000000000               0.000000000               0.000000000               0.000030414               0.000090828              -0.000000173               0.000000052               0.000030258               0.000030310               0.000000000               0.000000000               0.000000000               0.000000000               0.000051825               0.000156045               0.000000090              -0.000000071               0.000052038               0.000051967               0.000000000               0.000000000               0.000000000               0.000000000               0.000074653               0.000223927              -0.000000200               0.000000004               0.000074640               0.000074644               0.000000000               0.000000000               0.000000000               0.000000000               0.000098069               0.000292944              -0.000000309               0.000000158               0.000097595               0.000097752               0.000000000               0.000000000               0.000000000               0.000000000               0.000121075               0.000362510              -0.000000327               0.000000089               0.000120806               0.000120895               0.000000000               0.000000000               0.000000000               0.000000000               0.000143786               0.000431538               0.000000023              -0.000000022               0.000143852               0.000143830               0.000000000               0.000000000               0.000000000               0.000000000               0.000164894               0.000498701               0.000000585              -0.000000502               0.000166399               0.000165897               0.000000000               0.000000000               0.000000000               0.000000000               0.000183687               0.000566118               0.000001666              -0.000001882               0.000189332               0.000187449               0.000000000               0.000000000               0.000000000               0.000000000               0.000199120               0.000634107               0.000002665              -0.000004593               0.000212898               0.000208305               0.000000000               0.000000000               0.000000000               0.000000000               0.000211175               0.000703866               0.000003263              -0.000008793               0.000237551               0.000228758               0.000000000               0.000000000               0.000000000               0.000000000               0.000220359               0.000774556               0.000002568              -0.000014185               0.000262911               0.000248726               0.000000000               0.000000000               0.000000000               0.000000000               0.000220970               0.000808298               0.000000579              -0.000018173               0.000275488               0.000257314               0.000000000               0.000000000               0.000000000               0.000000000               0.000000778               0.000006563               0.000001465              -0.000000529               0.000002364               0.000001835               0.000000000               0.000000000               0.000000000               0.000000000              -0.000002171              -0.000005938              -0.000000089              -0.000000072              -0.000001955              -0.000002027               0.000000000               0.000000000               0.000000000               0.000000000              -0.000004607              -0.000015820              -0.000000488               0.000000250              -0.000005356              -0.000005107               0.000000000               0.000000000               0.000000000               0.000000000              -0.000000389              -0.000000566               0.000000078              -0.000000075              -0.000000164              -0.000000239               0.000000000               0.000000000               0.000000000               0.000000000               0.000013427               0.000041077               0.000000226              -0.000000099               0.000013725               0.000013626               0.000000000               0.000000000               0.000000000               0.000000000               0.000033409               0.000100805               0.000000050              -0.000000072               0.000033625               0.000033553               0.000000000               0.000000000               0.000000000               0.000000000               0.000054883               0.000165276              -0.000000161              -0.000000078               0.000055118               0.000055039               0.000000000               0.000000000               0.000000000               0.000000000               0.000077952               0.000233274              -0.000000172               0.000000073               0.000077733               0.000077806               0.000000000               0.000000000               0.000000000               0.000000000               0.000101104               0.000301172              -0.000000230               0.000000267               0.000100300               0.000100568               0.000000000               0.000000000               0.000000000               0.000000000               0.000123637               0.000369411              -0.000000146               0.000000188               0.000123073               0.000123261               0.000000000               0.000000000               0.000000000               0.000000000               0.000146097               0.000437686              -0.000000273               0.000000076               0.000145869               0.000145944               0.000000000               0.000000000               0.000000000               0.000000000               0.000169091               0.000505726              -0.000000446               0.000000193               0.000168509               0.000168703               0.000000000               0.000000000               0.000000000               0.000000000               0.000191763               0.000572859              -0.000000524               0.000000304               0.000190850               0.000191154               0.000000000               0.000000000               0.000000000               0.000000000               0.000213357               0.000639945              -0.000000329               0.000000016               0.000213308               0.000213323               0.000000000               0.000000000               0.000000000               0.000000000               0.000233190               0.000707528               0.000000033              -0.000000995               0.000236172               0.000235177               0.000000000               0.000000000               0.000000000               0.000000000               0.000251198               0.000776150               0.000000277              -0.000002820               0.000259654               0.000256834               0.000000000               0.000000000               0.000000000               0.000000000               0.000258672               0.000810904              -0.000000144              -0.000004361               0.000271752               0.000267391               0.000000000               0.000000000               0.000000000               0.000000000              -0.000001347              -0.000001480               0.000002322              -0.000000320              -0.000000387              -0.000000707               0.000000000               0.000000000               0.000000000               0.000000000              -0.000004258              -0.000010699               0.000000064              -0.000000259              -0.000003480              -0.000003739               0.000000000               0.000000000               0.000000000               0.000000000              -0.000004615              -0.000014728              -0.000000144               0.000000110              -0.000004946              -0.000004836               0.000000000               0.000000000               0.000000000               0.000000000               0.000001510               0.000003946               0.000000028               0.000000073               0.000001291               0.000001364               0.000000000               0.000000000               0.000000000               0.000000000               0.000016332               0.000049300              -0.000000390              -0.000000038               0.000016446               0.000016408               0.000000000               0.000000000               0.000000000               0.000000000               0.000036329               0.000109135              -0.000000038              -0.000000018               0.000036384               0.000036365               0.000000000               0.000000000               0.000000000               0.000000000               0.000057487               0.000173114               0.000000149              -0.000000082               0.000057731               0.000057650               0.000000000               0.000000000               0.000000000               0.000000000               0.000079697               0.000240638               0.000000335              -0.000000193               0.000080276               0.000080083               0.000000000               0.000000000               0.000000000               0.000000000               0.000102224               0.000306821               0.000000061              -0.000000019               0.000102279               0.000102260               0.000000000               0.000000000               0.000000000               0.000000000               0.000125310               0.000374288              -0.000000085               0.000000205               0.000124693               0.000124898               0.000000000               0.000000000               0.000000000               0.000000000               0.000147614               0.000441544              -0.000000086               0.000000162               0.000147126               0.000147288               0.000000000               0.000000000               0.000000000               0.000000000               0.000170094               0.000509505              -0.000000093               0.000000097               0.000169801               0.000169898               0.000000000               0.000000000               0.000000000               0.000000000               0.000193032               0.000576836              -0.000000292               0.000000283               0.000192182               0.000192465               0.000000000               0.000000000               0.000000000               0.000000000               0.000216442               0.000643904              -0.000000441               0.000000678               0.000214407               0.000215084               0.000000000               0.000000000               0.000000000               0.000000000               0.000239542               0.000710521              -0.000000477               0.000001013               0.000236500               0.000237513               0.000000000               0.000000000               0.000000000               0.000000000               0.000262000               0.000777717              -0.000000244               0.000001035               0.000258891               0.000259927               0.000000000               0.000000000               0.000000000               0.000000000               0.000272908               0.000812170              -0.000000236               0.000000819               0.000270448               0.000271267               0.000000000               0.000000000               0.000000000               0.000000000              -0.000003448              -0.000011159               0.000002572               0.000000102              -0.000003754              -0.000003652               0.000000000               0.000000000               0.000000000               0.000000000              -0.000005010              -0.000014873               0.000000196              -0.000000019              -0.000004951              -0.000004971               0.000000000               0.000000000               0.000000000               0.000000000              -0.000004465              -0.000012474              -0.000000636              -0.000000115              -0.000004120              -0.000004235               0.000000000               0.000000000               0.000000000               0.000000000               0.000002234               0.000007268               0.000000355              -0.000000071               0.000002446               0.000002376               0.000000000               0.000000000               0.000000000               0.000000000               0.000018130               0.000054345               0.000000172               0.000000006               0.000018113               0.000018118               0.000000000               0.000000000               0.000000000               0.000000000               0.000038784               0.000115907              -0.000000177               0.000000056               0.000038617               0.000038673               0.000000000               0.000000000               0.000000000               0.000000000               0.000059956               0.000178995              -0.000000286               0.000000109               0.000059628               0.000059737               0.000000000               0.000000000               0.000000000               0.000000000               0.000081812               0.000245428              -0.000000230               0.000000001               0.000081808               0.000081809               0.000000000               0.000000000               0.000000000               0.000000000               0.000103425               0.000311772               0.000000058              -0.000000187               0.000103985               0.000103798               0.000000000               0.000000000               0.000000000               0.000000000               0.000125872               0.000378694               0.000000216              -0.000000135               0.000126275               0.000126140               0.000000000               0.000000000               0.000000000               0.000000000               0.000148302               0.000444780               0.000000152               0.000000016               0.000148253               0.000148269               0.000000000               0.000000000               0.000000000               0.000000000               0.000170573               0.000511671               0.000000245               0.000000006               0.000170553               0.000170559               0.000000000               0.000000000               0.000000000               0.000000000               0.000192563               0.000578440               0.000000255              -0.000000094               0.000192843               0.000192749               0.000000000               0.000000000               0.000000000               0.000000000               0.000214936               0.000645596               0.000000202              -0.000000098               0.000215229               0.000215131               0.000000000               0.000000000               0.000000000               0.000000000               0.000237654               0.000712217               0.000000063               0.000000093               0.000237372               0.000237465               0.000000000               0.000000000               0.000000000               0.000000000               0.000260634               0.000778806               0.000000028               0.000000387               0.000259470               0.000259857               0.000000000               0.000000000               0.000000000               0.000000000               0.000272408               0.000812666               0.000000040               0.000000570               0.000270696               0.000271266               0.000000000               0.000000000               0.000000000               0.000000000              -0.000005373              -0.000017444               0.000001357               0.000000166              -0.000005870              -0.000005704               0.000000000               0.000000000               0.000000000               0.000000000              -0.000006054              -0.000018201               0.000000438               0.000000005              -0.000006069              -0.000006064               0.000000000               0.000000000               0.000000000               0.000000000              -0.000003872              -0.000010919              -0.000000375              -0.000000087              -0.000003611              -0.000003698               0.000000000               0.000000000               0.000000000               0.000000000               0.000003632               0.000011186              -0.000000133              -0.000000036               0.000003741               0.000003704               0.000000000               0.000000000               0.000000000               0.000000000               0.000019048               0.000057374               0.000000110              -0.000000029               0.000019134               0.000019105               0.000000000               0.000000000               0.000000000               0.000000000               0.000039235               0.000118234               0.000000019              -0.000000066               0.000039433               0.000039367               0.000000000               0.000000000               0.000000000               0.000000000               0.000060678               0.000182401               0.000000082              -0.000000046               0.000060815               0.000060769               0.000000000               0.000000000               0.000000000               0.000000000               0.000083278               0.000248934               0.000000030               0.000000113               0.000082940               0.000083052               0.000000000               0.000000000               0.000000000               0.000000000               0.000105232               0.000314802              -0.000000134               0.000000112               0.000104896               0.000105007               0.000000000               0.000000000               0.000000000               0.000000000               0.000127089               0.000381377              -0.000000103              -0.000000014               0.000127129               0.000127115               0.000000000               0.000000000               0.000000000               0.000000000               0.000148997               0.000447182              -0.000000100              -0.000000024               0.000149067               0.000149043               0.000000000               0.000000000               0.000000000               0.000000000               0.000171163               0.000513417              -0.000000108               0.000000009               0.000171134               0.000171143               0.000000000               0.000000000               0.000000000               0.000000000               0.000193013               0.000579348              -0.000000071              -0.000000038               0.000193127               0.000193088               0.000000000               0.000000000               0.000000000               0.000000000               0.000214892               0.000645925               0.000000040              -0.000000156               0.000215358               0.000215202               0.000000000               0.000000000               0.000000000               0.000000000               0.000236779               0.000712365               0.000000086              -0.000000253               0.000237537               0.000237284               0.000000000               0.000000000               0.000000000               0.000000000               0.000258930               0.000778895               0.000000070              -0.000000263               0.000259717               0.000259454               0.000000000               0.000000000               0.000000000               0.000000000               0.000270206               0.000812402               0.000000041              -0.000000223               0.000270872               0.000270649               0.000000000               0.000000000               0.000000000               0.000000000              -0.000006011              -0.000018139              -0.000000000               0.000000013              -0.000006051              -0.000006037               0.000000000               0.000000000               0.000000000               0.000000000              -0.000006638              -0.000018447              -0.000000000              -0.000000184              -0.000006088              -0.000006271               0.000000000               0.000000000               0.000000000               0.000000000              -0.000003620              -0.000011120               0.000000000               0.000000032              -0.000003718              -0.000003685               0.000000000               0.000000000               0.000000000               0.000000000               0.000003966               0.000011212              -0.000000000               0.000000086               0.000003709               0.000003794               0.000000000               0.000000000               0.000000000               0.000000000               0.000019387               0.000059058              -0.000000000              -0.000000112               0.000019723               0.000019611               0.000000000               0.000000000               0.000000000               0.000000000               0.000040158               0.000120627               0.000000000              -0.000000019               0.000040215               0.000040196               0.000000000               0.000000000               0.000000000               0.000000000               0.000061219               0.000183767              -0.000000000              -0.000000014               0.000061260               0.000061246               0.000000000               0.000000000               0.000000000               0.000000000               0.000082855               0.000249329              -0.000000000              -0.000000096               0.000083141               0.000083045               0.000000000               0.000000000               0.000000000               0.000000000               0.000105050               0.000315047              -0.000000000               0.000000013               0.000105010               0.000105023               0.000000000               0.000000000               0.000000000               0.000000000               0.000127471               0.000381601               0.000000000               0.000000102               0.000127165               0.000127267               0.000000000               0.000000000               0.000000000               0.000000000               0.000149348               0.000447841              -0.000000000               0.000000025               0.000149270               0.000149296               0.000000000               0.000000000               0.000000000               0.000000000               0.000171568               0.000514698              -0.000000000               0.000000001               0.000171564               0.000171565               0.000000000               0.000000000               0.000000000               0.000000000               0.000193843               0.000580710               0.000000000               0.000000102               0.000193534               0.000193636               0.000000000               0.000000000               0.000000000               0.000000000               0.000216134               0.000646766               0.000000000               0.000000204               0.000215518               0.000215723               0.000000000               0.000000000               0.000000000               0.000000000               0.000238049               0.000712582               0.000000000               0.000000196               0.000237460               0.000237655               0.000000000               0.000000000               0.000000000               0.000000000               0.000259822               0.000778810              -0.000000000               0.000000082               0.000259574               0.000259655               0.000000000               0.000000000               0.000000000               0.000000000               0.000270679               0.000812128              -0.000000000              -0.000000011               0.000270710               0.000270699               0.000000000               0.000000000               0.000000000               0.000000000               0.000000799              -0.000000082              -0.000000000               0.000000310              -0.000000131               0.000000179               0.000000000               0.000000000               0.000000000               0.000000000               0.000000842              -0.000000550              -0.000000000               0.000000385              -0.000000311               0.000000073               0.000000000               0.000000000               0.000000000               0.000000000               0.000000259              -0.000000046               0.000000000               0.000000103              -0.000000050               0.000000053               0.000000000               0.000000000               0.000000000               0.000000000              -0.000001291              -0.000000017              -0.000000000              -0.000000482               0.000000155              -0.000000327               0.000000000               0.000000000               0.000000000               0.000000000              -0.000001386              -0.000000436              -0.000000000              -0.000000465               0.000000010              -0.000000456               0.000000000               0.000000000               0.000000000               0.000000000               0.000000866              -0.000000141              -0.000000000               0.000000342              -0.000000161               0.000000181               0.000000000               0.000000000               0.000000000               0.000000000               0.000002887               0.000000940               0.000000000               0.000000965              -0.000000008               0.000000957               0.000000000               0.000000000               0.000000000               0.000000000               0.000001835               0.000001296              -0.000000000               0.000000526               0.000000257               0.000000783               0.000000000               0.000000000               0.000000000               0.000000000              -0.000001474               0.000000125              -0.000000000              -0.000000568               0.000000231              -0.000000337               0.000000000               0.000000000               0.000000000               0.000000000              -0.000003953              -0.000001862              -0.000000000              -0.000001250              -0.000000204              -0.000001454               0.000000000               0.000000000               0.000000000               0.000000000              -0.000003785              -0.000003240              -0.000000000              -0.000001014              -0.000000742              -0.000001756               0.000000000               0.000000000               0.000000000               0.000000000              -0.000001480              -0.000003132               0.000000000              -0.000000164              -0.000000989              -0.000001153               0.000000000               0.000000000               0.000000000               0.000000000               0.000001321              -0.000001613               0.000000000               0.000000697              -0.000000770              -0.000000073               0.000000000               0.000000000               0.000000000               0.000000000               0.000003101               0.000001022               0.000000000               0.000001035              -0.000000004               0.000001031               0.000000000               0.000000000               0.000000000               0.000000000               0.000003122               0.000004234              -0.000000000               0.000000641               0.000001198               0.000001839               0.000000000               0.000000000               0.000000000               0.000000000               0.000001787               0.000007135              -0.000000000              -0.000000222               0.000002452               0.000002230               0.000000000               0.000000000               0.000000000               0.000000000               0.000001007               0.000008641              -0.000000000              -0.000000703               0.000003114               0.000002412               0.000000000               0.000000000               0.000000000               0.000000000              -0.000000560              -0.000000428               0.000000267              -0.000000156              -0.000000091              -0.000000247               0.000000000               0.000000000               0.000000000               0.000000000              -0.000000681              -0.000000166              -0.000000205              -0.000000235               0.000000023              -0.000000212               0.000000000               0.000000000               0.000000000               0.000000000              -0.000000450              -0.000000052              -0.000000284              -0.000000162               0.000000037              -0.000000125               0.000000000               0.000000000               0.000000000               0.000000000               0.000000887               0.000000304               0.000000316               0.000000295               0.000000003               0.000000298               0.000000000               0.000000000               0.000000000               0.000000000               0.000001577               0.000000712               0.000000469               0.000000502               0.000000070               0.000000572               0.000000000               0.000000000               0.000000000               0.000000000              -0.000000083               0.000000261              -0.000000070              -0.000000064               0.000000108               0.000000045               0.000000000               0.000000000               0.000000000               0.000000000              -0.000002347              -0.000001079              -0.000000597              -0.000000745              -0.000000111              -0.000000856               0.000000000               0.000000000               0.000000000               0.000000000              -0.000002405              -0.000001766              -0.000000696              -0.000000681              -0.000000362              -0.000001043               0.000000000               0.000000000               0.000000000               0.000000000              -0.000000215              -0.000000911              -0.000000295               0.000000033              -0.000000315              -0.000000281               0.000000000               0.000000000               0.000000000               0.000000000               0.000002255               0.000001022               0.000000467               0.000000718               0.000000101               0.000000819               0.000000000               0.000000000               0.000000000               0.000000000               0.000003466               0.000002949               0.000001222               0.000000931               0.000000672               0.000001604               0.000000000               0.000000000               0.000000000               0.000000000               0.000003074               0.000004011               0.000001553               0.000000651               0.000001120               0.000001771               0.000000000               0.000000000               0.000000000               0.000000000               0.000001520               0.000004190               0.000001380               0.000000046               0.000001381               0.000001427               0.000000000               0.000000000               0.000000000               0.000000000              -0.000000354               0.000003588               0.000000916              -0.000000581               0.000001390               0.000000809               0.000000000               0.000000000               0.000000000               0.000000000              -0.000001521               0.000002100               0.000000374              -0.000000833               0.000000978               0.000000145               0.000000000               0.000000000               0.000000000               0.000000000              -0.000001309              -0.000000183              -0.000000027              -0.000000468               0.000000095              -0.000000373               0.000000000               0.000000000               0.000000000               0.000000000              -0.000001150              -0.000002119               0.000000099              -0.000000166              -0.000000651              -0.000000817               0.000000000               0.000000000               0.000000000               0.000000000              -0.000000628              -0.000000127              -0.000000448              -0.000000220               0.000000031              -0.000000189               0.000000000               0.000000000               0.000000000               0.000000000              -0.000000144               0.000000697               0.000000050              -0.000000141               0.000000279               0.000000138               0.000000000               0.000000000               0.000000000               0.000000000               0.000000725               0.000000579               0.000000686               0.000000200               0.000000126               0.000000326               0.000000000               0.000000000               0.000000000               0.000000000               0.000000384              -0.000000063              -0.000000002               0.000000152              -0.000000071               0.000000080               0.000000000               0.000000000               0.000000000               0.000000000              -0.000001440              -0.000000958              -0.000000842              -0.000000420              -0.000000179              -0.000000600               0.000000000               0.000000000               0.000000000               0.000000000              -0.000001571              -0.000001102              -0.000000558              -0.000000451              -0.000000217              -0.000000668               0.000000000               0.000000000               0.000000000               0.000000000               0.000000364               0.000000128               0.000000328               0.000000121               0.000000002               0.000000123               0.000000000               0.000000000               0.000000000               0.000000000               0.000002270               0.000001893               0.000001184               0.000000614               0.000000426               0.000001041               0.000000000               0.000000000               0.000000000               0.000000000               0.000003098               0.000003061               0.000001450               0.000000779               0.000000761               0.000001540               0.000000000               0.000000000               0.000000000               0.000000000               0.000002509               0.000002908               0.000000781               0.000000577               0.000000777               0.000001354               0.000000000               0.000000000               0.000000000               0.000000000               0.000000346               0.000001102              -0.000000554              -0.000000008               0.000000370               0.000000362               0.000000000               0.000000000               0.000000000               0.000000000              -0.000002699              -0.000001714              -0.000001774              -0.000000798              -0.000000305              -0.000001103               0.000000000               0.000000000               0.000000000               0.000000000              -0.000005221              -0.000005139              -0.000002302              -0.000001316              -0.000001274              -0.000002590               0.000000000               0.000000000               0.000000000               0.000000000              -0.000005843              -0.000009493              -0.000002204              -0.000001005              -0.000002830              -0.000003834               0.000000000               0.000000000               0.000000000               0.000000000              -0.000004282              -0.000014578              -0.000001722               0.000000216              -0.000004931              -0.000004715               0.000000000               0.000000000               0.000000000               0.000000000              -0.000001954              -0.000019361              -0.000000875               0.000001687              -0.000007016              -0.000005329               0.000000000               0.000000000               0.000000000               0.000000000              -0.000000994              -0.000021805              -0.000000294               0.000002353              -0.000008053              -0.000005700               0.000000000               0.000000000               0.000000000               0.000000000               0.000001471               0.000001233               0.000000326               0.000000398               0.000000278               0.000000676               0.000000000               0.000000000               0.000000000               0.000000000               0.000001115               0.000000647               0.000000432               0.000000337               0.000000103               0.000000440               0.000000000               0.000000000               0.000000000               0.000000000              -0.000000309              -0.000000352              -0.000000443              -0.000000072              -0.000000094              -0.000000165               0.000000000               0.000000000               0.000000000               0.000000000              -0.000001523              -0.000001098              -0.000000754              -0.000000434              -0.000000221              -0.000000655               0.000000000               0.000000000               0.000000000               0.000000000              -0.000000071              -0.000000569               0.000000389               0.000000045              -0.000000205              -0.000000160               0.000000000               0.000000000               0.000000000               0.000000000               0.000001855               0.000001146               0.000001112               0.000000552               0.000000198               0.000000750               0.000000000               0.000000000               0.000000000               0.000000000               0.000002110               0.000002792               0.000000850               0.000000442               0.000000783               0.000001225               0.000000000               0.000000000               0.000000000               0.000000000               0.000001069               0.000002311              -0.000000177               0.000000112               0.000000733               0.000000845               0.000000000               0.000000000               0.000000000               0.000000000              -0.000001483              -0.000001308              -0.000001572              -0.000000393              -0.000000305              -0.000000698               0.000000000               0.000000000               0.000000000               0.000000000              -0.000004978              -0.000006817              -0.000002496              -0.000001015              -0.000001934              -0.000002949               0.000000000               0.000000000               0.000000000               0.000000000              -0.000007385              -0.000011200              -0.000002271              -0.000001369              -0.000003277              -0.000004646               0.000000000               0.000000000               0.000000000               0.000000000              -0.000007124              -0.000013045              -0.000000981              -0.000001041              -0.000004001              -0.000005042               0.000000000               0.000000000               0.000000000               0.000000000              -0.000003831              -0.000013203               0.000000443               0.000000214              -0.000004472              -0.000004259               0.000000000               0.000000000               0.000000000               0.000000000               0.000001172              -0.000011654               0.000001311               0.000001896              -0.000004517              -0.000002620               0.000000000               0.000000000               0.000000000               0.000000000               0.000004913              -0.000006942               0.000001607               0.000002710              -0.000003217              -0.000000507               0.000000000               0.000000000               0.000000000               0.000000000               0.000004168               0.000003297               0.000001533               0.000001151               0.000000715               0.000001866               0.000000000               0.000000000               0.000000000               0.000000000               0.000005357               0.000015309              -0.000000323               0.000000095               0.000005071               0.000005166               0.000000000               0.000000000               0.000000000               0.000000000               0.000000672               0.000001079               0.000000415               0.000000117               0.000000320               0.000000438               0.000000000               0.000000000               0.000000000               0.000000000              -0.000000216              -0.000000446              -0.000000235              -0.000000025              -0.000000140              -0.000000165               0.000000000               0.000000000               0.000000000               0.000000000              -0.000000698              -0.000001266              -0.000000470              -0.000000103              -0.000000388              -0.000000491               0.000000000               0.000000000               0.000000000               0.000000000               0.000000512              -0.000000258               0.000000736               0.000000224              -0.000000161               0.000000063               0.000000000               0.000000000               0.000000000               0.000000000               0.000001470               0.000002229               0.000000543               0.000000272               0.000000652               0.000000925               0.000000000               0.000000000               0.000000000               0.000000000               0.000000611               0.000003096              -0.000000435              -0.000000158               0.000001085               0.000000927               0.000000000               0.000000000               0.000000000               0.000000000              -0.000000975              -0.000000751              -0.000000928              -0.000000272              -0.000000160              -0.000000432               0.000000000               0.000000000               0.000000000               0.000000000              -0.000003698              -0.000007704              -0.000001296              -0.000000424              -0.000002427              -0.000002850               0.000000000               0.000000000               0.000000000               0.000000000              -0.000005764              -0.000012155              -0.000001064              -0.000000642              -0.000003838              -0.000004480               0.000000000               0.000000000               0.000000000               0.000000000              -0.000004628              -0.000009606               0.000000169              -0.000000535              -0.000003024              -0.000003559               0.000000000               0.000000000               0.000000000               0.000000000               0.000000133              -0.000000372               0.000001931               0.000000097              -0.000000156              -0.000000060               0.000000000               0.000000000               0.000000000               0.000000000               0.000007886               0.000012059               0.000002686               0.000001450               0.000003536               0.000004986               0.000000000               0.000000000               0.000000000               0.000000000               0.000016414               0.000026490               0.000001692               0.000002844               0.000007882               0.000010726               0.000000000               0.000000000               0.000000000               0.000000000               0.000022183               0.000044633              -0.000000368               0.000002739               0.000013964               0.000016704               0.000000000               0.000000000               0.000000000               0.000000000               0.000021870               0.000069177              -0.000002140              -0.000000446               0.000023208               0.000022762               0.000000000               0.000000000               0.000000000               0.000000000               0.000013447               0.000102387              -0.000001927              -0.000007756               0.000036714               0.000028958               0.000000000               0.000000000               0.000000000               0.000000000               0.000013929               0.000132460              -0.000005040              -0.000011334               0.000047931               0.000036597               0.000000000               0.000000000               0.000000000               0.000000000              -0.000001001              -0.000000704              -0.000000573              -0.000000287              -0.000000139              -0.000000426               0.000000000               0.000000000               0.000000000               0.000000000              -0.000000906              -0.000001626              -0.000000321              -0.000000136              -0.000000497              -0.000000633               0.000000000               0.000000000               0.000000000               0.000000000               0.000000112              -0.000000499               0.000000508               0.000000104              -0.000000201              -0.000000097               0.000000000               0.000000000               0.000000000               0.000000000               0.000000982               0.000002770               0.000000111               0.000000022               0.000000916               0.000000938               0.000000000               0.000000000               0.000000000               0.000000000               0.000000562               0.000002814              -0.000000533              -0.000000141               0.000000985               0.000000844               0.000000000               0.000000000               0.000000000               0.000000000              -0.000001305              -0.000003941              -0.000000145               0.000000003              -0.000001315              -0.000001312               0.000000000               0.000000000               0.000000000               0.000000000              -0.000004016              -0.000010926              -0.000000456              -0.000000140              -0.000003595              -0.000003735               0.000000000               0.000000000               0.000000000               0.000000000              -0.000003876              -0.000008530              -0.000000369              -0.000000387              -0.000002714              -0.000003102               0.000000000               0.000000000               0.000000000               0.000000000               0.000001703               0.000006462               0.000000882              -0.000000169               0.000002210               0.000002041               0.000000000               0.000000000               0.000000000               0.000000000               0.000011448               0.000030809               0.000002276               0.000000442               0.000010122               0.000010564               0.000000000               0.000000000               0.000000000               0.000000000               0.000023764               0.000058666               0.000001628               0.000001578               0.000019029               0.000020608               0.000000000               0.000000000               0.000000000               0.000000000               0.000035486               0.000087361              -0.000001940               0.000002387               0.000028324               0.000030712               0.000000000               0.000000000               0.000000000               0.000000000               0.000043112               0.000118809              -0.000007104               0.000001316               0.000039164               0.000040480               0.000000000               0.000000000               0.000000000               0.000000000               0.000043544               0.000155439              -0.000011654              -0.000003101               0.000052846               0.000049745               0.000000000               0.000000000               0.000000000               0.000000000               0.000035441               0.000198428              -0.000013046              -0.000011513               0.000069980               0.000058467               0.000000000               0.000000000               0.000000000               0.000000000               0.000019823               0.000246233              -0.000009122              -0.000023346               0.000089859               0.000066513               0.000000000               0.000000000               0.000000000               0.000000000               0.000018076               0.000282803              -0.000010067              -0.000028572               0.000103791               0.000075219               0.000000000               0.000000000               0.000000000               0.000000000              -0.000001413              -0.000002773              -0.000000664              -0.000000183              -0.000000863              -0.000001047               0.000000000               0.000000000               0.000000000               0.000000000              -0.000000734              -0.000001638               0.000000026              -0.000000070              -0.000000523              -0.000000593               0.000000000               0.000000000               0.000000000               0.000000000               0.000001094               0.000003017               0.000000185               0.000000033               0.000000995               0.000001028               0.000000000               0.000000000               0.000000000               0.000000000               0.000001176               0.000003395              -0.000000285               0.000000017               0.000001126               0.000001143               0.000000000               0.000000000               0.000000000               0.000000000              -0.000002131              -0.000006299               0.000000144              -0.000000012              -0.000002096              -0.000002108               0.000000000               0.000000000               0.000000000               0.000000000              -0.000004669              -0.000012139              -0.000000331              -0.000000234              -0.000003968              -0.000004202               0.000000000               0.000000000               0.000000000               0.000000000              -0.000000827              -0.000000374              -0.000000285              -0.000000263              -0.000000037              -0.000000300               0.000000000               0.000000000               0.000000000               0.000000000               0.000010629               0.000028993               0.000001059               0.000000362               0.000009544               0.000009905               0.000000000               0.000000000               0.000000000               0.000000000               0.000025920               0.000069374               0.000001885               0.000001048               0.000022775               0.000023823               0.000000000               0.000000000               0.000000000               0.000000000               0.000041959               0.000112896               0.000000550               0.000001622               0.000037091               0.000038713               0.000000000               0.000000000               0.000000000               0.000000000               0.000055823               0.000155567              -0.000004280               0.000001488               0.000051359               0.000052847               0.000000000               0.000000000               0.000000000               0.000000000               0.000064762               0.000199368              -0.000011249              -0.000000635               0.000066667               0.000066032               0.000000000               0.000000000               0.000000000               0.000000000               0.000065902               0.000247111              -0.000017874              -0.000006176               0.000084428               0.000078252               0.000000000               0.000000000               0.000000000               0.000000000               0.000057818               0.000299334              -0.000021286              -0.000015735               0.000105022               0.000089287               0.000000000               0.000000000               0.000000000               0.000000000               0.000042373               0.000353816              -0.000019688              -0.000028337               0.000127383               0.000099046               0.000000000               0.000000000               0.000000000               0.000000000               0.000022374               0.000405784              -0.000012435              -0.000042333               0.000149371               0.000107038               0.000000000               0.000000000               0.000000000               0.000000000               0.000017834               0.000440294              -0.000011105              -0.000048349               0.000162879               0.000114531               0.000000000               0.000000000               0.000000000               0.000000000              -0.000001104              -0.000003392               0.000000029               0.000000010              -0.000001134              -0.000001124               0.000000000               0.000000000               0.000000000               0.000000000               0.000000416               0.000001561               0.000000140              -0.000000039               0.000000533               0.000000494               0.000000000               0.000000000               0.000000000               0.000000000               0.000001466               0.000004713              -0.000000094              -0.000000039               0.000001584               0.000001545               0.000000000               0.000000000               0.000000000               0.000000000              -0.000002218              -0.000006466              -0.000000083              -0.000000023              -0.000002148              -0.000002171               0.000000000               0.000000000               0.000000000               0.000000000              -0.000004247              -0.000012576              -0.000000298              -0.000000020              -0.000004185              -0.000004206               0.000000000               0.000000000               0.000000000               0.000000000               0.000003007               0.000006942              -0.000000232               0.000000260               0.000002227               0.000002487               0.000000000               0.000000000               0.000000000               0.000000000               0.000017904               0.000048010               0.000000856               0.000000713               0.000015765               0.000016478               0.000000000               0.000000000               0.000000000               0.000000000               0.000036371               0.000101681               0.000001285               0.000000929               0.000033584               0.000034513               0.000000000               0.000000000               0.000000000               0.000000000               0.000055385               0.000158583               0.000000495               0.000000947               0.000052545               0.000053492               0.000000000               0.000000000               0.000000000               0.000000000               0.000072416               0.000214341              -0.000003504               0.000000363               0.000071325               0.000071689               0.000000000               0.000000000               0.000000000               0.000000000               0.000084392               0.000269967              -0.000010453              -0.000002099               0.000090688               0.000088589               0.000000000               0.000000000               0.000000000               0.000000000               0.000087846               0.000328794              -0.000017842              -0.000008157               0.000112316               0.000104159               0.000000000               0.000000000               0.000000000               0.000000000               0.000081098               0.000391372              -0.000022823              -0.000018510               0.000136626               0.000118116               0.000000000               0.000000000               0.000000000               0.000000000               0.000066150               0.000455782              -0.000023335              -0.000032166               0.000162648               0.000130482               0.000000000               0.000000000               0.000000000               0.000000000               0.000045799               0.000517435              -0.000019192              -0.000047505               0.000188311               0.000140807               0.000000000               0.000000000               0.000000000               0.000000000               0.000023501               0.000572013              -0.000011190              -0.000062689               0.000211565               0.000148877               0.000000000               0.000000000               0.000000000               0.000000000               0.000015748               0.000605264              -0.000009161              -0.000069752               0.000225003               0.000155251               0.000000000               0.000000000               0.000000000               0.000000000               0.000000579               0.000000059               0.000000973               0.000000210              -0.000000050               0.000000160               0.000000000               0.000000000               0.000000000               0.000000000               0.000002084               0.000005845               0.000000187               0.000000051               0.000001931               0.000001982               0.000000000               0.000000000               0.000000000               0.000000000              -0.000000725              -0.000001069              -0.000000495              -0.000000138              -0.000000310              -0.000000449               0.000000000               0.000000000               0.000000000               0.000000000              -0.000005268              -0.000015651              -0.000000046              -0.000000019              -0.000005211              -0.000005230               0.000000000               0.000000000               0.000000000               0.000000000              -0.000000139              -0.000001225               0.000000386               0.000000101              -0.000000442              -0.000000341               0.000000000               0.000000000               0.000000000               0.000000000               0.000014113               0.000041162               0.000001447               0.000000147               0.000013671               0.000013819               0.000000000               0.000000000               0.000000000               0.000000000               0.000035698               0.000101854               0.000002641               0.000000655               0.000033733               0.000034388               0.000000000               0.000000000               0.000000000               0.000000000               0.000058723               0.000168804               0.000003345               0.000000921               0.000055961               0.000056881               0.000000000               0.000000000               0.000000000               0.000000000               0.000079437               0.000234364               0.000001575               0.000000493               0.000077956               0.000078449               0.000000000               0.000000000               0.000000000               0.000000000               0.000096084               0.000297675              -0.000003015              -0.000001178               0.000099617               0.000098439               0.000000000               0.000000000               0.000000000               0.000000000               0.000106029               0.000362330              -0.000009076              -0.000005530               0.000122619               0.000117088               0.000000000               0.000000000               0.000000000               0.000000000               0.000107189               0.000431776              -0.000014909              -0.000013776               0.000148516               0.000134740               0.000000000               0.000000000               0.000000000               0.000000000               0.000099310               0.000505136              -0.000018089              -0.000025901               0.000177011               0.000151110               0.000000000               0.000000000               0.000000000               0.000000000               0.000085509               0.000579349              -0.000017534              -0.000040353               0.000206565               0.000166213               0.000000000               0.000000000               0.000000000               0.000000000               0.000068556               0.000649847              -0.000013067              -0.000055522               0.000235121               0.000179599               0.000000000               0.000000000               0.000000000               0.000000000               0.000051127               0.000713536              -0.000006438              -0.000070019               0.000261183               0.000191164               0.000000000               0.000000000               0.000000000               0.000000000               0.000039804               0.000745436              -0.000003056              -0.000078253               0.000274560               0.000196308               0.000000000               0.000000000               0.000000000               0.000000000               0.000003070               0.000006717               0.000001485               0.000000312               0.000002135               0.000002447               0.000000000               0.000000000               0.000000000               0.000000000               0.000002930               0.000007481               0.000000246               0.000000164               0.000002439               0.000002603               0.000000000               0.000000000               0.000000000               0.000000000              -0.000003150              -0.000009073              -0.000000208              -0.000000047              -0.000003009              -0.000003056               0.000000000               0.000000000               0.000000000               0.000000000              -0.000005237              -0.000015555              -0.000000050              -0.000000020              -0.000005178              -0.000005198               0.000000000               0.000000000               0.000000000               0.000000000               0.000003883               0.000012585              -0.000000410              -0.000000117               0.000004234               0.000004117               0.000000000               0.000000000               0.000000000               0.000000000               0.000021305               0.000064335               0.000000095              -0.000000052               0.000021462               0.000021410               0.000000000               0.000000000               0.000000000               0.000000000               0.000044673               0.000131711               0.000000760               0.000000289               0.000043807               0.000044096               0.000000000               0.000000000               0.000000000               0.000000000               0.000068403               0.000200893               0.000001029               0.000000539               0.000066784               0.000067323               0.000000000               0.000000000               0.000000000               0.000000000               0.000091085               0.000271078              -0.000000431               0.000000272               0.000090268               0.000090540               0.000000000               0.000000000               0.000000000               0.000000000               0.000110769               0.000338614              -0.000003373              -0.000000788               0.000113133               0.000112345               0.000000000               0.000000000               0.000000000               0.000000000               0.000125540               0.000405481              -0.000007214              -0.000003608               0.000136362               0.000132754               0.000000000               0.000000000               0.000000000               0.000000000               0.000133322               0.000474091              -0.000011191              -0.000009266               0.000161117               0.000151852               0.000000000               0.000000000               0.000000000               0.000000000               0.000133414               0.000546071              -0.000014019              -0.000018229               0.000188098               0.000169869               0.000000000               0.000000000               0.000000000               0.000000000               0.000127105               0.000620171              -0.000014495              -0.000029857               0.000216674               0.000186817               0.000000000               0.000000000               0.000000000               0.000000000               0.000117253               0.000695345              -0.000011681              -0.000042948               0.000246095               0.000203147               0.000000000               0.000000000               0.000000000               0.000000000               0.000106670               0.000770020              -0.000006200              -0.000056251               0.000275421               0.000219170               0.000000000               0.000000000               0.000000000               0.000000000               0.000094631               0.000802140              -0.000000616              -0.000064781               0.000288971               0.000224190               0.000000000               0.000000000               0.000000000               0.000000000               0.000004405               0.000012269               0.000001107               0.000000118               0.000004050               0.000004168               0.000000000               0.000000000               0.000000000               0.000000000               0.000002433               0.000005311               0.000000368               0.000000248               0.000001687               0.000001936               0.000000000               0.000000000               0.000000000               0.000000000              -0.000004895              -0.000014637              -0.000000079              -0.000000006              -0.000004877              -0.000004883               0.000000000               0.000000000               0.000000000               0.000000000              -0.000003675              -0.000011055              -0.000000163               0.000000004              -0.000003686              -0.000003682               0.000000000               0.000000000               0.000000000               0.000000000               0.000007631               0.000022884               0.000000224               0.000000001               0.000007628               0.000007629               0.000000000               0.000000000               0.000000000               0.000000000               0.000025259               0.000077611              -0.000000319              -0.000000229               0.000025947               0.000025717               0.000000000               0.000000000               0.000000000               0.000000000               0.000047957               0.000144283              -0.000000013              -0.000000051               0.000048111               0.000048059               0.000000000               0.000000000               0.000000000               0.000000000               0.000072322               0.000213804               0.000000540               0.000000395               0.000071135               0.000071531               0.000000000               0.000000000               0.000000000               0.000000000               0.000095866               0.000284744               0.000000471               0.000000357               0.000094795               0.000095152               0.000000000               0.000000000               0.000000000               0.000000000               0.000117318               0.000353066              -0.000000424              -0.000000139               0.000117734               0.000117595               0.000000000               0.000000000               0.000000000               0.000000000               0.000137034               0.000420598              -0.000002251              -0.000001187               0.000140593               0.000139406               0.000000000               0.000000000               0.000000000               0.000000000               0.000152898               0.000487502              -0.000004536              -0.000003601               0.000163699               0.000160098               0.000000000               0.000000000               0.000000000               0.000000000               0.000163974               0.000556278              -0.000006888              -0.000008045               0.000188106               0.000180061               0.000000000               0.000000000               0.000000000               0.000000000               0.000169466               0.000627102              -0.000008230              -0.000014838               0.000213978               0.000199140               0.000000000               0.000000000               0.000000000               0.000000000               0.000170700               0.000699775              -0.000007833              -0.000023459               0.000241076               0.000217616               0.000000000               0.000000000               0.000000000               0.000000000               0.000169300               0.000772654              -0.000004811              -0.000033094               0.000268580               0.000235486               0.000000000               0.000000000               0.000000000               0.000000000               0.000162385               0.000804466              -0.000000498              -0.000039664               0.000281374               0.000241710               0.000000000               0.000000000               0.000000000               0.000000000               0.000003246               0.000012114              -0.000000189              -0.000000297               0.000004137               0.000003840               0.000000000               0.000000000               0.000000000               0.000000000               0.000000635               0.000000179               0.000000378               0.000000216              -0.000000012               0.000000203               0.000000000               0.000000000               0.000000000               0.000000000              -0.000005263              -0.000016634               0.000000355               0.000000106              -0.000005580              -0.000005474               0.000000000               0.000000000               0.000000000               0.000000000              -0.000002555              -0.000006218              -0.000000570              -0.000000181              -0.000002013              -0.000002193               0.000000000               0.000000000               0.000000000               0.000000000               0.000011020               0.000032542               0.000000228               0.000000065               0.000010825               0.000010890               0.000000000               0.000000000               0.000000000               0.000000000               0.000030414               0.000090828               0.000000173               0.000000052               0.000030258               0.000030310               0.000000000               0.000000000               0.000000000               0.000000000               0.000051825               0.000156045              -0.000000090              -0.000000071               0.000052038               0.000051967               0.000000000               0.000000000               0.000000000               0.000000000               0.000074653               0.000223927               0.000000200               0.000000004               0.000074640               0.000074644               0.000000000               0.000000000               0.000000000               0.000000000               0.000098069               0.000292944               0.000000309               0.000000158               0.000097595               0.000097752               0.000000000               0.000000000               0.000000000               0.000000000               0.000121075               0.000362510               0.000000327               0.000000089               0.000120806               0.000120895               0.000000000               0.000000000               0.000000000               0.000000000               0.000143786               0.000431538              -0.000000023              -0.000000022               0.000143852               0.000143830               0.000000000               0.000000000               0.000000000               0.000000000               0.000164894               0.000498701              -0.000000585              -0.000000502               0.000166399               0.000165897               0.000000000               0.000000000               0.000000000               0.000000000               0.000183687               0.000566118              -0.000001666              -0.000001882               0.000189332               0.000187449               0.000000000               0.000000000               0.000000000               0.000000000               0.000199120               0.000634107              -0.000002665              -0.000004593               0.000212898               0.000208305               0.000000000               0.000000000               0.000000000               0.000000000               0.000211175               0.000703866              -0.000003263              -0.000008793               0.000237551               0.000228758               0.000000000               0.000000000               0.000000000               0.000000000               0.000220359               0.000774556              -0.000002568              -0.000014185               0.000262911               0.000248726               0.000000000               0.000000000               0.000000000               0.000000000               0.000220970               0.000808298              -0.000000579              -0.000018173               0.000275488               0.000257314               0.000000000               0.000000000               0.000000000               0.000000000               0.000000778               0.000006563              -0.000001465              -0.000000529               0.000002364               0.000001835               0.000000000               0.000000000               0.000000000               0.000000000              -0.000002171              -0.000005938               0.000000089              -0.000000072              -0.000001955              -0.000002027               0.000000000               0.000000000               0.000000000               0.000000000              -0.000004607              -0.000015820               0.000000488               0.000000250              -0.000005356              -0.000005107               0.000000000               0.000000000               0.000000000               0.000000000              -0.000000389              -0.000000566              -0.000000078              -0.000000075              -0.000000164              -0.000000239               0.000000000               0.000000000               0.000000000               0.000000000               0.000013427               0.000041077              -0.000000226              -0.000000099               0.000013725               0.000013626               0.000000000               0.000000000               0.000000000               0.000000000               0.000033409               0.000100805              -0.000000050              -0.000000072               0.000033625               0.000033553               0.000000000               0.000000000               0.000000000               0.000000000               0.000054883               0.000165276               0.000000161              -0.000000078               0.000055118               0.000055039               0.000000000               0.000000000               0.000000000               0.000000000               0.000077952               0.000233274               0.000000172               0.000000073               0.000077733               0.000077806               0.000000000               0.000000000               0.000000000               0.000000000               0.000101104               0.000301172               0.000000230               0.000000267               0.000100300               0.000100568               0.000000000               0.000000000               0.000000000               0.000000000               0.000123637               0.000369411               0.000000146               0.000000188               0.000123073               0.000123261               0.000000000               0.000000000               0.000000000               0.000000000               0.000146097               0.000437686               0.000000273               0.000000076               0.000145869               0.000145944               0.000000000               0.000000000               0.000000000               0.000000000               0.000169091               0.000505726               0.000000446               0.000000193               0.000168509               0.000168703               0.000000000               0.000000000               0.000000000               0.000000000               0.000191763               0.000572859               0.000000524               0.000000304               0.000190850               0.000191154               0.000000000               0.000000000               0.000000000               0.000000000               0.000213357               0.000639945               0.000000329               0.000000016               0.000213308               0.000213323               0.000000000               0.000000000               0.000000000               0.000000000               0.000233190               0.000707528              -0.000000033              -0.000000995               0.000236172               0.000235177               0.000000000               0.000000000               0.000000000               0.000000000               0.000251198               0.000776150              -0.000000277              -0.000002820               0.000259654               0.000256834               0.000000000               0.000000000               0.000000000               0.000000000               0.000258672               0.000810904               0.000000144              -0.000004361               0.000271752               0.000267391               0.000000000               0.000000000               0.000000000               0.000000000              -0.000001347              -0.000001480              -0.000002322              -0.000000320              -0.000000387              -0.000000707               0.000000000               0.000000000               0.000000000               0.000000000              -0.000004258              -0.000010699              -0.000000064              -0.000000259              -0.000003480              -0.000003739               0.000000000               0.000000000               0.000000000               0.000000000              -0.000004615              -0.000014728               0.000000144               0.000000110              -0.000004946              -0.000004836               0.000000000               0.000000000               0.000000000               0.000000000               0.000001510               0.000003946              -0.000000028               0.000000073               0.000001291               0.000001364               0.000000000               0.000000000               0.000000000               0.000000000               0.000016332               0.000049300               0.000000390              -0.000000038               0.000016446               0.000016408               0.000000000               0.000000000               0.000000000               0.000000000               0.000036329               0.000109135               0.000000038              -0.000000018               0.000036384               0.000036365               0.000000000               0.000000000               0.000000000               0.000000000               0.000057487               0.000173114              -0.000000149              -0.000000082               0.000057731               0.000057650               0.000000000               0.000000000               0.000000000               0.000000000               0.000079697               0.000240638              -0.000000335              -0.000000193               0.000080276               0.000080083               0.000000000               0.000000000               0.000000000               0.000000000               0.000102224               0.000306821              -0.000000061              -0.000000019               0.000102279               0.000102260               0.000000000               0.000000000               0.000000000               0.000000000               0.000125310               0.000374288               0.000000085               0.000000205               0.000124693               0.000124898               0.000000000               0.000000000               0.000000000               0.000000000               0.000147614               0.000441544               0.000000086               0.000000162               0.000147126               0.000147288               0.000000000               0.000000000               0.000000000               0.000000000               0.000170094               0.000509505               0.000000093               0.000000097               0.000169801               0.000169898               0.000000000               0.000000000               0.000000000               0.000000000               0.000193032               0.000576836               0.000000292               0.000000283               0.000192182               0.000192465               0.000000000               0.000000000               0.000000000               0.000000000               0.000216442               0.000643904               0.000000441               0.000000678               0.000214407               0.000215084               0.000000000               0.000000000               0.000000000               0.000000000               0.000239542               0.000710521               0.000000477               0.000001013               0.000236500               0.000237513               0.000000000               0.000000000               0.000000000               0.000000000               0.000262000               0.000777717               0.000000244               0.000001035               0.000258891               0.000259927               0.000000000               0.000000000               0.000000000               0.000000000               0.000272908               0.000812170               0.000000236               0.000000819               0.000270448               0.000271267               0.000000000               0.000000000               0.000000000               0.000000000              -0.000003448              -0.000011159              -0.000002572               0.000000102              -0.000003754              -0.000003652               0.000000000               0.000000000               0.000000000               0.000000000              -0.000005010              -0.000014873              -0.000000196              -0.000000019              -0.000004951              -0.000004971               0.000000000               0.000000000               0.000000000               0.000000000              -0.000004465              -0.000012474               0.000000636              -0.000000115              -0.000004120              -0.000004235               0.000000000               0.000000000               0.000000000               0.000000000               0.000002234               0.000007268              -0.000000355              -0.000000071               0.000002446               0.000002376               0.000000000               0.000000000               0.000000000               0.000000000               0.000018130               0.000054345              -0.000000172               0.000000006               0.000018113               0.000018118               0.000000000               0.000000000               0.000000000               0.000000000               0.000038784               0.000115907               0.000000177               0.000000056               0.000038617               0.000038673               0.000000000               0.000000000               0.000000000               0.000000000               0.000059956               0.000178995               0.000000286               0.000000109               0.000059628               0.000059737               0.000000000               0.000000000               0.000000000               0.000000000               0.000081812               0.000245428               0.000000230               0.000000001               0.000081808               0.000081809               0.000000000               0.000000000               0.000000000               0.000000000               0.000103425               0.000311772              -0.000000058              -0.000000187               0.000103985               0.000103798               0.000000000               0.000000000               0.000000000               0.000000000               0.000125872               0.000378694              -0.000000216              -0.000000135               0.000126275               0.000126140               0.000000000               0.000000000               0.000000000               0.000000000               0.000148302               0.000444780              -0.000000152               0.000000016               0.000148253               0.000148269               0.000000000               0.000000000               0.000000000               0.000000000               0.000170573               0.000511671              -0.000000245               0.000000006               0.000170553               0.000170559               0.000000000               0.000000000               0.000000000               0.000000000               0.000192563               0.000578440              -0.000000255              -0.000000094               0.000192843               0.000192749               0.000000000               0.000000000               0.000000000               0.000000000               0.000214936               0.000645596              -0.000000202              -0.000000098               0.000215229               0.000215131               0.000000000               0.000000000               0.000000000               0.000000000               0.000237654               0.000712217              -0.000000063               0.000000093               0.000237372               0.000237465               0.000000000               0.000000000               0.000000000               0.000000000               0.000260634               0.000778806              -0.000000028               0.000000387               0.000259470               0.000259857               0.000000000               0.000000000               0.000000000               0.000000000               0.000272408               0.000812666              -0.000000040               0.000000570               0.000270696               0.000271266               0.000000000               0.000000000               0.000000000               0.000000000              -0.000005373              -0.000017444              -0.000001357               0.000000166              -0.000005870              -0.000005704               0.000000000               0.000000000               0.000000000               0.000000000              -0.000006054              -0.000018201              -0.000000438               0.000000005              -0.000006069              -0.000006064               0.000000000               0.000000000               0.000000000               0.000000000              -0.000003872              -0.000010919               0.000000375              -0.000000087              -0.000003611              -0.000003698               0.000000000               0.000000000               0.000000000               0.000000000               0.000003632               0.000011186               0.000000133              -0.000000036               0.000003741               0.000003704               0.000000000               0.000000000               0.000000000               0.000000000               0.000019048               0.000057374              -0.000000110              -0.000000029               0.000019134               0.000019105               0.000000000               0.000000000               0.000000000               0.000000000               0.000039235               0.000118234              -0.000000019              -0.000000066               0.000039433               0.000039367               0.000000000               0.000000000               0.000000000               0.000000000               0.000060678               0.000182401              -0.000000082              -0.000000046               0.000060815               0.000060769               0.000000000               0.000000000               0.000000000               0.000000000               0.000083278               0.000248934              -0.000000030               0.000000113               0.000082940               0.000083052               0.000000000               0.000000000               0.000000000               0.000000000               0.000105232               0.000314802               0.000000134               0.000000112               0.000104896               0.000105007               0.000000000               0.000000000               0.000000000               0.000000000               0.000127089               0.000381377               0.000000103              -0.000000014               0.000127129               0.000127115               0.000000000               0.000000000               0.000000000               0.000000000               0.000148997               0.000447182               0.000000100              -0.000000024               0.000149067               0.000149043               0.000000000               0.000000000               0.000000000               0.000000000               0.000171163               0.000513417               0.000000108               0.000000009               0.000171134               0.000171143               0.000000000               0.000000000               0.000000000               0.000000000               0.000193013               0.000579348               0.000000071              -0.000000038               0.000193127               0.000193088               0.000000000               0.000000000               0.000000000               0.000000000               0.000214892               0.000645925              -0.000000040              -0.000000156               0.000215358               0.000215202               0.000000000               0.000000000               0.000000000               0.000000000               0.000236779               0.000712365              -0.000000086              -0.000000253               0.000237537               0.000237284               0.000000000               0.000000000               0.000000000               0.000000000               0.000258930               0.000778895              -0.000000070              -0.000000263               0.000259717               0.000259454               0.000000000               0.000000000               0.000000000               0.000000000               0.000270206               0.000812402              -0.000000041              -0.000000223               0.000270872               0.000270649               0.000000000               0.000000000               0.000000000               0.000000000               0.000000000               0.000000000               0.000000000               0.000000000               0.000000000               0.000000000               0.000000000               0.000000000               0.000000000               0.000000000               0.000000000               0.000000000               0.000000000               0.000000000               0.000000000               0.000000000               0.000000000               0.000000000               0.000000000               0.000000000               0.000000000               0.000000000               0.000000000               0.000000000               0.000000000               0.000000000               0.000000000               0.000000000               0.000000000               0.000000000               0.000000000               0.000000000               0.000000000               0.000000000               0.000000000               0.000000000               0.000000000               0.000000000               0.000000000               0.000000000               0.000000000               0.000000000               0.000000000               0.000000000               0.000000000               0.000000000               0.000000000               0.000000000               0.000000000               0.000000000               0.000000000               0.000000000               0.000000000               0.000000000               0.000000000               0.000000000               0.000000000               0.000000000               0.000000000               0.000000000               0.000000000               0.000000000               0.000000000               0.000000000               0.000000000               0.000000000               0.000000000               0.000000000               0.000000000               0.000000000               0.000000000               0.000000000               0.000000000               0.000000000               0.000000000               0.000000000               0.000000000               0.000000000               0.000000000               0.000000000               0.000000000               0.000000000               0.000000000               0.000000000               0.000000000               0.000000000               0.000000000               0.000000000               0.000000000               0.000000000               0.000000000               0.000000000               0.000000000               0.000000000               0.000000000               0.000000000               0.000000000               0.000000000               0.000000000               0.000000000               0.000000000               0.000000000               0.000000000               0.000000000               0.000000000               0.000000000               0.000000000               0.000000000               0.000000000               0.000000000               0.000000000               0.000000000               0.000000000               0.000000000               0.000000000               0.000000000               0.000000000               0.000000000               0.000000000               0.000000000               0.000000000               0.000000000               0.000000000               0.000000000               0.000000000               0.000000000               0.000000000               0.000000000               0.000000000               0.000000000               0.000000000               0.000000000               0.000000000               0.000000000               0.000000000               0.000000000               0.000000000               0.000000000               0.000000000               0.000000000               0.000000000               0.000000000               0.000000000               0.000000000               0.000000000               0.000000000               0.000000000               0.000000000               0.000000000               0.000000000               0.000000000               0.000000000               0.000000000               0.000000000               0.000000000               0.000000000               0.000000000               0.000000000               0.000000000               0.000000000               0.000000000               0.000000000               0.000000000               0.000000000               0.000000000               0.000000000               0.000000000               0.000000000               0.000000000               0.000000000               0.000000000               0.000000000               0.000000000               0.000000000               0.000000000               0.000000000               0.000000000               0.000000000               0.000000000               0.000000000               0.000000000               0.000000000               0.000000000               0.000000000               0.000000000               0.000000000               0.000000000               0.000000000               0.000000000               0.000000000               0.000000000               0.000000000               0.000000000               0.000000000               0.000000000               0.000000000               0.000000000               0.000000000               0.000000000               0.000000000               0.000000000               0.000000000               0.000000000               0.000000000               0.000000000               0.000000000               0.000000000               0.000000000               0.000000000               0.000000000               0.000000000               0.000000000               0.000000000               0.000000000               0.000000000               0.000000000               0.000000000               0.000000000               0.000000000               0.000000000               0.000000000               0.000000000               0.000000000               0.000000000               0.000000000               0.000000000               0.000000000               0.000000000               0.000000000               0.000000000               0.000000000               0.000000000               0.000000000               0.000000000               0.000000000               0.000000000               0.000000000               0.000000000               0.000000000               0.000000000               0.000000000               0.000000000               0.000000000               0.000000000               0.000000000               0.000000000               0.000000000               0.000000000               0.000000000               0.000000000               0.000000000               0.000000000               0.000000000               0.000000000               0.000000000               0.000000000               0.000000000               0.000000000               0.000000000               0.000000000               0.000000000               0.000000000               0.000000000               0.000000000               0.000000000               0.000000000               0.000000000               0.000000000               0.000000000               0.000000000               0.000000000               0.000000000               0.000000000               0.000000000               0.000000000               0.000000000               0.000000000               0.000000000               0.000000000               0.000000000               0.000000000               0.000000000               0.000000000               0.000000000               0.000000000               0.000000000               0.000000000               0.000000000               0.000000000               0.000000000               0.000000000               0.000000000               0.000000000               0.000000000               0.000000000               0.000000000               0.000000000               0.000000000               0.000000000               0.000000000               0.000000000               0.000000000               0.000000000               0.000000000               0.000000000               0.000000000               0.000000000               0.000000000               0.000000000               0.000000000               0.000000000               0.000000000               0.000000000               0.000000000               0.000000000               0.000000000               0.000000000               0.000000000               0.000000000               0.000000000               0.000000000               0.000000000               0.000000000               0.000000000               0.000000000               0.000000000               0.000000000               0.000000000               0.000000000               0.000000000               0.000000000               0.000000000               0.000000000               0.000000000               0.000000000               0.000000000               0.000000000               0.000000000               0.000000000               0.000000000              -0.000000560              -0.000000428              -0.000000267              -0.000000156              -0.000000091              -0.000000247               0.000000000               0.000000000               0.000000000               0.000000000              -0.000000681              -0.000000166               0.000000205              -0.000000235               0.000000023              -0.000000212               0.000000000               0.000000000               0.000000000               0.000000000              -0.000000450              -0.000000052               0.000000284              -0.000000162               0.000000037              -0.000000125               0.000000000               0.000000000               0.000000000               0.000000000               0.000000887               0.000000304              -0.000000316               0.000000295               0.000000003               0.000000298               0.000000000               0.000000000               0.000000000               0.000000000               0.000001577               0.000000712              -0.000000469               0.000000502               0.000000070               0.000000572               0.000000000               0.000000000               0.000000000               0.000000000              -0.000000083               0.000000261               0.000000070              -0.000000064               0.000000108               0.000000045               0.000000000               0.000000000               0.000000000               0.000000000              -0.000002347              -0.000001079               0.000000597              -0.000000745              -0.000000111              -0.000000856               0.000000000               0.000000000               0.000000000               0.000000000              -0.000002405              -0.000001766               0.000000696              -0.000000681              -0.000000362              -0.000001043               0.000000000               0.000000000               0.000000000               0.000000000              -0.000000215              -0.000000911               0.000000295               0.000000033              -0.000000315              -0.000000281               0.000000000               0.000000000               0.000000000               0.000000000               0.000002255               0.000001022              -0.000000467               0.000000718               0.000000101               0.000000819               0.000000000               0.000000000               0.000000000               0.000000000               0.000003466               0.000002949              -0.000001222               0.000000931               0.000000672               0.000001604               0.000000000               0.000000000               0.000000000               0.000000000               0.000003074               0.000004011              -0.000001553               0.000000651               0.000001120               0.000001771               0.000000000               0.000000000               0.000000000               0.000000000               0.000001520               0.000004190              -0.000001380               0.000000046               0.000001381               0.000001427               0.000000000               0.000000000               0.000000000               0.000000000              -0.000000354               0.000003588              -0.000000916              -0.000000581               0.000001390               0.000000809               0.000000000               0.000000000               0.000000000               0.000000000              -0.000001521               0.000002100              -0.000000374              -0.000000833               0.000000978               0.000000145               0.000000000               0.000000000               0.000000000               0.000000000              -0.000001309              -0.000000183               0.000000027              -0.000000468               0.000000095              -0.000000373               0.000000000               0.000000000               0.000000000               0.000000000              -0.000001150              -0.000002119              -0.000000099              -0.000000166              -0.000000651              -0.000000817               0.000000000               0.000000000               0.000000000               0.000000000              -0.000000628              -0.000000127               0.000000448              -0.000000220               0.000000031              -0.000000189               0.000000000               0.000000000               0.000000000               0.000000000              -0.000000144               0.000000697              -0.000000050              -0.000000141               0.000000279               0.000000138               0.000000000               0.000000000               0.000000000               0.000000000               0.000000725               0.000000579              -0.000000686               0.000000200               0.000000126               0.000000326               0.000000000               0.000000000               0.000000000               0.000000000               0.000000384              -0.000000063               0.000000002               0.000000152              -0.000000071               0.000000080               0.000000000               0.000000000               0.000000000               0.000000000              -0.000001440              -0.000000958               0.000000842              -0.000000420              -0.000000179              -0.000000600               0.000000000               0.000000000               0.000000000               0.000000000              -0.000001571              -0.000001102               0.000000558              -0.000000451              -0.000000217              -0.000000668               0.000000000               0.000000000               0.000000000               0.000000000               0.000000364               0.000000128              -0.000000328               0.000000121               0.000000002               0.000000123               0.000000000               0.000000000               0.000000000               0.000000000               0.000002270               0.000001893              -0.000001184               0.000000614               0.000000426               0.000001041               0.000000000               0.000000000               0.000000000               0.000000000               0.000003098               0.000003061              -0.000001450               0.000000779               0.000000761               0.000001540               0.000000000               0.000000000               0.000000000               0.000000000               0.000002509               0.000002908              -0.000000781               0.000000577               0.000000777               0.000001354               0.000000000               0.000000000               0.000000000               0.000000000               0.000000346               0.000001102               0.000000554              -0.000000008               0.000000370               0.000000362               0.000000000               0.000000000               0.000000000               0.000000000              -0.000002699              -0.000001714               0.000001774              -0.000000798              -0.000000305              -0.000001103               0.000000000               0.000000000               0.000000000               0.000000000              -0.000005221              -0.000005139               0.000002302              -0.000001316              -0.000001274              -0.000002590               0.000000000               0.000000000               0.000000000               0.000000000              -0.000005843              -0.000009493               0.000002204              -0.000001005              -0.000002830              -0.000003834               0.000000000               0.000000000               0.000000000               0.000000000              -0.000004282              -0.000014578               0.000001722               0.000000216              -0.000004931              -0.000004715               0.000000000               0.000000000               0.000000000               0.000000000              -0.000001954              -0.000019361               0.000000875               0.000001687              -0.000007016              -0.000005329               0.000000000               0.000000000               0.000000000               0.000000000              -0.000000994              -0.000021805               0.000000294               0.000002353              -0.000008053              -0.000005700               0.000000000               0.000000000               0.000000000               0.000000000               0.000001471               0.000001233              -0.000000326               0.000000398               0.000000278               0.000000676               0.000000000               0.000000000               0.000000000               0.000000000               0.000001115               0.000000647              -0.000000432               0.000000337               0.000000103               0.000000440               0.000000000               0.000000000               0.000000000               0.000000000              -0.000000309              -0.000000352               0.000000443              -0.000000072              -0.000000094              -0.000000165               0.000000000               0.000000000               0.000000000               0.000000000              -0.000001523              -0.000001098               0.000000754              -0.000000434              -0.000000221              -0.000000655               0.000000000               0.000000000               0.000000000               0.000000000              -0.000000071              -0.000000569              -0.000000389               0.000000045              -0.000000205              -0.000000160               0.000000000               0.000000000               0.000000000               0.000000000               0.000001855               0.000001146              -0.000001112               0.000000552               0.000000198               0.000000750               0.000000000               0.000000000               0.000000000               0.000000000               0.000002110               0.000002792              -0.000000850               0.000000442               0.000000783               0.000001225               0.000000000               0.000000000               0.000000000               0.000000000               0.000001069               0.000002311               0.000000177               0.000000112               0.000000733               0.000000845               0.000000000               0.000000000               0.000000000               0.000000000              -0.000001483              -0.000001308               0.000001572              -0.000000393              -0.000000305              -0.000000698               0.000000000               0.000000000               0.000000000               0.000000000              -0.000004978              -0.000006817               0.000002496              -0.000001015              -0.000001934              -0.000002949               0.000000000               0.000000000               0.000000000               0.000000000              -0.000007385              -0.000011200               0.000002271              -0.000001369              -0.000003277              -0.000004646               0.000000000               0.000000000               0.000000000               0.000000000              -0.000007124              -0.000013045               0.000000981              -0.000001041              -0.000004001              -0.000005042               0.000000000               0.000000000               0.000000000               0.000000000              -0.000003831              -0.000013203              -0.000000443               0.000000214              -0.000004472              -0.000004259               0.000000000               0.000000000               0.000000000               0.000000000               0.000001172              -0.000011654              -0.000001311               0.000001896              -0.000004517              -0.000002620               0.000000000               0.000000000               0.000000000               0.000000000               0.000004913              -0.000006942              -0.000001607               0.000002710              -0.000003217              -0.000000507               0.000000000               0.000000000               0.000000000               0.000000000               0.000004168               0.000003297              -0.000001533               0.000001151               0.000000715               0.000001866               0.000000000               0.000000000               0.000000000               0.000000000               0.000005357               0.000015309               0.000000323               0.000000095               0.000005071               0.000005166               0.000000000               0.000000000               0.000000000               0.000000000               0.000000672               0.000001079              -0.000000415               0.000000117               0.000000320               0.000000438               0.000000000               0.000000000               0.000000000               0.000000000              -0.000000216              -0.000000446               0.000000235              -0.000000025              -0.000000140              -0.000000165               0.000000000               0.000000000               0.000000000               0.000000000              -0.000000698              -0.000001266               0.000000470              -0.000000103              -0.000000388              -0.000000491               0.000000000               0.000000000               0.000000000               0.000000000               0.000000512              -0.000000258              -0.000000736               0.000000224              -0.000000161               0.000000063               0.000000000               0.000000000               0.000000000               0.000000000               0.000001470               0.000002229              -0.000000543               0.000000272               0.000000652               0.000000925               0.000000000               0.000000000               0.000000000               0.000000000               0.000000611               0.000003096               0.000000435              -0.000000158               0.000001085               0.000000927               0.000000000               0.000000000               0.000000000               0.000000000              -0.000000975              -0.000000751               0.000000928              -0.000000272              -0.000000160              -0.000000432               0.000000000               0.000000000               0.000000000               0.000000000              -0.000003698              -0.000007704               0.000001296              -0.000000424              -0.000002427              -0.000002850               0.000000000               0.000000000               0.000000000               0.000000000              -0.000005764              -0.000012155               0.000001064              -0.000000642              -0.000003838              -0.000004480               0.000000000               0.000000000               0.000000000               0.000000000              -0.000004628              -0.000009606              -0.000000169              -0.000000535              -0.000003024              -0.000003559               0.000000000               0.000000000               0.000000000               0.000000000               0.000000133              -0.000000372              -0.000001931               0.000000097              -0.000000156              -0.000000060               0.000000000               0.000000000               0.000000000               0.000000000               0.000007886               0.000012059              -0.000002686               0.000001450               0.000003536               0.000004986               0.000000000               0.000000000               0.000000000               0.000000000               0.000016414               0.000026490              -0.000001692               0.000002844               0.000007882               0.000010726               0.000000000               0.000000000               0.000000000               0.000000000               0.000022183               0.000044633               0.000000368               0.000002739               0.000013964               0.000016704               0.000000000               0.000000000               0.000000000               0.000000000               0.000021870               0.000069177               0.000002140              -0.000000446               0.000023208               0.000022762               0.000000000               0.000000000               0.000000000               0.000000000               0.000013447               0.000102387               0.000001927              -0.000007756               0.000036714               0.000028958               0.000000000               0.000000000               0.000000000               0.000000000               0.000013929               0.000132460               0.000005040              -0.000011334               0.000047931               0.000036597               0.000000000               0.000000000               0.000000000               0.000000000              -0.000001001              -0.000000704               0.000000573              -0.000000287              -0.000000139              -0.000000426               0.000000000               0.000000000               0.000000000               0.000000000              -0.000000906              -0.000001626               0.000000321              -0.000000136              -0.000000497              -0.000000633               0.000000000               0.000000000               0.000000000               0.000000000               0.000000112              -0.000000499              -0.000000508               0.000000104              -0.000000201              -0.000000097               0.000000000               0.000000000               0.000000000               0.000000000               0.000000982               0.000002770              -0.000000111               0.000000022               0.000000916               0.000000938               0.000000000               0.000000000               0.000000000               0.000000000               0.000000562               0.000002814               0.000000533              -0.000000141               0.000000985               0.000000844               0.000000000               0.000000000               0.000000000               0.000000000              -0.000001305              -0.000003941               0.000000145               0.000000003              -0.000001315              -0.000001312               0.000000000               0.000000000               0.000000000               0.000000000              -0.000004016              -0.000010926               0.000000456              -0.000000140              -0.000003595              -0.000003735               0.000000000               0.000000000               0.000000000               0.000000000              -0.000003876              -0.000008530               0.000000369              -0.000000387              -0.000002714              -0.000003102               0.000000000               0.000000000               0.000000000               0.000000000               0.000001703               0.000006462              -0.000000882              -0.000000169               0.000002210               0.000002041               0.000000000               0.000000000               0.000000000               0.000000000               0.000011448               0.000030809              -0.000002276               0.000000442               0.000010122               0.000010564               0.000000000               0.000000000               0.000000000               0.000000000               0.000023764               0.000058666              -0.000001628               0.000001578               0.000019029               0.000020608               0.000000000               0.000000000               0.000000000               0.000000000               0.000035486               0.000087361               0.000001940               0.000002387               0.000028324               0.000030712               0.000000000               0.000000000               0.000000000               0.000000000               0.000043112               0.000118809               0.000007104               0.000001316               0.000039164               0.000040480               0.000000000               0.000000000               0.000000000               0.000000000               0.000043544               0.000155439               0.000011654              -0.000003101               0.000052846               0.000049745               0.000000000               0.000000000               0.000000000               0.000000000               0.000035441               0.000198428               0.000013046              -0.000011513               0.000069980               0.000058467               0.000000000               0.000000000               0.000000000               0.000000000               0.000019823               0.000246233               0.000009122              -0.000023346               0.000089859               0.000066513               0.000000000               0.000000000               0.000000000               0.000000000               0.000018076               0.000282803               0.000010067              -0.000028572               0.000103791               0.000075219               0.000000000               0.000000000               0.000000000               0.000000000              -0.000001413              -0.000002773               0.000000664              -0.000000183              -0.000000863              -0.000001047               0.000000000               0.000000000               0.000000000               0.000000000              -0.000000734              -0.000001638              -0.000000026              -0.000000070              -0.000000523              -0.000000593               0.000000000               0.000000000               0.000000000               0.000000000               0.000001094               0.000003017              -0.000000185               0.000000033               0.000000995               0.000001028               0.000000000               0.000000000               0.000000000               0.000000000               0.000001176               0.000003395               0.000000285               0.000000017               0.000001126               0.000001143               0.000000000               0.000000000               0.000000000               0.000000000              -0.000002131              -0.000006299              -0.000000144              -0.000000012              -0.000002096              -0.000002108               0.000000000               0.000000000               0.000000000               0.000000000              -0.000004669              -0.000012139               0.000000331              -0.000000234              -0.000003968              -0.000004202               0.000000000               0.000000000               0.000000000               0.000000000              -0.000000827              -0.000000374               0.000000285              -0.000000263              -0.000000037              -0.000000300               0.000000000               0.000000000               0.000000000               0.000000000               0.000010629               0.000028993              -0.000001059               0.000000362               0.000009544               0.000009905               0.000000000               0.000000000               0.000000000               0.000000000               0.000025920               0.000069374              -0.000001885               0.000001048               0.000022775               0.000023823               0.000000000               0.000000000               0.000000000               0.000000000               0.000041959               0.000112896              -0.000000550               0.000001622               0.000037091               0.000038713               0.000000000               0.000000000               0.000000000               0.000000000               0.000055823               0.000155567               0.000004280               0.000001488               0.000051359               0.000052847               0.000000000               0.000000000               0.000000000               0.000000000               0.000064762               0.000199368               0.000011249              -0.000000635               0.000066667               0.000066032               0.000000000               0.000000000               0.000000000               0.000000000               0.000065902               0.000247111               0.000017874              -0.000006176               0.000084428               0.000078252               0.000000000               0.000000000               0.000000000               0.000000000               0.000057818               0.000299334               0.000021286              -0.000015735               0.000105022               0.000089287               0.000000000               0.000000000               0.000000000               0.000000000               0.000042373               0.000353816               0.000019688              -0.000028337               0.000127383               0.000099046               0.000000000               0.000000000               0.000000000               0.000000000               0.000022374               0.000405784               0.000012435              -0.000042333               0.000149371               0.000107038               0.000000000               0.000000000               0.000000000               0.000000000               0.000017834               0.000440294               0.000011105              -0.000048349               0.000162879               0.000114531               0.000000000               0.000000000               0.000000000               0.000000000              -0.000001104              -0.000003392              -0.000000029               0.000000010              -0.000001134              -0.000001124               0.000000000               0.000000000               0.000000000               0.000000000               0.000000416               0.000001561              -0.000000140              -0.000000039               0.000000533               0.000000494               0.000000000               0.000000000               0.000000000               0.000000000               0.000001466               0.000004713               0.000000094              -0.000000039               0.000001584               0.000001545               0.000000000               0.000000000               0.000000000               0.000000000              -0.000002218              -0.000006466               0.000000083              -0.000000023              -0.000002148              -0.000002171               0.000000000               0.000000000               0.000000000               0.000000000              -0.000004247              -0.000012576               0.000000298              -0.000000020              -0.000004185              -0.000004206               0.000000000               0.000000000               0.000000000               0.000000000               0.000003007               0.000006942               0.000000232               0.000000260               0.000002227               0.000002487               0.000000000               0.000000000               0.000000000               0.000000000               0.000017904               0.000048010              -0.000000856               0.000000713               0.000015765               0.000016478               0.000000000               0.000000000               0.000000000               0.000000000               0.000036371               0.000101681              -0.000001285               0.000000929               0.000033584               0.000034513               0.000000000               0.000000000               0.000000000               0.000000000               0.000055385               0.000158583              -0.000000495               0.000000947               0.000052545               0.000053492               0.000000000               0.000000000               0.000000000               0.000000000               0.000072416               0.000214341               0.000003504               0.000000363               0.000071325               0.000071689               0.000000000               0.000000000               0.000000000               0.000000000               0.000084392               0.000269967               0.000010453              -0.000002099               0.000090688               0.000088589               0.000000000               0.000000000               0.000000000               0.000000000               0.000087846               0.000328794               0.000017842              -0.000008157               0.000112316               0.000104159               0.000000000               0.000000000               0.000000000               0.000000000               0.000081098               0.000391372               0.000022823              -0.000018510               0.000136626               0.000118116               0.000000000               0.000000000               0.000000000               0.000000000               0.000066150               0.000455782               0.000023335              -0.000032166               0.000162648               0.000130482               0.000000000               0.000000000               0.000000000               0.000000000               0.000045799               0.000517435               0.000019192              -0.000047505               0.000188311               0.000140807               0.000000000               0.000000000               0.000000000               0.000000000               0.000023501               0.000572013               0.000011190              -0.000062689               0.000211565               0.000148877               0.000000000               0.000000000               0.000000000               0.000000000               0.000015748               0.000605264               0.000009161              -0.000069752               0.000225003               0.000155251               0.000000000               0.000000000               0.000000000               0.000000000               0.000000579               0.000000059              -0.000000973               0.000000210              -0.000000050               0.000000160               0.000000000               0.000000000               0.000000000               0.000000000               0.000002084               0.000005845              -0.000000187               0.000000051               0.000001931               0.000001982               0.000000000               0.000000000               0.000000000               0.000000000              -0.000000725              -0.000001069               0.000000495              -0.000000138              -0.000000310              -0.000000449               0.000000000               0.000000000               0.000000000               0.000000000              -0.000005268              -0.000015651               0.000000046              -0.000000019              -0.000005211              -0.000005230               0.000000000               0.000000000               0.000000000               0.000000000              -0.000000139              -0.000001225              -0.000000386               0.000000101              -0.000000442              -0.000000341               0.000000000               0.000000000               0.000000000               0.000000000               0.000014113               0.000041162              -0.000001447               0.000000147               0.000013671               0.000013819               0.000000000               0.000000000               0.000000000               0.000000000               0.000035698               0.000101854              -0.000002641               0.000000655               0.000033733               0.000034388               0.000000000               0.000000000               0.000000000               0.000000000               0.000058723               0.000168804              -0.000003345               0.000000921               0.000055961               0.000056881               0.000000000               0.000000000               0.000000000               0.000000000               0.000079437               0.000234364              -0.000001575               0.000000493               0.000077956               0.000078449               0.000000000               0.000000000               0.000000000               0.000000000               0.000096084               0.000297675               0.000003015              -0.000001178               0.000099617               0.000098439               0.000000000               0.000000000               0.000000000               0.000000000               0.000106029               0.000362330               0.000009076              -0.000005530               0.000122619               0.000117088               0.000000000               0.000000000               0.000000000               0.000000000               0.000107189               0.000431776               0.000014909              -0.000013776               0.000148516               0.000134740               0.000000000               0.000000000               0.000000000               0.000000000               0.000099310               0.000505136               0.000018089              -0.000025901               0.000177011               0.000151110               0.000000000               0.000000000               0.000000000               0.000000000               0.000085509               0.000579349               0.000017534              -0.000040353               0.000206565               0.000166213               0.000000000               0.000000000               0.000000000               0.000000000               0.000068556               0.000649847               0.000013067              -0.000055522               0.000235121               0.000179599               0.000000000               0.000000000               0.000000000               0.000000000               0.000051127               0.000713536               0.000006438              -0.000070019               0.000261183               0.000191164               0.000000000               0.000000000               0.000000000               0.000000000               0.000039804               0.000745436               0.000003056              -0.000078253               0.000274560               0.000196308               0.000000000               0.000000000               0.000000000               0.000000000               0.000003070               0.000006717              -0.000001485               0.000000312               0.000002135               0.000002447               0.000000000               0.000000000               0.000000000               0.000000000               0.000002930               0.000007481              -0.000000246               0.000000164               0.000002439               0.000002603               0.000000000               0.000000000               0.000000000               0.000000000              -0.000003150              -0.000009073               0.000000208              -0.000000047              -0.000003009              -0.000003056               0.000000000               0.000000000               0.000000000               0.000000000              -0.000005237              -0.000015555               0.000000050              -0.000000020              -0.000005178              -0.000005198               0.000000000               0.000000000               0.000000000               0.000000000               0.000003883               0.000012585               0.000000410              -0.000000117               0.000004234               0.000004117               0.000000000               0.000000000               0.000000000               0.000000000               0.000021305               0.000064335              -0.000000095              -0.000000052               0.000021462               0.000021410               0.000000000               0.000000000               0.000000000               0.000000000               0.000044673               0.000131711              -0.000000760               0.000000289               0.000043807               0.000044096               0.000000000               0.000000000               0.000000000               0.000000000               0.000068403               0.000200893              -0.000001029               0.000000539               0.000066784               0.000067323               0.000000000               0.000000000               0.000000000               0.000000000               0.000091085               0.000271078               0.000000431               0.000000272               0.000090268               0.000090540               0.000000000               0.000000000               0.000000000               0.000000000               0.000110769               0.000338614               0.000003373              -0.000000788               0.000113133               0.000112345               0.000000000               0.000000000               0.000000000               0.000000000               0.000125540               0.000405481               0.000007214              -0.000003608               0.000136362               0.000132754               0.000000000               0.000000000               0.000000000               0.000000000               0.000133322               0.000474091               0.000011191              -0.000009266               0.000161117               0.000151852               0.000000000               0.000000000               0.000000000               0.000000000               0.000133414               0.000546071               0.000014019              -0.000018229               0.000188098               0.000169869               0.000000000               0.000000000               0.000000000               0.000000000               0.000127105               0.000620171               0.000014495              -0.000029857               0.000216674               0.000186817               0.000000000               0.000000000               0.000000000               0.000000000               0.000117253               0.000695345               0.000011681              -0.000042948               0.000246095               0.000203147               0.000000000               0.000000000               0.000000000               0.000000000               0.000106670               0.000770020               0.000006200              -0.000056251               0.000275421               0.000219170               0.000000000               0.000000000               0.000000000               0.000000000               0.000094631               0.000802140               0.000000616              -0.000064781               0.000288971               0.000224190               0.000000000               0.000000000               0.000000000               0.000000000               0.000004405               0.000012269              -0.000001107               0.000000118               0.000004050               0.000004168               0.000000000               0.000000000               0.000000000               0.000000000               0.000002433               0.000005311              -0.000000368               0.000000248               0.000001687               0.000001936               0.000000000               0.000000000               0.000000000               0.000000000              -0.000004895              -0.000014637               0.000000079              -0.000000006              -0.000004877              -0.000004883               0.000000000               0.000000000               0.000000000               0.000000000              -0.000003675              -0.000011055               0.000000163               0.000000004              -0.000003686              -0.000003682               0.000000000               0.000000000               0.000000000               0.000000000               0.000007631               0.000022884              -0.000000224               0.000000001               0.000007628               0.000007629               0.000000000               0.000000000               0.000000000               0.000000000               0.000025259               0.000077611               0.000000319              -0.000000229               0.000025947               0.000025717               0.000000000               0.000000000               0.000000000               0.000000000               0.000047957               0.000144283               0.000000013              -0.000000051               0.000048111               0.000048059               0.000000000               0.000000000               0.000000000               0.000000000               0.000072322               0.000213804              -0.000000540               0.000000395               0.000071135               0.000071531               0.000000000               0.000000000               0.000000000               0.000000000               0.000095866               0.000284744              -0.000000471               0.000000357               0.000094795               0.000095152               0.000000000               0.000000000               0.000000000               0.000000000               0.000117318               0.000353066               0.000000424              -0.000000139               0.000117734               0.000117595               0.000000000               0.000000000               0.000000000               0.000000000               0.000137034               0.000420598               0.000002251              -0.000001187               0.000140593               0.000139406               0.000000000               0.000000000               0.000000000               0.000000000               0.000152898               0.000487502               0.000004536              -0.000003601               0.000163699               0.000160098               0.000000000               0.000000000               0.000000000               0.000000000               0.000163974               0.000556278               0.000006888              -0.000008045               0.000188106               0.000180061               0.000000000               0.000000000               0.000000000               0.000000000               0.000169466               0.000627102               0.000008230              -0.000014838               0.000213978               0.000199140               0.000000000               0.000000000               0.000000000               0.000000000               0.000170700               0.000699775               0.000007833              -0.000023459               0.000241076               0.000217616               0.000000000               0.000000000               0.000000000               0.000000000               0.000169300               0.000772654               0.000004811              -0.000033094               0.000268580               0.000235486               0.000000000               0.000000000               0.000000000               0.000000000               0.000162385               0.000804466               0.000000498              -0.000039664               0.000281374               0.000241710               0.000000000               0.000000000               0.000000000               0.000000000               0.000003246               0.000012114               0.000000189              -0.000000297               0.000004137               0.000003840               0.000000000               0.000000000               0.000000000               0.000000000               0.000000635               0.000000179              -0.000000378               0.000000216              -0.000000012               0.000000203               0.000000000               0.000000000               0.000000000               0.000000000              -0.000005263              -0.000016634              -0.000000355               0.000000106              -0.000005580              -0.000005474               0.000000000               0.000000000               0.000000000               0.000000000              -0.000002555              -0.000006218               0.000000570              -0.000000181              -0.000002013              -0.000002193               0.000000000               0.000000000               0.000000000               0.000000000               0.000011020               0.000032542              -0.000000228               0.000000065               0.000010825               0.000010890               0.000000000               0.000000000               0.000000000               0.000000000               0.000030414               0.000090828              -0.000000173               0.000000052               0.000030258               0.000030310               0.000000000               0.000000000               0.000000000               0.000000000               0.000051825               0.000156045               0.000000090              -0.000000071               0.000052038               0.000051967               0.000000000               0.000000000               0.000000000               0.000000000               0.000074653               0.000223927              -0.000000200               0.000000004               0.000074640               0.000074644               0.000000000               0.000000000               0.000000000               0.000000000               0.000098069               0.000292944              -0.000000309               0.000000158               0.000097595               0.000097752               0.000000000               0.000000000               0.000000000               0.000000000               0.000121075               0.000362510              -0.000000327               0.000000089               0.000120806               0.000120895               0.000000000               0.000000000               0.000000000               0.000000000               0.000143786               0.000431538               0.000000023              -0.000000022               0.000143852               0.000143830               0.000000000               0.000000000               0.000000000               0.000000000               0.000164894               0.000498701               0.000000585              -0.000000502               0.000166399               0.000165897               0.000000000               0.000000000               0.000000000               0.000000000               0.000183687               0.000566118               0.000001666              -0.000001882               0.000189332               0.000187449               0.000000000               0.000000000               0.000000000               0.000000000               0.000199120               0.000634107               0.000002665              -0.000004593               0.000212898               0.000208305               0.000000000               0.000000000               0.000000000               0.000000000               0.000211175               0.000703866               0.000003263              -0.000008793               0.000237551               0.000228758               0.000000000               0.000000000               0.000000000               0.000000000               0.000220359               0.000774556               0.000002568              -0.000014185               0.000262911               0.000248726               0.000000000               0.000000000               0.000000000               0.000000000               0.000220970               0.000808298               0.000000579              -0.000018173               0.000275488               0.000257314               0.000000000               0.000000000               0.000000000               0.000000000               0.000000778               0.000006563               0.000001465              -0.000000529               0.000002364               0.000001835               0.000000000               0.000000000               0.000000000               0.000000000              -0.000002171              -0.000005938              -0.000000089              -0.000000072              -0.000001955              -0.000002027               0.000000000               0.000000000               0.000000000               0.000000000              -0.000004607              -0.000015820              -0.000000488               0.000000250              -0.000005356              -0.000005107               0.000000000               0.000000000               0.000000000               0.000000000              -0.000000389              -0.000000566               0.000000078              -0.000000075              -0.000000164              -0.000000239               0.000000000               0.000000000               0.000000000               0.000000000               0.000013427               0.000041077               0.000000226              -0.000000099               0.000013725               0.000013626               0.000000000               0.000000000               0.000000000               0.000000000               0.000033409               0.000100805               0.000000050              -0.000000072               0.000033625               0.000033553               0.000000000               0.000000000               0.000000000               0.000000000               0.000054883               0.000165276              -0.000000161              -0.000000078               0.000055118               0.000055039               0.000000000               0.000000000               0.000000000               0.000000000               0.000077952               0.000233274              -0.000000172               0.000000073               0.000077733               0.000077806               0.000000000               0.000000000               0.000000000               0.000000000               0.000101104               0.000301172              -0.000000230               0.000000267               0.000100300               0.000100568               0.000000000               0.000000000               0.000000000               0.000000000               0.000123637               0.000369411              -0.000000146               0.000000188               0.000123073               0.000123261               0.000000000               0.000000000               0.000000000               0.000000000               0.000146097               0.000437686              -0.000000273               0.000000076               0.000145869               0.000145944               0.000000000               0.000000000               0.000000000               0.000000000               0.000169091               0.000505726              -0.000000446               0.000000193               0.000168509               0.000168703               0.000000000               0.000000000               0.000000000               0.000000000               0.000191763               0.000572859              -0.000000524               0.000000304               0.000190850               0.000191154               0.000000000               0.000000000               0.000000000               0.000000000               0.000213357               0.000639945              -0.000000329               0.000000016               0.000213308               0.000213323               0.000000000               0.000000000               0.000000000               0.000000000               0.000233190               0.000707528               0.000000033              -0.000000995               0.000236172               0.000235177               0.000000000               0.000000000               0.000000000               0.000000000               0.000251198               0.000776150               0.000000277              -0.000002820               0.000259654               0.000256834               0.000000000               0.000000000               0.000000000               0.000000000               0.000258672               0.000810904              -0.000000144              -0.000004361               0.000271752               0.000267391               0.000000000               0.000000000               0.000000000               0.000000000              -0.000001347              -0.000001480               0.000002322              -0.000000320              -0.000000387              -0.000000707               0.000000000               0.000000000               0.000000000               0.000000000              -0.000004258              -0.000010699               0.000000064              -0.000000259              -0.000003480              -0.000003739               0.000000000               0.000000000               0.000000000               0.000000000              -0.000004615              -0.000014728              -0.000000144               0.000000110              -0.000004946              -0.000004836               0.000000000               0.000000000               0.000000000               0.000000000               0.000001510               0.000003946               0.000000028               0.000000073               0.000001291               0.000001364               0.000000000               0.000000000               0.000000000               0.000000000               0.000016332               0.000049300              -0.000000390              -0.000000038               0.000016446               0.000016408               0.000000000               0.000000000               0.000000000               0.000000000               0.000036329               0.000109135              -0.000000038              -0.000000018               0.000036384               0.000036365               0.000000000               0.000000000               0.000000000               0.000000000               0.000057487               0.000173114               0.000000149              -0.000000082               0.000057731               0.000057650               0.000000000               0.000000000               0.000000000               0.000000000               0.000079697               0.000240638               0.000000335              -0.000000193               0.000080276               0.000080083               0.000000000               0.000000000               0.000000000               0.000000000               0.000102224               0.000306821               0.000000061              -0.000000019               0.000102279               0.000102260               0.000000000               0.000000000               0.000000000               0.000000000               0.000125310               0.000374288              -0.000000085               0.000000205               0.000124693               0.000124898               0.000000000               0.000000000               0.000000000               0.000000000               0.000147614               0.000441544              -0.000000086               0.000000162               0.000147126               0.000147288               0.000000000               0.000000000               0.000000000               0.000000000               0.000170094               0.000509505              -0.000000093               0.000000097               0.000169801               0.000169898               0.000000000               0.000000000               0.000000000               0.000000000               0.000193032               0.000576836              -0.000000292               0.000000283               0.000192182               0.000192465               0.000000000               0.000000000               0.000000000               0.000000000               0.000216442               0.000643904              -0.000000441               0.000000678               0.000214407               0.000215084               0.000000000               0.000000000               0.000000000               0.000000000               0.000239542               0.000710521              -0.000000477               0.000001013               0.000236500               0.000237513               0.000000000               0.000000000               0.000000000               0.000000000               0.000262000               0.000777717              -0.000000244               0.000001035               0.000258891               0.000259927               0.000000000               0.000000000               0.000000000               0.000000000               0.000272908               0.000812170              -0.000000236               0.000000819               0.000270448               0.000271267               0.000000000               0.000000000               0.000000000               0.000000000              -0.000003448              -0.000011159               0.000002572               0.000000102              -0.000003754              -0.000003652               0.000000000               0.000000000               0.000000000               0.000000000              -0.000005010              -0.000014873               0.000000196              -0.000000019              -0.000004951              -0.000004971               0.000000000               0.000000000               0.000000000               0.000000000              -0.000004465              -0.000012474              -0.000000636              -0.000000115              -0.000004120              -0.000004235               0.000000000               0.000000000               0.000000000               0.000000000               0.000002234               0.000007268               0.000000355              -0.000000071               0.000002446               0.000002376               0.000000000               0.000000000               0.000000000               0.000000000               0.000018130               0.000054345               0.000000172               0.000000006               0.000018113               0.000018118               0.000000000               0.000000000               0.000000000               0.000000000               0.000038784               0.000115907              -0.000000177               0.000000056               0.000038617               0.000038673               0.000000000               0.000000000               0.000000000               0.000000000               0.000059956               0.000178995              -0.000000286               0.000000109               0.000059628               0.000059737               0.000000000               0.000000000               0.000000000               0.000000000               0.000081812               0.000245428              -0.000000230               0.000000001               0.000081808               0.000081809               0.000000000               0.000000000               0.000000000               0.000000000               0.000103425               0.000311772               0.000000058              -0.000000187               0.000103985               0.000103798               0.000000000               0.000000000               0.000000000               0.000000000               0.000125872               0.000378694               0.000000216              -0.000000135               0.000126275               0.000126140               0.000000000               0.000000000               0.000000000               0.000000000               0.000148302               0.000444780               0.000000152               0.000000016               0.000148253               0.000148269               0.000000000               0.000000000               0.000000000               0.000000000               0.000170573               0.000511671               0.000000245               0.000000006               0.000170553               0.000170559               0.000000000               0.000000000               0.000000000               0.000000000               0.000192563               0.000578440               0.000000255              -0.000000094               0.000192843               0.000192749               0.000000000               0.000000000               0.000000000               0.000000000               0.000214936               0.000645596               0.000000202              -0.000000098               0.000215229               0.000215131               0.000000000               0.000000000               0.000000000               0.000000000               0.000237654               0.000712217               0.000000063               0.000000093               0.000237372               0.000237465               0.000000000               0.000000000               0.000000000               0.000000000               0.000260634               0.000778806               0.000000028               0.000000387               0.000259470               0.000259857               0.000000000               0.000000000               0.000000000               0.000000000               0.000272408               0.000812666               0.000000040               0.000000570               0.000270696               0.000271266               0.000000000               0.000000000               0.000000000               0.000000000              -0.000005373              -0.000017444               0.000001357               0.000000166              -0.000005870              -0.000005704               0.000000000               0.000000000               0.000000000               0.000000000              -0.000006054              -0.000018201               0.000000438               0.000000005              -0.000006069              -0.000006064               0.000000000               0.000000000               0.000000000               0.000000000              -0.000003872              -0.000010919              -0.000000375              -0.000000087              -0.000003611              -0.000003698               0.000000000               0.000000000               0.000000000               0.000000000               0.000003632               0.000011186              -0.000000133              -0.000000036               0.000003741               0.000003704               0.000000000               0.000000000               0.000000000               0.000000000               0.000019048               0.000057374               0.000000110              -0.000000029               0.000019134               0.000019105               0.000000000               0.000000000               0.000000000               0.000000000               0.000039235               0.000118234               0.000000019              -0.000000066               0.000039433               0.000039367               0.000000000               0.000000000               0.000000000               0.000000000               0.000060678               0.000182401               0.000000082              -0.000000046               0.000060815               0.000060769               0.000000000               0.000000000               0.000000000               0.000000000               0.000083278               0.000248934               0.000000030               0.000000113               0.000082940               0.000083052               0.000000000               0.000000000               0.000000000               0.000000000               0.000105232               0.000314802              -0.000000134               0.000000112               0.000104896               0.000105007               0.000000000               0.000000000               0.000000000               0.000000000               0.000127089               0.000381377              -0.000000103              -0.000000014               0.000127129               0.000127115               0.000000000               0.000000000               0.000000000               0.000000000               0.000148997               0.000447182              -0.000000100              -0.000000024               0.000149067               0.000149043               0.000000000               0.000000000               0.000000000               0.000000000               0.000171163               0.000513417              -0.000000108               0.000000009               0.000171134               0.000171143               0.000000000               0.000000000               0.000000000               0.000000000               0.000193013               0.000579348              -0.000000071              -0.000000038               0.000193127               0.000193088               0.000000000               0.000000000               0.000000000               0.000000000               0.000214892               0.000645925               0.000000040              -0.000000156               0.000215358               0.000215202               0.000000000               0.000000000               0.000000000               0.000000000               0.000236779               0.000712365               0.000000086              -0.000000253               0.000237537               0.000237284               0.000000000               0.000000000               0.000000000               0.000000000               0.000258930               0.000778895               0.000000070              -0.000000263               0.000259717               0.000259454               0.000000000               0.000000000               0.000000000               0.000000000               0.000270206               0.000812402               0.000000041              -0.000000223               0.000270872               0.000270649               0.000000000               0.000000000               0.000000000               0.000000000               0.000000000               0.000000000               0.000000000               0.000000000               0.000000000               0.000000000               0.000000000               0.000000000               0.000000000               0.000000000               0.000000000               0.000000000               0.000000000               0.000000000               0.000000000               0.000000000               0.000000000               0.000000000               0.000000000               0.000000000               0.000000000               0.000000000               0.000000000               0.000000000               0.000000000               0.000000000               0.000000000               0.000000000               0.000000000               0.000000000               0.000000000               0.000000000               0.000000000               0.000000000               0.000000000               0.000000000               0.000000000               0.000000000               0.000000000               0.000000000               0.000000000               0.000000000               0.000000000               0.000000000               0.000000000               0.000000000               0.000000000               0.000000000               0.000000000               0.000000000               0.000000000               0.000000000               0.000000000               0.000000000               0.000000000               0.000000000               0.000000000               0.000000000               0.000000000               0.000000000               0.000000000               0.000000000               0.000000000               0.000000000               0.000000000               0.000000000               0.000000000               0.000000000               0.000000000               0.000000000               0.000000000               0.000000000               0.000000000               0.000000000               0.000000000               0.000000000               0.000000000               0.000000000               0.000000000               0.000000000               0.000000000               0.000000000               0.000000000               0.000000000               0.000000000               0.000000000               0.000000000               0.000000000               0.000000000               0.000000000               0.000000000               0.000000000               0.000000000               0.000000000               0.000000000               0.000000000               0.000000000               0.000000000               0.000000000               0.000000000               0.000000000               0.000000000               0.000000000               0.000000000               0.000000000               0.000000000               0.000000000               0.000000000               0.000000000               0.000000000               0.000000000               0.000000000               0.000000000               0.000000000               0.000000000               0.000000000               0.000000000               0.000000000               0.000000000               0.000000000               0.000000000               0.000000000               0.000000000               0.000000000               0.000000000               0.000000000               0.000000000               0.000000000               0.000000000               0.000000000               0.000000000               0.000000000               0.000000000               0.000000000               0.000000000               0.000000000               0.000000000               0.000000000               0.000000000               0.000000000               0.000000000               0.000000000               0.000000000               0.000000000               0.000000000               0.000000000               0.000000000               0.000000000               0.000000000               0.000000000               0.000000000               0.000000000               0.000000000               0.000000000               0.000000000               0.000000000               0.000000000               0.000000000               0.000000000               0.000000000               0.000000000               0.000000000               0.000000000               0.000000000               0.000000000               0.000000000               0.000000000               0.000000000               0.000000000               0.000000000 </DataArray>
</PointData>
</Piece>
</UnstructuredGrid> </VTKFile>
