<?xml version="1.0"?>
<VTKFile type="UnstructuredGrid" version="0.1">
<UnstructuredGrid>
<Piece NumberOfPoints="      1156" NumberOfCells="      1024">
<Points>
<DataArray type="Float64"                                    Name="coordinates"                                                      NumberOfComponents=" 3" format="ascii">
              0.133000000               0.000000000               0.000000000               0.155937500               0.000000000               0.000000000               0.178875000               0.000000000               0.000000000               0.201812500               0.000000000               0.000000000               0.224750000               0.000000000               0.000000000               0.247687500               0.000000000               0.000000000               0.270625000               0.000000000               0.000000000               0.293562500               0.000000000               0.000000000               0.316500000               0.000000000               0.000000000               0.339437500               0.000000000               0.000000000               0.362375000               0.000000000               0.000000000               0.385312500               0.000000000               0.000000000               0.408250000               0.000000000               0.000000000               0.431187500               0.000000000               0.000000000               0.454125000               0.000000000               0.000000000               0.477062500               0.000000000               0.000000000               0.500000000               0.000000000               0.000000000               0.132359569               0.013036280               0.000000000               0.155337096               0.016127762               0.000000000               0.178314623               0.019219245               0.000000000               0.201292150               0.022310727               0.000000000               0.224269676               0.025402210               0.000000000               0.247247203               0.028493692               0.000000000               0.270224730               0.031585175               0.000000000               0.293202257               0.034676657               0.000000000               0.316179784               0.037768140               0.000000000               0.339157311               0.040859622               0.000000000               0.362134838               0.043951105               0.000000000               0.385112365               0.047042587               0.000000000               0.408089892               0.050134070               0.000000000               0.431067419               0.053225552               0.000000000               0.454044946               0.056317035               0.000000000               0.477022473               0.059408517               0.000000000               0.500000000               0.062500000               0.000000000               0.130444442               0.025947013               0.000000000               0.153541665               0.032137825               0.000000000               0.176638887               0.038328636               0.000000000               0.199736109               0.044519448               0.000000000               0.222833332               0.050710260               0.000000000               0.245930554               0.056901071               0.000000000               0.269027776               0.063091883               0.000000000               0.292124999               0.069282695               0.000000000               0.315222221               0.075473506               0.000000000               0.338319444               0.081664318               0.000000000               0.361416666               0.087855130               0.000000000               0.384513888               0.094045942               0.000000000               0.407611111               0.100236753               0.000000000               0.430708333               0.106427565               0.000000000               0.453805555               0.112618377               0.000000000               0.476902778               0.118809188               0.000000000               0.500000000               0.125000000               0.000000000               0.127273065               0.038607862               0.000000000               0.150568498               0.047913621               0.000000000               0.173863932               0.057219379               0.000000000               0.197159365               0.066525138               0.000000000               0.220454798               0.075830897               0.000000000               0.243750232               0.085136655               0.000000000               0.267045665               0.094442414               0.000000000               0.290341099               0.103748172               0.000000000               0.313636532               0.113053931               0.000000000               0.336931966               0.122359690               0.000000000               0.360227399               0.131665448               0.000000000               0.383522833               0.140971207               0.000000000               0.406818266               0.150276966               0.000000000               0.430113700               0.159582724               0.000000000               0.453409133               0.168888483               0.000000000               0.476704567               0.178194241               0.000000000               0.500000000               0.187500000               0.000000000               0.122875978               0.050896897               0.000000000               0.146446229               0.063340840               0.000000000               0.170016481               0.075784784               0.000000000               0.193586732               0.088228728               0.000000000               0.217156983               0.100672672               0.000000000               0.240727235               0.113116616               0.000000000               0.264297486               0.125560560               0.000000000               0.287867738               0.138004504               0.000000000               0.311437989               0.150448448               0.000000000               0.335008240               0.162892392               0.000000000               0.358578492               0.175336336               0.000000000               0.382148743               0.187780280               0.000000000               0.405718994               0.200224224               0.000000000               0.429289246               0.212668168               0.000000000               0.452859497               0.225112112               0.000000000               0.476429749               0.237556056               0.000000000               0.500000000               0.250000000               0.000000000               0.117295528               0.062695766               0.000000000               0.141214558               0.078308531               0.000000000               0.165133587               0.093921295               0.000000000               0.189052617               0.109534060               0.000000000               0.212971646               0.125146824               0.000000000               0.236890676               0.140759589               0.000000000               0.260809705               0.156372354               0.000000000               0.284728735               0.171985118               0.000000000               0.308647764               0.187597883               0.000000000               0.332566794               0.203210648               0.000000000               0.356485823               0.218823412               0.000000000               0.380404853               0.234436177               0.000000000               0.404323882               0.250048941               0.000000000               0.428242912               0.265661706               0.000000000               0.452161941               0.281274471               0.000000000               0.476080971               0.296887235               0.000000000               0.500000000               0.312500000               0.000000000               0.110585458               0.073890841               0.000000000               0.134923867               0.092710163               0.000000000               0.159262276               0.111529486               0.000000000               0.183600685               0.130348808               0.000000000               0.207939094               0.149168131               0.000000000               0.232277503               0.167987453               0.000000000               0.256615912               0.186806776               0.000000000               0.280954320               0.205626098               0.000000000               0.305292729               0.224445420               0.000000000               0.329631138               0.243264743               0.000000000               0.353969547               0.262084065               0.000000000               0.378307956               0.280903388               0.000000000               0.402646365               0.299722710               0.000000000               0.426984773               0.318542033               0.000000000               0.451323182               0.337361355               0.000000000               0.475661591               0.356180678               0.000000000               0.500000000               0.375000000               0.000000000               0.102810390               0.084374307               0.000000000               0.127634741               0.106444663               0.000000000               0.152459092               0.128515018               0.000000000               0.177283442               0.150585374               0.000000000               0.202107793               0.172655730               0.000000000               0.226932143               0.194726086               0.000000000               0.251756494               0.216796442               0.000000000               0.276580845               0.238866798               0.000000000               0.301405195               0.260937153               0.000000000               0.326229546               0.283007509               0.000000000               0.351053896               0.305077865               0.000000000               0.375878247               0.327148221               0.000000000               0.400702598               0.349218577               0.000000000               0.425526948               0.371288933               0.000000000               0.450351299               0.393359288               0.000000000               0.475175649               0.415429644               0.000000000               0.500000000               0.437500000               0.000000000               0.094045202               0.094045202               0.000000000               0.119417377               0.119417377               0.000000000               0.144789552               0.144789552               0.000000000               0.170161727               0.170161727               0.000000000               0.195533901               0.195533901               0.000000000               0.220906076               0.220906076               0.000000000               0.246278251               0.246278251               0.000000000               0.271650426               0.271650426               0.000000000               0.297022601               0.297022601               0.000000000               0.322394776               0.322394776               0.000000000               0.347766951               0.347766951               0.000000000               0.373139126               0.373139126               0.000000000               0.398511300               0.398511300               0.000000000               0.423883475               0.423883475               0.000000000               0.449255650               0.449255650               0.000000000               0.474627825               0.474627825               0.000000000               0.500000000               0.500000000               0.000000000               0.084374307               0.102810390               0.000000000               0.106444663               0.127634741               0.000000000               0.128515018               0.152459092               0.000000000               0.150585374               0.177283442               0.000000000               0.172655730               0.202107793               0.000000000               0.194726086               0.226932143               0.000000000               0.216796442               0.251756494               0.000000000               0.238866798               0.276580845               0.000000000               0.260937153               0.301405195               0.000000000               0.283007509               0.326229546               0.000000000               0.305077865               0.351053896               0.000000000               0.327148221               0.375878247               0.000000000               0.349218577               0.400702598               0.000000000               0.371288933               0.425526948               0.000000000               0.393359288               0.450351299               0.000000000               0.415429644               0.475175649               0.000000000               0.437500000               0.500000000               0.000000000               0.073890841               0.110585458               0.000000000               0.092710163               0.134923867               0.000000000               0.111529486               0.159262276               0.000000000               0.130348808               0.183600685               0.000000000               0.149168131               0.207939094               0.000000000               0.167987453               0.232277503               0.000000000               0.186806776               0.256615912               0.000000000               0.205626098               0.280954320               0.000000000               0.224445420               0.305292729               0.000000000               0.243264743               0.329631138               0.000000000               0.262084065               0.353969547               0.000000000               0.280903388               0.378307956               0.000000000               0.299722710               0.402646365               0.000000000               0.318542033               0.426984773               0.000000000               0.337361355               0.451323182               0.000000000               0.356180678               0.475661591               0.000000000               0.375000000               0.500000000               0.000000000               0.062695766               0.117295528               0.000000000               0.078308531               0.141214558               0.000000000               0.093921295               0.165133587               0.000000000               0.109534060               0.189052617               0.000000000               0.125146824               0.212971646               0.000000000               0.140759589               0.236890676               0.000000000               0.156372354               0.260809705               0.000000000               0.171985118               0.284728735               0.000000000               0.187597883               0.308647764               0.000000000               0.203210648               0.332566794               0.000000000               0.218823412               0.356485823               0.000000000               0.234436177               0.380404853               0.000000000               0.250048941               0.404323882               0.000000000               0.265661706               0.428242912               0.000000000               0.281274471               0.452161941               0.000000000               0.296887235               0.476080971               0.000000000               0.312500000               0.500000000               0.000000000               0.050896897               0.122875978               0.000000000               0.063340840               0.146446229               0.000000000               0.075784784               0.170016481               0.000000000               0.088228728               0.193586732               0.000000000               0.100672672               0.217156983               0.000000000               0.113116616               0.240727235               0.000000000               0.125560560               0.264297486               0.000000000               0.138004504               0.287867738               0.000000000               0.150448448               0.311437989               0.000000000               0.162892392               0.335008240               0.000000000               0.175336336               0.358578492               0.000000000               0.187780280               0.382148743               0.000000000               0.200224224               0.405718994               0.000000000               0.212668168               0.429289246               0.000000000               0.225112112               0.452859497               0.000000000               0.237556056               0.476429749               0.000000000               0.250000000               0.500000000               0.000000000               0.038607862               0.127273065               0.000000000               0.047913621               0.150568498               0.000000000               0.057219379               0.173863932               0.000000000               0.066525138               0.197159365               0.000000000               0.075830897               0.220454798               0.000000000               0.085136655               0.243750232               0.000000000               0.094442414               0.267045665               0.000000000               0.103748172               0.290341099               0.000000000               0.113053931               0.313636532               0.000000000               0.122359690               0.336931966               0.000000000               0.131665448               0.360227399               0.000000000               0.140971207               0.383522833               0.000000000               0.150276966               0.406818266               0.000000000               0.159582724               0.430113700               0.000000000               0.168888483               0.453409133               0.000000000               0.178194241               0.476704567               0.000000000               0.187500000               0.500000000               0.000000000               0.025947013               0.130444442               0.000000000               0.032137825               0.153541665               0.000000000               0.038328636               0.176638887               0.000000000               0.044519448               0.199736109               0.000000000               0.050710260               0.222833332               0.000000000               0.056901071               0.245930554               0.000000000               0.063091883               0.269027776               0.000000000               0.069282695               0.292124999               0.000000000               0.075473506               0.315222221               0.000000000               0.081664318               0.338319444               0.000000000               0.087855130               0.361416666               0.000000000               0.094045942               0.384513888               0.000000000               0.100236753               0.407611111               0.000000000               0.106427565               0.430708333               0.000000000               0.112618377               0.453805555               0.000000000               0.118809188               0.476902778               0.000000000               0.125000000               0.500000000               0.000000000               0.013036280               0.132359569               0.000000000               0.016127762               0.155337096               0.000000000               0.019219245               0.178314623               0.000000000               0.022310727               0.201292150               0.000000000               0.025402210               0.224269676               0.000000000               0.028493692               0.247247203               0.000000000               0.031585175               0.270224730               0.000000000               0.034676657               0.293202257               0.000000000               0.037768140               0.316179784               0.000000000               0.040859622               0.339157311               0.000000000               0.043951105               0.362134838               0.000000000               0.047042587               0.385112365               0.000000000               0.050134070               0.408089892               0.000000000               0.053225552               0.431067419               0.000000000               0.056317035               0.454044946               0.000000000               0.059408517               0.477022473               0.000000000               0.062500000               0.500000000               0.000000000               0.000000000               0.133000000               0.000000000               0.000000000               0.155937500               0.000000000               0.000000000               0.178875000               0.000000000               0.000000000               0.201812500               0.000000000               0.000000000               0.224750000               0.000000000               0.000000000               0.247687500               0.000000000               0.000000000               0.270625000               0.000000000               0.000000000               0.293562500               0.000000000               0.000000000               0.316500000               0.000000000               0.000000000               0.339437500               0.000000000               0.000000000               0.362375000               0.000000000               0.000000000               0.385312500               0.000000000               0.000000000               0.408250000               0.000000000               0.000000000               0.431187500               0.000000000               0.000000000               0.454125000               0.000000000               0.000000000               0.477062500               0.000000000               0.000000000               0.500000000               0.000000000               0.133000000               0.000000000               0.000000000               0.155937500               0.000000000               0.000000000               0.178875000               0.000000000               0.000000000               0.201812500               0.000000000               0.000000000               0.224750000               0.000000000               0.000000000               0.247687500               0.000000000               0.000000000               0.270625000               0.000000000               0.000000000               0.293562500               0.000000000               0.000000000               0.316500000               0.000000000               0.000000000               0.339437500               0.000000000               0.000000000               0.362375000               0.000000000               0.000000000               0.385312500               0.000000000               0.000000000               0.408250000               0.000000000               0.000000000               0.431187500               0.000000000               0.000000000               0.454125000               0.000000000               0.000000000               0.477062500               0.000000000               0.000000000               0.500000000               0.000000000               0.000000000               0.132359569              -0.013036280               0.000000000               0.155337096              -0.016127762               0.000000000               0.178314623              -0.019219245               0.000000000               0.201292150              -0.022310727               0.000000000               0.224269676              -0.025402210               0.000000000               0.247247203              -0.028493692               0.000000000               0.270224730              -0.031585175               0.000000000               0.293202257              -0.034676657               0.000000000               0.316179784              -0.037768140               0.000000000               0.339157311              -0.040859622               0.000000000               0.362134838              -0.043951105               0.000000000               0.385112365              -0.047042587               0.000000000               0.408089892              -0.050134070               0.000000000               0.431067419              -0.053225552               0.000000000               0.454044946              -0.056317035               0.000000000               0.477022473              -0.059408517               0.000000000               0.500000000              -0.062500000               0.000000000               0.130444442              -0.025947013               0.000000000               0.153541665              -0.032137825               0.000000000               0.176638887              -0.038328636               0.000000000               0.199736109              -0.044519448               0.000000000               0.222833332              -0.050710260               0.000000000               0.245930554              -0.056901071               0.000000000               0.269027776              -0.063091883               0.000000000               0.292124999              -0.069282695               0.000000000               0.315222221              -0.075473506               0.000000000               0.338319444              -0.081664318               0.000000000               0.361416666              -0.087855130               0.000000000               0.384513888              -0.094045942               0.000000000               0.407611111              -0.100236753               0.000000000               0.430708333              -0.106427565               0.000000000               0.453805555              -0.112618377               0.000000000               0.476902778              -0.118809188               0.000000000               0.500000000              -0.125000000               0.000000000               0.127273065              -0.038607862               0.000000000               0.150568498              -0.047913621               0.000000000               0.173863932              -0.057219379               0.000000000               0.197159365              -0.066525138               0.000000000               0.220454798              -0.075830897               0.000000000               0.243750232              -0.085136655               0.000000000               0.267045665              -0.094442414               0.000000000               0.290341099              -0.103748172               0.000000000               0.313636532              -0.113053931               0.000000000               0.336931966              -0.122359690               0.000000000               0.360227399              -0.131665448               0.000000000               0.383522833              -0.140971207               0.000000000               0.406818266              -0.150276966               0.000000000               0.430113700              -0.159582724               0.000000000               0.453409133              -0.168888483               0.000000000               0.476704567              -0.178194241               0.000000000               0.500000000              -0.187500000               0.000000000               0.122875978              -0.050896897               0.000000000               0.146446229              -0.063340840               0.000000000               0.170016481              -0.075784784               0.000000000               0.193586732              -0.088228728               0.000000000               0.217156983              -0.100672672               0.000000000               0.240727235              -0.113116616               0.000000000               0.264297486              -0.125560560               0.000000000               0.287867738              -0.138004504               0.000000000               0.311437989              -0.150448448               0.000000000               0.335008240              -0.162892392               0.000000000               0.358578492              -0.175336336               0.000000000               0.382148743              -0.187780280               0.000000000               0.405718994              -0.200224224               0.000000000               0.429289246              -0.212668168               0.000000000               0.452859497              -0.225112112               0.000000000               0.476429749              -0.237556056               0.000000000               0.500000000              -0.250000000               0.000000000               0.117295528              -0.062695766               0.000000000               0.141214558              -0.078308531               0.000000000               0.165133587              -0.093921295               0.000000000               0.189052617              -0.109534060               0.000000000               0.212971646              -0.125146824               0.000000000               0.236890676              -0.140759589               0.000000000               0.260809705              -0.156372354               0.000000000               0.284728735              -0.171985118               0.000000000               0.308647764              -0.187597883               0.000000000               0.332566794              -0.203210648               0.000000000               0.356485823              -0.218823412               0.000000000               0.380404853              -0.234436177               0.000000000               0.404323882              -0.250048941               0.000000000               0.428242912              -0.265661706               0.000000000               0.452161941              -0.281274471               0.000000000               0.476080971              -0.296887235               0.000000000               0.500000000              -0.312500000               0.000000000               0.110585458              -0.073890841               0.000000000               0.134923867              -0.092710163               0.000000000               0.159262276              -0.111529486               0.000000000               0.183600685              -0.130348808               0.000000000               0.207939094              -0.149168131               0.000000000               0.232277503              -0.167987453               0.000000000               0.256615912              -0.186806776               0.000000000               0.280954320              -0.205626098               0.000000000               0.305292729              -0.224445420               0.000000000               0.329631138              -0.243264743               0.000000000               0.353969547              -0.262084065               0.000000000               0.378307956              -0.280903388               0.000000000               0.402646365              -0.299722710               0.000000000               0.426984773              -0.318542033               0.000000000               0.451323182              -0.337361355               0.000000000               0.475661591              -0.356180678               0.000000000               0.500000000              -0.375000000               0.000000000               0.102810390              -0.084374307               0.000000000               0.127634741              -0.106444663               0.000000000               0.152459092              -0.128515018               0.000000000               0.177283442              -0.150585374               0.000000000               0.202107793              -0.172655730               0.000000000               0.226932143              -0.194726086               0.000000000               0.251756494              -0.216796442               0.000000000               0.276580845              -0.238866798               0.000000000               0.301405195              -0.260937153               0.000000000               0.326229546              -0.283007509               0.000000000               0.351053896              -0.305077865               0.000000000               0.375878247              -0.327148221               0.000000000               0.400702598              -0.349218577               0.000000000               0.425526948              -0.371288933               0.000000000               0.450351299              -0.393359288               0.000000000               0.475175649              -0.415429644               0.000000000               0.500000000              -0.437500000               0.000000000               0.094045202              -0.094045202               0.000000000               0.119417377              -0.119417377               0.000000000               0.144789552              -0.144789552               0.000000000               0.170161727              -0.170161727               0.000000000               0.195533901              -0.195533901               0.000000000               0.220906076              -0.220906076               0.000000000               0.246278251              -0.246278251               0.000000000               0.271650426              -0.271650426               0.000000000               0.297022601              -0.297022601               0.000000000               0.322394776              -0.322394776               0.000000000               0.347766951              -0.347766951               0.000000000               0.373139126              -0.373139126               0.000000000               0.398511300              -0.398511300               0.000000000               0.423883475              -0.423883475               0.000000000               0.449255650              -0.449255650               0.000000000               0.474627825              -0.474627825               0.000000000               0.500000000              -0.500000000               0.000000000               0.084374307              -0.102810390               0.000000000               0.106444663              -0.127634741               0.000000000               0.128515018              -0.152459092               0.000000000               0.150585374              -0.177283442               0.000000000               0.172655730              -0.202107793               0.000000000               0.194726086              -0.226932143               0.000000000               0.216796442              -0.251756494               0.000000000               0.238866798              -0.276580845               0.000000000               0.260937153              -0.301405195               0.000000000               0.283007509              -0.326229546               0.000000000               0.305077865              -0.351053896               0.000000000               0.327148221              -0.375878247               0.000000000               0.349218577              -0.400702598               0.000000000               0.371288933              -0.425526948               0.000000000               0.393359288              -0.450351299               0.000000000               0.415429644              -0.475175649               0.000000000               0.437500000              -0.500000000               0.000000000               0.073890841              -0.110585458               0.000000000               0.092710163              -0.134923867               0.000000000               0.111529486              -0.159262276               0.000000000               0.130348808              -0.183600685               0.000000000               0.149168131              -0.207939094               0.000000000               0.167987453              -0.232277503               0.000000000               0.186806776              -0.256615912               0.000000000               0.205626098              -0.280954320               0.000000000               0.224445420              -0.305292729               0.000000000               0.243264743              -0.329631138               0.000000000               0.262084065              -0.353969547               0.000000000               0.280903388              -0.378307956               0.000000000               0.299722710              -0.402646365               0.000000000               0.318542033              -0.426984773               0.000000000               0.337361355              -0.451323182               0.000000000               0.356180678              -0.475661591               0.000000000               0.375000000              -0.500000000               0.000000000               0.062695766              -0.117295528               0.000000000               0.078308531              -0.141214558               0.000000000               0.093921295              -0.165133587               0.000000000               0.109534060              -0.189052617               0.000000000               0.125146824              -0.212971646               0.000000000               0.140759589              -0.236890676               0.000000000               0.156372354              -0.260809705               0.000000000               0.171985118              -0.284728735               0.000000000               0.187597883              -0.308647764               0.000000000               0.203210648              -0.332566794               0.000000000               0.218823412              -0.356485823               0.000000000               0.234436177              -0.380404853               0.000000000               0.250048941              -0.404323882               0.000000000               0.265661706              -0.428242912               0.000000000               0.281274471              -0.452161941               0.000000000               0.296887235              -0.476080971               0.000000000               0.312500000              -0.500000000               0.000000000               0.050896897              -0.122875978               0.000000000               0.063340840              -0.146446229               0.000000000               0.075784784              -0.170016481               0.000000000               0.088228728              -0.193586732               0.000000000               0.100672672              -0.217156983               0.000000000               0.113116616              -0.240727235               0.000000000               0.125560560              -0.264297486               0.000000000               0.138004504              -0.287867738               0.000000000               0.150448448              -0.311437989               0.000000000               0.162892392              -0.335008240               0.000000000               0.175336336              -0.358578492               0.000000000               0.187780280              -0.382148743               0.000000000               0.200224224              -0.405718994               0.000000000               0.212668168              -0.429289246               0.000000000               0.225112112              -0.452859497               0.000000000               0.237556056              -0.476429749               0.000000000               0.250000000              -0.500000000               0.000000000               0.038607862              -0.127273065               0.000000000               0.047913621              -0.150568498               0.000000000               0.057219379              -0.173863932               0.000000000               0.066525138              -0.197159365               0.000000000               0.075830897              -0.220454798               0.000000000               0.085136655              -0.243750232               0.000000000               0.094442414              -0.267045665               0.000000000               0.103748172              -0.290341099               0.000000000               0.113053931              -0.313636532               0.000000000               0.122359690              -0.336931966               0.000000000               0.131665448              -0.360227399               0.000000000               0.140971207              -0.383522833               0.000000000               0.150276966              -0.406818266               0.000000000               0.159582724              -0.430113700               0.000000000               0.168888483              -0.453409133               0.000000000               0.178194241              -0.476704567               0.000000000               0.187500000              -0.500000000               0.000000000               0.025947013              -0.130444442               0.000000000               0.032137825              -0.153541665               0.000000000               0.038328636              -0.176638887               0.000000000               0.044519448              -0.199736109               0.000000000               0.050710260              -0.222833332               0.000000000               0.056901071              -0.245930554               0.000000000               0.063091883              -0.269027776               0.000000000               0.069282695              -0.292124999               0.000000000               0.075473506              -0.315222221               0.000000000               0.081664318              -0.338319444               0.000000000               0.087855130              -0.361416666               0.000000000               0.094045942              -0.384513888               0.000000000               0.100236753              -0.407611111               0.000000000               0.106427565              -0.430708333               0.000000000               0.112618377              -0.453805555               0.000000000               0.118809188              -0.476902778               0.000000000               0.125000000              -0.500000000               0.000000000               0.013036280              -0.132359569               0.000000000               0.016127762              -0.155337096               0.000000000               0.019219245              -0.178314623               0.000000000               0.022310727              -0.201292150               0.000000000               0.025402210              -0.224269676               0.000000000               0.028493692              -0.247247203               0.000000000               0.031585175              -0.270224730               0.000000000               0.034676657              -0.293202257               0.000000000               0.037768140              -0.316179784               0.000000000               0.040859622              -0.339157311               0.000000000               0.043951105              -0.362134838               0.000000000               0.047042587              -0.385112365               0.000000000               0.050134070              -0.408089892               0.000000000               0.053225552              -0.431067419               0.000000000               0.056317035              -0.454044946               0.000000000               0.059408517              -0.477022473               0.000000000               0.062500000              -0.500000000               0.000000000               0.000000000              -0.133000000               0.000000000               0.000000000              -0.155937500               0.000000000               0.000000000              -0.178875000               0.000000000               0.000000000              -0.201812500               0.000000000               0.000000000              -0.224750000               0.000000000               0.000000000              -0.247687500               0.000000000               0.000000000              -0.270625000               0.000000000               0.000000000              -0.293562500               0.000000000               0.000000000              -0.316500000               0.000000000               0.000000000              -0.339437500               0.000000000               0.000000000              -0.362375000               0.000000000               0.000000000              -0.385312500               0.000000000               0.000000000              -0.408250000               0.000000000               0.000000000              -0.431187500               0.000000000               0.000000000              -0.454125000               0.000000000               0.000000000              -0.477062500               0.000000000               0.000000000              -0.500000000               0.000000000              -0.133000000               0.000000000               0.000000000              -0.155937500               0.000000000               0.000000000              -0.178875000               0.000000000               0.000000000              -0.201812500               0.000000000               0.000000000              -0.224750000               0.000000000               0.000000000              -0.247687500               0.000000000               0.000000000              -0.270625000               0.000000000               0.000000000              -0.293562500               0.000000000               0.000000000              -0.316500000               0.000000000               0.000000000              -0.339437500               0.000000000               0.000000000              -0.362375000               0.000000000               0.000000000              -0.385312500               0.000000000               0.000000000              -0.408250000               0.000000000               0.000000000              -0.431187500               0.000000000               0.000000000              -0.454125000               0.000000000               0.000000000              -0.477062500               0.000000000               0.000000000              -0.500000000               0.000000000               0.000000000              -0.132359569              -0.013036280               0.000000000              -0.155337096              -0.016127762               0.000000000              -0.178314623              -0.019219245               0.000000000              -0.201292150              -0.022310727               0.000000000              -0.224269676              -0.025402210               0.000000000              -0.247247203              -0.028493692               0.000000000              -0.270224730              -0.031585175               0.000000000              -0.293202257              -0.034676657               0.000000000              -0.316179784              -0.037768140               0.000000000              -0.339157311              -0.040859622               0.000000000              -0.362134838              -0.043951105               0.000000000              -0.385112365              -0.047042587               0.000000000              -0.408089892              -0.050134070               0.000000000              -0.431067419              -0.053225552               0.000000000              -0.454044946              -0.056317035               0.000000000              -0.477022473              -0.059408517               0.000000000              -0.500000000              -0.062500000               0.000000000              -0.130444442              -0.025947013               0.000000000              -0.153541665              -0.032137825               0.000000000              -0.176638887              -0.038328636               0.000000000              -0.199736109              -0.044519448               0.000000000              -0.222833332              -0.050710260               0.000000000              -0.245930554              -0.056901071               0.000000000              -0.269027776              -0.063091883               0.000000000              -0.292124999              -0.069282695               0.000000000              -0.315222221              -0.075473506               0.000000000              -0.338319444              -0.081664318               0.000000000              -0.361416666              -0.087855130               0.000000000              -0.384513888              -0.094045942               0.000000000              -0.407611111              -0.100236753               0.000000000              -0.430708333              -0.106427565               0.000000000              -0.453805555              -0.112618377               0.000000000              -0.476902778              -0.118809188               0.000000000              -0.500000000              -0.125000000               0.000000000              -0.127273065              -0.038607862               0.000000000              -0.150568498              -0.047913621               0.000000000              -0.173863932              -0.057219379               0.000000000              -0.197159365              -0.066525138               0.000000000              -0.220454798              -0.075830897               0.000000000              -0.243750232              -0.085136655               0.000000000              -0.267045665              -0.094442414               0.000000000              -0.290341099              -0.103748172               0.000000000              -0.313636532              -0.113053931               0.000000000              -0.336931966              -0.122359690               0.000000000              -0.360227399              -0.131665448               0.000000000              -0.383522833              -0.140971207               0.000000000              -0.406818266              -0.150276966               0.000000000              -0.430113700              -0.159582724               0.000000000              -0.453409133              -0.168888483               0.000000000              -0.476704567              -0.178194241               0.000000000              -0.500000000              -0.187500000               0.000000000              -0.122875978              -0.050896897               0.000000000              -0.146446229              -0.063340840               0.000000000              -0.170016481              -0.075784784               0.000000000              -0.193586732              -0.088228728               0.000000000              -0.217156983              -0.100672672               0.000000000              -0.240727235              -0.113116616               0.000000000              -0.264297486              -0.125560560               0.000000000              -0.287867738              -0.138004504               0.000000000              -0.311437989              -0.150448448               0.000000000              -0.335008240              -0.162892392               0.000000000              -0.358578492              -0.175336336               0.000000000              -0.382148743              -0.187780280               0.000000000              -0.405718994              -0.200224224               0.000000000              -0.429289246              -0.212668168               0.000000000              -0.452859497              -0.225112112               0.000000000              -0.476429749              -0.237556056               0.000000000              -0.500000000              -0.250000000               0.000000000              -0.117295528              -0.062695766               0.000000000              -0.141214558              -0.078308531               0.000000000              -0.165133587              -0.093921295               0.000000000              -0.189052617              -0.109534060               0.000000000              -0.212971646              -0.125146824               0.000000000              -0.236890676              -0.140759589               0.000000000              -0.260809705              -0.156372354               0.000000000              -0.284728735              -0.171985118               0.000000000              -0.308647764              -0.187597883               0.000000000              -0.332566794              -0.203210648               0.000000000              -0.356485823              -0.218823412               0.000000000              -0.380404853              -0.234436177               0.000000000              -0.404323882              -0.250048941               0.000000000              -0.428242912              -0.265661706               0.000000000              -0.452161941              -0.281274471               0.000000000              -0.476080971              -0.296887235               0.000000000              -0.500000000              -0.312500000               0.000000000              -0.110585458              -0.073890841               0.000000000              -0.134923867              -0.092710163               0.000000000              -0.159262276              -0.111529486               0.000000000              -0.183600685              -0.130348808               0.000000000              -0.207939094              -0.149168131               0.000000000              -0.232277503              -0.167987453               0.000000000              -0.256615912              -0.186806776               0.000000000              -0.280954320              -0.205626098               0.000000000              -0.305292729              -0.224445420               0.000000000              -0.329631138              -0.243264743               0.000000000              -0.353969547              -0.262084065               0.000000000              -0.378307956              -0.280903388               0.000000000              -0.402646365              -0.299722710               0.000000000              -0.426984773              -0.318542033               0.000000000              -0.451323182              -0.337361355               0.000000000              -0.475661591              -0.356180678               0.000000000              -0.500000000              -0.375000000               0.000000000              -0.102810390              -0.084374307               0.000000000              -0.127634741              -0.106444663               0.000000000              -0.152459092              -0.128515018               0.000000000              -0.177283442              -0.150585374               0.000000000              -0.202107793              -0.172655730               0.000000000              -0.226932143              -0.194726086               0.000000000              -0.251756494              -0.216796442               0.000000000              -0.276580845              -0.238866798               0.000000000              -0.301405195              -0.260937153               0.000000000              -0.326229546              -0.283007509               0.000000000              -0.351053896              -0.305077865               0.000000000              -0.375878247              -0.327148221               0.000000000              -0.400702598              -0.349218577               0.000000000              -0.425526948              -0.371288933               0.000000000              -0.450351299              -0.393359288               0.000000000              -0.475175649              -0.415429644               0.000000000              -0.500000000              -0.437500000               0.000000000              -0.094045202              -0.094045202               0.000000000              -0.119417377              -0.119417377               0.000000000              -0.144789552              -0.144789552               0.000000000              -0.170161727              -0.170161727               0.000000000              -0.195533901              -0.195533901               0.000000000              -0.220906076              -0.220906076               0.000000000              -0.246278251              -0.246278251               0.000000000              -0.271650426              -0.271650426               0.000000000              -0.297022601              -0.297022601               0.000000000              -0.322394776              -0.322394776               0.000000000              -0.347766951              -0.347766951               0.000000000              -0.373139126              -0.373139126               0.000000000              -0.398511300              -0.398511300               0.000000000              -0.423883475              -0.423883475               0.000000000              -0.449255650              -0.449255650               0.000000000              -0.474627825              -0.474627825               0.000000000              -0.500000000              -0.500000000               0.000000000              -0.084374307              -0.102810390               0.000000000              -0.106444663              -0.127634741               0.000000000              -0.128515018              -0.152459092               0.000000000              -0.150585374              -0.177283442               0.000000000              -0.172655730              -0.202107793               0.000000000              -0.194726086              -0.226932143               0.000000000              -0.216796442              -0.251756494               0.000000000              -0.238866798              -0.276580845               0.000000000              -0.260937153              -0.301405195               0.000000000              -0.283007509              -0.326229546               0.000000000              -0.305077865              -0.351053896               0.000000000              -0.327148221              -0.375878247               0.000000000              -0.349218577              -0.400702598               0.000000000              -0.371288933              -0.425526948               0.000000000              -0.393359288              -0.450351299               0.000000000              -0.415429644              -0.475175649               0.000000000              -0.437500000              -0.500000000               0.000000000              -0.073890841              -0.110585458               0.000000000              -0.092710163              -0.134923867               0.000000000              -0.111529486              -0.159262276               0.000000000              -0.130348808              -0.183600685               0.000000000              -0.149168131              -0.207939094               0.000000000              -0.167987453              -0.232277503               0.000000000              -0.186806776              -0.256615912               0.000000000              -0.205626098              -0.280954320               0.000000000              -0.224445420              -0.305292729               0.000000000              -0.243264743              -0.329631138               0.000000000              -0.262084065              -0.353969547               0.000000000              -0.280903388              -0.378307956               0.000000000              -0.299722710              -0.402646365               0.000000000              -0.318542033              -0.426984773               0.000000000              -0.337361355              -0.451323182               0.000000000              -0.356180678              -0.475661591               0.000000000              -0.375000000              -0.500000000               0.000000000              -0.062695766              -0.117295528               0.000000000              -0.078308531              -0.141214558               0.000000000              -0.093921295              -0.165133587               0.000000000              -0.109534060              -0.189052617               0.000000000              -0.125146824              -0.212971646               0.000000000              -0.140759589              -0.236890676               0.000000000              -0.156372354              -0.260809705               0.000000000              -0.171985118              -0.284728735               0.000000000              -0.187597883              -0.308647764               0.000000000              -0.203210648              -0.332566794               0.000000000              -0.218823412              -0.356485823               0.000000000              -0.234436177              -0.380404853               0.000000000              -0.250048941              -0.404323882               0.000000000              -0.265661706              -0.428242912               0.000000000              -0.281274471              -0.452161941               0.000000000              -0.296887235              -0.476080971               0.000000000              -0.312500000              -0.500000000               0.000000000              -0.050896897              -0.122875978               0.000000000              -0.063340840              -0.146446229               0.000000000              -0.075784784              -0.170016481               0.000000000              -0.088228728              -0.193586732               0.000000000              -0.100672672              -0.217156983               0.000000000              -0.113116616              -0.240727235               0.000000000              -0.125560560              -0.264297486               0.000000000              -0.138004504              -0.287867738               0.000000000              -0.150448448              -0.311437989               0.000000000              -0.162892392              -0.335008240               0.000000000              -0.175336336              -0.358578492               0.000000000              -0.187780280              -0.382148743               0.000000000              -0.200224224              -0.405718994               0.000000000              -0.212668168              -0.429289246               0.000000000              -0.225112112              -0.452859497               0.000000000              -0.237556056              -0.476429749               0.000000000              -0.250000000              -0.500000000               0.000000000              -0.038607862              -0.127273065               0.000000000              -0.047913621              -0.150568498               0.000000000              -0.057219379              -0.173863932               0.000000000              -0.066525138              -0.197159365               0.000000000              -0.075830897              -0.220454798               0.000000000              -0.085136655              -0.243750232               0.000000000              -0.094442414              -0.267045665               0.000000000              -0.103748172              -0.290341099               0.000000000              -0.113053931              -0.313636532               0.000000000              -0.122359690              -0.336931966               0.000000000              -0.131665448              -0.360227399               0.000000000              -0.140971207              -0.383522833               0.000000000              -0.150276966              -0.406818266               0.000000000              -0.159582724              -0.430113700               0.000000000              -0.168888483              -0.453409133               0.000000000              -0.178194241              -0.476704567               0.000000000              -0.187500000              -0.500000000               0.000000000              -0.025947013              -0.130444442               0.000000000              -0.032137825              -0.153541665               0.000000000              -0.038328636              -0.176638887               0.000000000              -0.044519448              -0.199736109               0.000000000              -0.050710260              -0.222833332               0.000000000              -0.056901071              -0.245930554               0.000000000              -0.063091883              -0.269027776               0.000000000              -0.069282695              -0.292124999               0.000000000              -0.075473506              -0.315222221               0.000000000              -0.081664318              -0.338319444               0.000000000              -0.087855130              -0.361416666               0.000000000              -0.094045942              -0.384513888               0.000000000              -0.100236753              -0.407611111               0.000000000              -0.106427565              -0.430708333               0.000000000              -0.112618377              -0.453805555               0.000000000              -0.118809188              -0.476902778               0.000000000              -0.125000000              -0.500000000               0.000000000              -0.013036280              -0.132359569               0.000000000              -0.016127762              -0.155337096               0.000000000              -0.019219245              -0.178314623               0.000000000              -0.022310727              -0.201292150               0.000000000              -0.025402210              -0.224269676               0.000000000              -0.028493692              -0.247247203               0.000000000              -0.031585175              -0.270224730               0.000000000              -0.034676657              -0.293202257               0.000000000              -0.037768140              -0.316179784               0.000000000              -0.040859622              -0.339157311               0.000000000              -0.043951105              -0.362134838               0.000000000              -0.047042587              -0.385112365               0.000000000              -0.050134070              -0.408089892               0.000000000              -0.053225552              -0.431067419               0.000000000              -0.056317035              -0.454044946               0.000000000              -0.059408517              -0.477022473               0.000000000              -0.062500000              -0.500000000               0.000000000               0.000000000              -0.133000000               0.000000000               0.000000000              -0.155937500               0.000000000               0.000000000              -0.178875000               0.000000000               0.000000000              -0.201812500               0.000000000               0.000000000              -0.224750000               0.000000000               0.000000000              -0.247687500               0.000000000               0.000000000              -0.270625000               0.000000000               0.000000000              -0.293562500               0.000000000               0.000000000              -0.316500000               0.000000000               0.000000000              -0.339437500               0.000000000               0.000000000              -0.362375000               0.000000000               0.000000000              -0.385312500               0.000000000               0.000000000              -0.408250000               0.000000000               0.000000000              -0.431187500               0.000000000               0.000000000              -0.454125000               0.000000000               0.000000000              -0.477062500               0.000000000               0.000000000              -0.500000000               0.000000000              -0.133000000               0.000000000               0.000000000              -0.155937500               0.000000000               0.000000000              -0.178875000               0.000000000               0.000000000              -0.201812500               0.000000000               0.000000000              -0.224750000               0.000000000               0.000000000              -0.247687500               0.000000000               0.000000000              -0.270625000               0.000000000               0.000000000              -0.293562500               0.000000000               0.000000000              -0.316500000               0.000000000               0.000000000              -0.339437500               0.000000000               0.000000000              -0.362375000               0.000000000               0.000000000              -0.385312500               0.000000000               0.000000000              -0.408250000               0.000000000               0.000000000              -0.431187500               0.000000000               0.000000000              -0.454125000               0.000000000               0.000000000              -0.477062500               0.000000000               0.000000000              -0.500000000               0.000000000               0.000000000              -0.132359569               0.013036280               0.000000000              -0.155337096               0.016127762               0.000000000              -0.178314623               0.019219245               0.000000000              -0.201292150               0.022310727               0.000000000              -0.224269676               0.025402210               0.000000000              -0.247247203               0.028493692               0.000000000              -0.270224730               0.031585175               0.000000000              -0.293202257               0.034676657               0.000000000              -0.316179784               0.037768140               0.000000000              -0.339157311               0.040859622               0.000000000              -0.362134838               0.043951105               0.000000000              -0.385112365               0.047042587               0.000000000              -0.408089892               0.050134070               0.000000000              -0.431067419               0.053225552               0.000000000              -0.454044946               0.056317035               0.000000000              -0.477022473               0.059408517               0.000000000              -0.500000000               0.062500000               0.000000000              -0.130444442               0.025947013               0.000000000              -0.153541665               0.032137825               0.000000000              -0.176638887               0.038328636               0.000000000              -0.199736109               0.044519448               0.000000000              -0.222833332               0.050710260               0.000000000              -0.245930554               0.056901071               0.000000000              -0.269027776               0.063091883               0.000000000              -0.292124999               0.069282695               0.000000000              -0.315222221               0.075473506               0.000000000              -0.338319444               0.081664318               0.000000000              -0.361416666               0.087855130               0.000000000              -0.384513888               0.094045942               0.000000000              -0.407611111               0.100236753               0.000000000              -0.430708333               0.106427565               0.000000000              -0.453805555               0.112618377               0.000000000              -0.476902778               0.118809188               0.000000000              -0.500000000               0.125000000               0.000000000              -0.127273065               0.038607862               0.000000000              -0.150568498               0.047913621               0.000000000              -0.173863932               0.057219379               0.000000000              -0.197159365               0.066525138               0.000000000              -0.220454798               0.075830897               0.000000000              -0.243750232               0.085136655               0.000000000              -0.267045665               0.094442414               0.000000000              -0.290341099               0.103748172               0.000000000              -0.313636532               0.113053931               0.000000000              -0.336931966               0.122359690               0.000000000              -0.360227399               0.131665448               0.000000000              -0.383522833               0.140971207               0.000000000              -0.406818266               0.150276966               0.000000000              -0.430113700               0.159582724               0.000000000              -0.453409133               0.168888483               0.000000000              -0.476704567               0.178194241               0.000000000              -0.500000000               0.187500000               0.000000000              -0.122875978               0.050896897               0.000000000              -0.146446229               0.063340840               0.000000000              -0.170016481               0.075784784               0.000000000              -0.193586732               0.088228728               0.000000000              -0.217156983               0.100672672               0.000000000              -0.240727235               0.113116616               0.000000000              -0.264297486               0.125560560               0.000000000              -0.287867738               0.138004504               0.000000000              -0.311437989               0.150448448               0.000000000              -0.335008240               0.162892392               0.000000000              -0.358578492               0.175336336               0.000000000              -0.382148743               0.187780280               0.000000000              -0.405718994               0.200224224               0.000000000              -0.429289246               0.212668168               0.000000000              -0.452859497               0.225112112               0.000000000              -0.476429749               0.237556056               0.000000000              -0.500000000               0.250000000               0.000000000              -0.117295528               0.062695766               0.000000000              -0.141214558               0.078308531               0.000000000              -0.165133587               0.093921295               0.000000000              -0.189052617               0.109534060               0.000000000              -0.212971646               0.125146824               0.000000000              -0.236890676               0.140759589               0.000000000              -0.260809705               0.156372354               0.000000000              -0.284728735               0.171985118               0.000000000              -0.308647764               0.187597883               0.000000000              -0.332566794               0.203210648               0.000000000              -0.356485823               0.218823412               0.000000000              -0.380404853               0.234436177               0.000000000              -0.404323882               0.250048941               0.000000000              -0.428242912               0.265661706               0.000000000              -0.452161941               0.281274471               0.000000000              -0.476080971               0.296887235               0.000000000              -0.500000000               0.312500000               0.000000000              -0.110585458               0.073890841               0.000000000              -0.134923867               0.092710163               0.000000000              -0.159262276               0.111529486               0.000000000              -0.183600685               0.130348808               0.000000000              -0.207939094               0.149168131               0.000000000              -0.232277503               0.167987453               0.000000000              -0.256615912               0.186806776               0.000000000              -0.280954320               0.205626098               0.000000000              -0.305292729               0.224445420               0.000000000              -0.329631138               0.243264743               0.000000000              -0.353969547               0.262084065               0.000000000              -0.378307956               0.280903388               0.000000000              -0.402646365               0.299722710               0.000000000              -0.426984773               0.318542033               0.000000000              -0.451323182               0.337361355               0.000000000              -0.475661591               0.356180678               0.000000000              -0.500000000               0.375000000               0.000000000              -0.102810390               0.084374307               0.000000000              -0.127634741               0.106444663               0.000000000              -0.152459092               0.128515018               0.000000000              -0.177283442               0.150585374               0.000000000              -0.202107793               0.172655730               0.000000000              -0.226932143               0.194726086               0.000000000              -0.251756494               0.216796442               0.000000000              -0.276580845               0.238866798               0.000000000              -0.301405195               0.260937153               0.000000000              -0.326229546               0.283007509               0.000000000              -0.351053896               0.305077865               0.000000000              -0.375878247               0.327148221               0.000000000              -0.400702598               0.349218577               0.000000000              -0.425526948               0.371288933               0.000000000              -0.450351299               0.393359288               0.000000000              -0.475175649               0.415429644               0.000000000              -0.500000000               0.437500000               0.000000000              -0.094045202               0.094045202               0.000000000              -0.119417377               0.119417377               0.000000000              -0.144789552               0.144789552               0.000000000              -0.170161727               0.170161727               0.000000000              -0.195533901               0.195533901               0.000000000              -0.220906076               0.220906076               0.000000000              -0.246278251               0.246278251               0.000000000              -0.271650426               0.271650426               0.000000000              -0.297022601               0.297022601               0.000000000              -0.322394776               0.322394776               0.000000000              -0.347766951               0.347766951               0.000000000              -0.373139126               0.373139126               0.000000000              -0.398511300               0.398511300               0.000000000              -0.423883475               0.423883475               0.000000000              -0.449255650               0.449255650               0.000000000              -0.474627825               0.474627825               0.000000000              -0.500000000               0.500000000               0.000000000              -0.084374307               0.102810390               0.000000000              -0.106444663               0.127634741               0.000000000              -0.128515018               0.152459092               0.000000000              -0.150585374               0.177283442               0.000000000              -0.172655730               0.202107793               0.000000000              -0.194726086               0.226932143               0.000000000              -0.216796442               0.251756494               0.000000000              -0.238866798               0.276580845               0.000000000              -0.260937153               0.301405195               0.000000000              -0.283007509               0.326229546               0.000000000              -0.305077865               0.351053896               0.000000000              -0.327148221               0.375878247               0.000000000              -0.349218577               0.400702598               0.000000000              -0.371288933               0.425526948               0.000000000              -0.393359288               0.450351299               0.000000000              -0.415429644               0.475175649               0.000000000              -0.437500000               0.500000000               0.000000000              -0.073890841               0.110585458               0.000000000              -0.092710163               0.134923867               0.000000000              -0.111529486               0.159262276               0.000000000              -0.130348808               0.183600685               0.000000000              -0.149168131               0.207939094               0.000000000              -0.167987453               0.232277503               0.000000000              -0.186806776               0.256615912               0.000000000              -0.205626098               0.280954320               0.000000000              -0.224445420               0.305292729               0.000000000              -0.243264743               0.329631138               0.000000000              -0.262084065               0.353969547               0.000000000              -0.280903388               0.378307956               0.000000000              -0.299722710               0.402646365               0.000000000              -0.318542033               0.426984773               0.000000000              -0.337361355               0.451323182               0.000000000              -0.356180678               0.475661591               0.000000000              -0.375000000               0.500000000               0.000000000              -0.062695766               0.117295528               0.000000000              -0.078308531               0.141214558               0.000000000              -0.093921295               0.165133587               0.000000000              -0.109534060               0.189052617               0.000000000              -0.125146824               0.212971646               0.000000000              -0.140759589               0.236890676               0.000000000              -0.156372354               0.260809705               0.000000000              -0.171985118               0.284728735               0.000000000              -0.187597883               0.308647764               0.000000000              -0.203210648               0.332566794               0.000000000              -0.218823412               0.356485823               0.000000000              -0.234436177               0.380404853               0.000000000              -0.250048941               0.404323882               0.000000000              -0.265661706               0.428242912               0.000000000              -0.281274471               0.452161941               0.000000000              -0.296887235               0.476080971               0.000000000              -0.312500000               0.500000000               0.000000000              -0.050896897               0.122875978               0.000000000              -0.063340840               0.146446229               0.000000000              -0.075784784               0.170016481               0.000000000              -0.088228728               0.193586732               0.000000000              -0.100672672               0.217156983               0.000000000              -0.113116616               0.240727235               0.000000000              -0.125560560               0.264297486               0.000000000              -0.138004504               0.287867738               0.000000000              -0.150448448               0.311437989               0.000000000              -0.162892392               0.335008240               0.000000000              -0.175336336               0.358578492               0.000000000              -0.187780280               0.382148743               0.000000000              -0.200224224               0.405718994               0.000000000              -0.212668168               0.429289246               0.000000000              -0.225112112               0.452859497               0.000000000              -0.237556056               0.476429749               0.000000000              -0.250000000               0.500000000               0.000000000              -0.038607862               0.127273065               0.000000000              -0.047913621               0.150568498               0.000000000              -0.057219379               0.173863932               0.000000000              -0.066525138               0.197159365               0.000000000              -0.075830897               0.220454798               0.000000000              -0.085136655               0.243750232               0.000000000              -0.094442414               0.267045665               0.000000000              -0.103748172               0.290341099               0.000000000              -0.113053931               0.313636532               0.000000000              -0.122359690               0.336931966               0.000000000              -0.131665448               0.360227399               0.000000000              -0.140971207               0.383522833               0.000000000              -0.150276966               0.406818266               0.000000000              -0.159582724               0.430113700               0.000000000              -0.168888483               0.453409133               0.000000000              -0.178194241               0.476704567               0.000000000              -0.187500000               0.500000000               0.000000000              -0.025947013               0.130444442               0.000000000              -0.032137825               0.153541665               0.000000000              -0.038328636               0.176638887               0.000000000              -0.044519448               0.199736109               0.000000000              -0.050710260               0.222833332               0.000000000              -0.056901071               0.245930554               0.000000000              -0.063091883               0.269027776               0.000000000              -0.069282695               0.292124999               0.000000000              -0.075473506               0.315222221               0.000000000              -0.081664318               0.338319444               0.000000000              -0.087855130               0.361416666               0.000000000              -0.094045942               0.384513888               0.000000000              -0.100236753               0.407611111               0.000000000              -0.106427565               0.430708333               0.000000000              -0.112618377               0.453805555               0.000000000              -0.118809188               0.476902778               0.000000000              -0.125000000               0.500000000               0.000000000              -0.013036280               0.132359569               0.000000000              -0.016127762               0.155337096               0.000000000              -0.019219245               0.178314623               0.000000000              -0.022310727               0.201292150               0.000000000              -0.025402210               0.224269676               0.000000000              -0.028493692               0.247247203               0.000000000              -0.031585175               0.270224730               0.000000000              -0.034676657               0.293202257               0.000000000              -0.037768140               0.316179784               0.000000000              -0.040859622               0.339157311               0.000000000              -0.043951105               0.362134838               0.000000000              -0.047042587               0.385112365               0.000000000              -0.050134070               0.408089892               0.000000000              -0.053225552               0.431067419               0.000000000              -0.056317035               0.454044946               0.000000000              -0.059408517               0.477022473               0.000000000              -0.062500000               0.500000000               0.000000000               0.000000000               0.133000000               0.000000000               0.000000000               0.155937500               0.000000000               0.000000000               0.178875000               0.000000000               0.000000000               0.201812500               0.000000000               0.000000000               0.224750000               0.000000000               0.000000000               0.247687500               0.000000000               0.000000000               0.270625000               0.000000000               0.000000000               0.293562500               0.000000000               0.000000000               0.316500000               0.000000000               0.000000000               0.339437500               0.000000000               0.000000000               0.362375000               0.000000000               0.000000000               0.385312500               0.000000000               0.000000000               0.408250000               0.000000000               0.000000000               0.431187500               0.000000000               0.000000000               0.454125000               0.000000000               0.000000000               0.477062500               0.000000000               0.000000000               0.500000000               0.000000000 </DataArray>
</Points>
<Cells>
<DataArray type="Int32"                                    Name="connectivity"                                                      NumberOfComponents=" 1" format="ascii">
         0          1         18         17          1          2         19         18          2          3         20         19          3          4         21         20          4          5         22         21          5          6         23         22          6          7         24         23          7          8         25         24          8          9         26         25          9         10         27         26         10         11         28         27         11         12         29         28         12         13         30         29         13         14         31         30         14         15         32         31         15         16         33         32         17         18         35         34         18         19         36         35         19         20         37         36         20         21         38         37         21         22         39         38         22         23         40         39         23         24         41         40         24         25         42         41         25         26         43         42         26         27         44         43         27         28         45         44         28         29         46         45         29         30         47         46         30         31         48         47         31         32         49         48         32         33         50         49         34         35         52         51         35         36         53         52         36         37         54         53         37         38         55         54         38         39         56         55         39         40         57         56         40         41         58         57         41         42         59         58         42         43         60         59         43         44         61         60         44         45         62         61         45         46         63         62         46         47         64         63         47         48         65         64         48         49         66         65         49         50         67         66         51         52         69         68         52         53         70         69         53         54         71         70         54         55         72         71         55         56         73         72         56         57         74         73         57         58         75         74         58         59         76         75         59         60         77         76         60         61         78         77         61         62         79         78         62         63         80         79         63         64         81         80         64         65         82         81         65         66         83         82         66         67         84         83         68         69         86         85         69         70         87         86         70         71         88         87         71         72         89         88         72         73         90         89         73         74         91         90         74         75         92         91         75         76         93         92         76         77         94         93         77         78         95         94         78         79         96         95         79         80         97         96         80         81         98         97         81         82         99         98         82         83        100         99         83         84        101        100         85         86        103        102         86         87        104        103         87         88        105        104         88         89        106        105         89         90        107        106         90         91        108        107         91         92        109        108         92         93        110        109         93         94        111        110         94         95        112        111         95         96        113        112         96         97        114        113         97         98        115        114         98         99        116        115         99        100        117        116        100        101        118        117        102        103        120        119        103        104        121        120        104        105        122        121        105        106        123        122        106        107        124        123        107        108        125        124        108        109        126        125        109        110        127        126        110        111        128        127        111        112        129        128        112        113        130        129        113        114        131        130        114        115        132        131        115        116        133        132        116        117        134        133        117        118        135        134        119        120        137        136        120        121        138        137        121        122        139        138        122        123        140        139        123        124        141        140        124        125        142        141        125        126        143        142        126        127        144        143        127        128        145        144        128        129        146        145        129        130        147        146        130        131        148        147        131        132        149        148        132        133        150        149        133        134        151        150        134        135        152        151        136        137        154        153        137        138        155        154        138        139        156        155        139        140        157        156        140        141        158        157        141        142        159        158        142        143        160        159        143        144        161        160        144        145        162        161        145        146        163        162        146        147        164        163        147        148        165        164        148        149        166        165        149        150        167        166        150        151        168        167        151        152        169        168        153        154        171        170        154        155        172        171        155        156        173        172        156        157        174        173        157        158        175        174        158        159        176        175        159        160        177        176        160        161        178        177        161        162        179        178        162        163        180        179        163        164        181        180        164        165        182        181        165        166        183        182        166        167        184        183        167        168        185        184        168        169        186        185        170        171        188        187        171        172        189        188        172        173        190        189        173        174        191        190        174        175        192        191        175        176        193        192        176        177        194        193        177        178        195        194        178        179        196        195        179        180        197        196        180        181        198        197        181        182        199        198        182        183        200        199        183        184        201        200        184        185        202        201        185        186        203        202        187        188        205        204        188        189        206        205        189        190        207        206        190        191        208        207        191        192        209        208        192        193        210        209        193        194        211        210        194        195        212        211        195        196        213        212        196        197        214        213        197        198        215        214        198        199        216        215        199        200        217        216        200        201        218        217        201        202        219        218        202        203        220        219        204        205        222        221        205        206        223        222        206        207        224        223        207        208        225        224        208        209        226        225        209        210        227        226        210        211        228        227        211        212        229        228        212        213        230        229        213        214        231        230        214        215        232        231        215        216        233        232        216        217        234        233        217        218        235        234        218        219        236        235        219        220        237        236        221        222        239        238        222        223        240        239        223        224        241        240        224        225        242        241        225        226        243        242        226        227        244        243        227        228        245        244        228        229        246        245        229        230        247        246        230        231        248        247        231        232        249        248        232        233        250        249        233        234        251        250        234        235        252        251        235        236        253        252        236        237        254        253        238        239        256        255        239        240        257        256        240        241        258        257        241        242        259        258        242        243        260        259        243        244        261        260        244        245        262        261        245        246        263        262        246        247        264        263        247        248        265        264        248        249        266        265        249        250        267        266        250        251        268        267        251        252        269        268        252        253        270        269        253        254        271        270        255        256        273        272        256        257        274        273        257        258        275        274        258        259        276        275        259        260        277        276        260        261        278        277        261        262        279        278        262        263        280        279        263        264        281        280        264        265        282        281        265        266        283        282        266        267        284        283        267        268        285        284        268        269        286        285        269        270        287        286        270        271        288        287        306        307          1          0        307        308          2          1        308        309          3          2        309        310          4          3        310        311          5          4        311        312          6          5        312        313          7          6        313        314          8          7        314        315          9          8        315        316         10          9        316        317         11         10        317        318         12         11        318        319         13         12        319        320         14         13        320        321         15         14        321        322         16         15        323        324        307        306        324        325        308        307        325        326        309        308        326        327        310        309        327        328        311        310        328        329        312        311        329        330        313        312        330        331        314        313        331        332        315        314        332        333        316        315        333        334        317        316        334        335        318        317        335        336        319        318        336        337        320        319        337        338        321        320        338        339        322        321        340        341        324        323        341        342        325        324        342        343        326        325        343        344        327        326        344        345        328        327        345        346        329        328        346        347        330        329        347        348        331        330        348        349        332        331        349        350        333        332        350        351        334        333        351        352        335        334        352        353        336        335        353        354        337        336        354        355        338        337        355        356        339        338        357        358        341        340        358        359        342        341        359        360        343        342        360        361        344        343        361        362        345        344        362        363        346        345        363        364        347        346        364        365        348        347        365        366        349        348        366        367        350        349        367        368        351        350        368        369        352        351        369        370        353        352        370        371        354        353        371        372        355        354        372        373        356        355        374        375        358        357        375        376        359        358        376        377        360        359        377        378        361        360        378        379        362        361        379        380        363        362        380        381        364        363        381        382        365        364        382        383        366        365        383        384        367        366        384        385        368        367        385        386        369        368        386        387        370        369        387        388        371        370        388        389        372        371        389        390        373        372        391        392        375        374        392        393        376        375        393        394        377        376        394        395        378        377        395        396        379        378        396        397        380        379        397        398        381        380        398        399        382        381        399        400        383        382        400        401        384        383        401        402        385        384        402        403        386        385        403        404        387        386        404        405        388        387        405        406        389        388        406        407        390        389        408        409        392        391        409        410        393        392        410        411        394        393        411        412        395        394        412        413        396        395        413        414        397        396        414        415        398        397        415        416        399        398        416        417        400        399        417        418        401        400        418        419        402        401        419        420        403        402        420        421        404        403        421        422        405        404        422        423        406        405        423        424        407        406        425        426        409        408        426        427        410        409        427        428        411        410        428        429        412        411        429        430        413        412        430        431        414        413        431        432        415        414        432        433        416        415        433        434        417        416        434        435        418        417        435        436        419        418        436        437        420        419        437        438        421        420        438        439        422        421        439        440        423        422        440        441        424        423        442        443        426        425        443        444        427        426        444        445        428        427        445        446        429        428        446        447        430        429        447        448        431        430        448        449        432        431        449        450        433        432        450        451        434        433        451        452        435        434        452        453        436        435        453        454        437        436        454        455        438        437        455        456        439        438        456        457        440        439        457        458        441        440        459        460        443        442        460        461        444        443        461        462        445        444        462        463        446        445        463        464        447        446        464        465        448        447        465        466        449        448        466        467        450        449        467        468        451        450        468        469        452        451        469        470        453        452        470        471        454        453        471        472        455        454        472        473        456        455        473        474        457        456        474        475        458        457        476        477        460        459        477        478        461        460        478        479        462        461        479        480        463        462        480        481        464        463        481        482        465        464        482        483        466        465        483        484        467        466        484        485        468        467        485        486        469        468        486        487        470        469        487        488        471        470        488        489        472        471        489        490        473        472        490        491        474        473        491        492        475        474        493        494        477        476        494        495        478        477        495        496        479        478        496        497        480        479        497        498        481        480        498        499        482        481        499        500        483        482        500        501        484        483        501        502        485        484        502        503        486        485        503        504        487        486        504        505        488        487        505        506        489        488        506        507        490        489        507        508        491        490        508        509        492        491        510        511        494        493        511        512        495        494        512        513        496        495        513        514        497        496        514        515        498        497        515        516        499        498        516        517        500        499        517        518        501        500        518        519        502        501        519        520        503        502        520        521        504        503        521        522        505        504        522        523        506        505        523        524        507        506        524        525        508        507        525        526        509        508        527        528        511        510        528        529        512        511        529        530        513        512        530        531        514        513        531        532        515        514        532        533        516        515        533        534        517        516        534        535        518        517        535        536        519        518        536        537        520        519        537        538        521        520        538        539        522        521        539        540        523        522        540        541        524        523        541        542        525        524        542        543        526        525        544        545        528        527        545        546        529        528        546        547        530        529        547        548        531        530        548        549        532        531        549        550        533        532        550        551        534        533        551        552        535        534        552        553        536        535        553        554        537        536        554        555        538        537        555        556        539        538        556        557        540        539        557        558        541        540        558        559        542        541        559        560        543        542        561        562        545        544        562        563        546        545        563        564        547        546        564        565        548        547        565        566        549        548        566        567        550        549        567        568        551        550        568        569        552        551        569        570        553        552        570        571        554        553        571        572        555        554        572        573        556        555        573        574        557        556        574        575        558        557        575        576        559        558        576        577        560        559        578        579        596        595        579        580        597        596        580        581        598        597        581        582        599        598        582        583        600        599        583        584        601        600        584        585        602        601        585        586        603        602        586        587        604        603        587        588        605        604        588        589        606        605        589        590        607        606        590        591        608        607        591        592        609        608        592        593        610        609        593        594        611        610        595        596        613        612        596        597        614        613        597        598        615        614        598        599        616        615        599        600        617        616        600        601        618        617        601        602        619        618        602        603        620        619        603        604        621        620        604        605        622        621        605        606        623        622        606        607        624        623        607        608        625        624        608        609        626        625        609        610        627        626        610        611        628        627        612        613        630        629        613        614        631        630        614        615        632        631        615        616        633        632        616        617        634        633        617        618        635        634        618        619        636        635        619        620        637        636        620        621        638        637        621        622        639        638        622        623        640        639        623        624        641        640        624        625        642        641        625        626        643        642        626        627        644        643        627        628        645        644        629        630        647        646        630        631        648        647        631        632        649        648        632        633        650        649        633        634        651        650        634        635        652        651        635        636        653        652        636        637        654        653        637        638        655        654        638        639        656        655        639        640        657        656        640        641        658        657        641        642        659        658        642        643        660        659        643        644        661        660        644        645        662        661        646        647        664        663        647        648        665        664        648        649        666        665        649        650        667        666        650        651        668        667        651        652        669        668        652        653        670        669        653        654        671        670        654        655        672        671        655        656        673        672        656        657        674        673        657        658        675        674        658        659        676        675        659        660        677        676        660        661        678        677        661        662        679        678        663        664        681        680        664        665        682        681        665        666        683        682        666        667        684        683        667        668        685        684        668        669        686        685        669        670        687        686        670        671        688        687        671        672        689        688        672        673        690        689        673        674        691        690        674        675        692        691        675        676        693        692        676        677        694        693        677        678        695        694        678        679        696        695        680        681        698        697        681        682        699        698        682        683        700        699        683        684        701        700        684        685        702        701        685        686        703        702        686        687        704        703        687        688        705        704        688        689        706        705        689        690        707        706        690        691        708        707        691        692        709        708        692        693        710        709        693        694        711        710        694        695        712        711        695        696        713        712        697        698        715        714        698        699        716        715        699        700        717        716        700        701        718        717        701        702        719        718        702        703        720        719        703        704        721        720        704        705        722        721        705        706        723        722        706        707        724        723        707        708        725        724        708        709        726        725        709        710        727        726        710        711        728        727        711        712        729        728        712        713        730        729        714        715        732        731        715        716        733        732        716        717        734        733        717        718        735        734        718        719        736        735        719        720        737        736        720        721        738        737        721        722        739        738        722        723        740        739        723        724        741        740        724        725        742        741        725        726        743        742        726        727        744        743        727        728        745        744        728        729        746        745        729        730        747        746        731        732        749        748        732        733        750        749        733        734        751        750        734        735        752        751        735        736        753        752        736        737        754        753        737        738        755        754        738        739        756        755        739        740        757        756        740        741        758        757        741        742        759        758        742        743        760        759        743        744        761        760        744        745        762        761        745        746        763        762        746        747        764        763        748        749        766        765        749        750        767        766        750        751        768        767        751        752        769        768        752        753        770        769        753        754        771        770        754        755        772        771        755        756        773        772        756        757        774        773        757        758        775        774        758        759        776        775        759        760        777        776        760        761        778        777        761        762        779        778        762        763        780        779        763        764        781        780        765        766        783        782        766        767        784        783        767        768        785        784        768        769        786        785        769        770        787        786        770        771        788        787        771        772        789        788        772        773        790        789        773        774        791        790        774        775        792        791        775        776        793        792        776        777        794        793        777        778        795        794        778        779        796        795        779        780        797        796        780        781        798        797        782        783        800        799        783        784        801        800        784        785        802        801        785        786        803        802        786        787        804        803        787        788        805        804        788        789        806        805        789        790        807        806        790        791        808        807        791        792        809        808        792        793        810        809        793        794        811        810        794        795        812        811        795        796        813        812        796        797        814        813        797        798        815        814        799        800        817        816        800        801        818        817        801        802        819        818        802        803        820        819        803        804        821        820        804        805        822        821        805        806        823        822        806        807        824        823        807        808        825        824        808        809        826        825        809        810        827        826        810        811        828        827        811        812        829        828        812        813        830        829        813        814        831        830        814        815        832        831        816        817        834        833        817        818        835        834        818        819        836        835        819        820        837        836        820        821        838        837        821        822        839        838        822        823        840        839        823        824        841        840        824        825        842        841        825        826        843        842        826        827        844        843        827        828        845        844        828        829        846        845        829        830        847        846        830        831        848        847        831        832        849        848        833        834        562        561        834        835        563        562        835        836        564        563        836        837        565        564        837        838        566        565        838        839        567        566        839        840        568        567        840        841        569        568        841        842        570        569        842        843        571        570        843        844        572        571        844        845        573        572        845        846        574        573        846        847        575        574        847        848        576        575        848        849        577        576        884        885        579        578        885        886        580        579        886        887        581        580        887        888        582        581        888        889        583        582        889        890        584        583        890        891        585        584        891        892        586        585        892        893        587        586        893        894        588        587        894        895        589        588        895        896        590        589        896        897        591        590        897        898        592        591        898        899        593        592        899        900        594        593        901        902        885        884        902        903        886        885        903        904        887        886        904        905        888        887        905        906        889        888        906        907        890        889        907        908        891        890        908        909        892        891        909        910        893        892        910        911        894        893        911        912        895        894        912        913        896        895        913        914        897        896        914        915        898        897        915        916        899        898        916        917        900        899        918        919        902        901        919        920        903        902        920        921        904        903        921        922        905        904        922        923        906        905        923        924        907        906        924        925        908        907        925        926        909        908        926        927        910        909        927        928        911        910        928        929        912        911        929        930        913        912        930        931        914        913        931        932        915        914        932        933        916        915        933        934        917        916        935        936        919        918        936        937        920        919        937        938        921        920        938        939        922        921        939        940        923        922        940        941        924        923        941        942        925        924        942        943        926        925        943        944        927        926        944        945        928        927        945        946        929        928        946        947        930        929        947        948        931        930        948        949        932        931        949        950        933        932        950        951        934        933        952        953        936        935        953        954        937        936        954        955        938        937        955        956        939        938        956        957        940        939        957        958        941        940        958        959        942        941        959        960        943        942        960        961        944        943        961        962        945        944        962        963        946        945        963        964        947        946        964        965        948        947        965        966        949        948        966        967        950        949        967        968        951        950        969        970        953        952        970        971        954        953        971        972        955        954        972        973        956        955        973        974        957        956        974        975        958        957        975        976        959        958        976        977        960        959        977        978        961        960        978        979        962        961        979        980        963        962        980        981        964        963        981        982        965        964        982        983        966        965        983        984        967        966        984        985        968        967        986        987        970        969        987        988        971        970        988        989        972        971        989        990        973        972        990        991        974        973        991        992        975        974        992        993        976        975        993        994        977        976        994        995        978        977        995        996        979        978        996        997        980        979        997        998        981        980        998        999        982        981        999       1000        983        982       1000       1001        984        983       1001       1002        985        984       1003       1004        987        986       1004       1005        988        987       1005       1006        989        988       1006       1007        990        989       1007       1008        991        990       1008       1009        992        991       1009       1010        993        992       1010       1011        994        993       1011       1012        995        994       1012       1013        996        995       1013       1014        997        996       1014       1015        998        997       1015       1016        999        998       1016       1017       1000        999       1017       1018       1001       1000       1018       1019       1002       1001       1020       1021       1004       1003       1021       1022       1005       1004       1022       1023       1006       1005       1023       1024       1007       1006       1024       1025       1008       1007       1025       1026       1009       1008       1026       1027       1010       1009       1027       1028       1011       1010       1028       1029       1012       1011       1029       1030       1013       1012       1030       1031       1014       1013       1031       1032       1015       1014       1032       1033       1016       1015       1033       1034       1017       1016       1034       1035       1018       1017       1035       1036       1019       1018       1037       1038       1021       1020       1038       1039       1022       1021       1039       1040       1023       1022       1040       1041       1024       1023       1041       1042       1025       1024       1042       1043       1026       1025       1043       1044       1027       1026       1044       1045       1028       1027       1045       1046       1029       1028       1046       1047       1030       1029       1047       1048       1031       1030       1048       1049       1032       1031       1049       1050       1033       1032       1050       1051       1034       1033       1051       1052       1035       1034       1052       1053       1036       1035       1054       1055       1038       1037       1055       1056       1039       1038       1056       1057       1040       1039       1057       1058       1041       1040       1058       1059       1042       1041       1059       1060       1043       1042       1060       1061       1044       1043       1061       1062       1045       1044       1062       1063       1046       1045       1063       1064       1047       1046       1064       1065       1048       1047       1065       1066       1049       1048       1066       1067       1050       1049       1067       1068       1051       1050       1068       1069       1052       1051       1069       1070       1053       1052       1071       1072       1055       1054       1072       1073       1056       1055       1073       1074       1057       1056       1074       1075       1058       1057       1075       1076       1059       1058       1076       1077       1060       1059       1077       1078       1061       1060       1078       1079       1062       1061       1079       1080       1063       1062       1080       1081       1064       1063       1081       1082       1065       1064       1082       1083       1066       1065       1083       1084       1067       1066       1084       1085       1068       1067       1085       1086       1069       1068       1086       1087       1070       1069       1088       1089       1072       1071       1089       1090       1073       1072       1090       1091       1074       1073       1091       1092       1075       1074       1092       1093       1076       1075       1093       1094       1077       1076       1094       1095       1078       1077       1095       1096       1079       1078       1096       1097       1080       1079       1097       1098       1081       1080       1098       1099       1082       1081       1099       1100       1083       1082       1100       1101       1084       1083       1101       1102       1085       1084       1102       1103       1086       1085       1103       1104       1087       1086       1105       1106       1089       1088       1106       1107       1090       1089       1107       1108       1091       1090       1108       1109       1092       1091       1109       1110       1093       1092       1110       1111       1094       1093       1111       1112       1095       1094       1112       1113       1096       1095       1113       1114       1097       1096       1114       1115       1098       1097       1115       1116       1099       1098       1116       1117       1100       1099       1117       1118       1101       1100       1118       1119       1102       1101       1119       1120       1103       1102       1120       1121       1104       1103       1122       1123       1106       1105       1123       1124       1107       1106       1124       1125       1108       1107       1125       1126       1109       1108       1126       1127       1110       1109       1127       1128       1111       1110       1128       1129       1112       1111       1129       1130       1113       1112       1130       1131       1114       1113       1131       1132       1115       1114       1132       1133       1116       1115       1133       1134       1117       1116       1134       1135       1118       1117       1135       1136       1119       1118       1136       1137       1120       1119       1137       1138       1121       1120        272        273       1123       1122        273        274       1124       1123        274        275       1125       1124        275        276       1126       1125        276        277       1127       1126        277        278       1128       1127        278        279       1129       1128        279        280       1130       1129        280        281       1131       1130        281        282       1132       1131        282        283       1133       1132        283        284       1134       1133        284        285       1135       1134        285        286       1136       1135        286        287       1137       1136        287        288       1138       1137 </DataArray>
<DataArray type="Int32"                                    Name="offsets"                                                      NumberOfComponents=" 1" format="ascii">
         4          8         12         16         20         24         28         32         36         40         44         48         52         56         60         64         68         72         76         80         84         88         92         96        100        104        108        112        116        120        124        128        132        136        140        144        148        152        156        160        164        168        172        176        180        184        188        192        196        200        204        208        212        216        220        224        228        232        236        240        244        248        252        256        260        264        268        272        276        280        284        288        292        296        300        304        308        312        316        320        324        328        332        336        340        344        348        352        356        360        364        368        372        376        380        384        388        392        396        400        404        408        412        416        420        424        428        432        436        440        444        448        452        456        460        464        468        472        476        480        484        488        492        496        500        504        508        512        516        520        524        528        532        536        540        544        548        552        556        560        564        568        572        576        580        584        588        592        596        600        604        608        612        616        620        624        628        632        636        640        644        648        652        656        660        664        668        672        676        680        684        688        692        696        700        704        708        712        716        720        724        728        732        736        740        744        748        752        756        760        764        768        772        776        780        784        788        792        796        800        804        808        812        816        820        824        828        832        836        840        844        848        852        856        860        864        868        872        876        880        884        888        892        896        900        904        908        912        916        920        924        928        932        936        940        944        948        952        956        960        964        968        972        976        980        984        988        992        996       1000       1004       1008       1012       1016       1020       1024       1028       1032       1036       1040       1044       1048       1052       1056       1060       1064       1068       1072       1076       1080       1084       1088       1092       1096       1100       1104       1108       1112       1116       1120       1124       1128       1132       1136       1140       1144       1148       1152       1156       1160       1164       1168       1172       1176       1180       1184       1188       1192       1196       1200       1204       1208       1212       1216       1220       1224       1228       1232       1236       1240       1244       1248       1252       1256       1260       1264       1268       1272       1276       1280       1284       1288       1292       1296       1300       1304       1308       1312       1316       1320       1324       1328       1332       1336       1340       1344       1348       1352       1356       1360       1364       1368       1372       1376       1380       1384       1388       1392       1396       1400       1404       1408       1412       1416       1420       1424       1428       1432       1436       1440       1444       1448       1452       1456       1460       1464       1468       1472       1476       1480       1484       1488       1492       1496       1500       1504       1508       1512       1516       1520       1524       1528       1532       1536       1540       1544       1548       1552       1556       1560       1564       1568       1572       1576       1580       1584       1588       1592       1596       1600       1604       1608       1612       1616       1620       1624       1628       1632       1636       1640       1644       1648       1652       1656       1660       1664       1668       1672       1676       1680       1684       1688       1692       1696       1700       1704       1708       1712       1716       1720       1724       1728       1732       1736       1740       1744       1748       1752       1756       1760       1764       1768       1772       1776       1780       1784       1788       1792       1796       1800       1804       1808       1812       1816       1820       1824       1828       1832       1836       1840       1844       1848       1852       1856       1860       1864       1868       1872       1876       1880       1884       1888       1892       1896       1900       1904       1908       1912       1916       1920       1924       1928       1932       1936       1940       1944       1948       1952       1956       1960       1964       1968       1972       1976       1980       1984       1988       1992       1996       2000       2004       2008       2012       2016       2020       2024       2028       2032       2036       2040       2044       2048       2052       2056       2060       2064       2068       2072       2076       2080       2084       2088       2092       2096       2100       2104       2108       2112       2116       2120       2124       2128       2132       2136       2140       2144       2148       2152       2156       2160       2164       2168       2172       2176       2180       2184       2188       2192       2196       2200       2204       2208       2212       2216       2220       2224       2228       2232       2236       2240       2244       2248       2252       2256       2260       2264       2268       2272       2276       2280       2284       2288       2292       2296       2300       2304       2308       2312       2316       2320       2324       2328       2332       2336       2340       2344       2348       2352       2356       2360       2364       2368       2372       2376       2380       2384       2388       2392       2396       2400       2404       2408       2412       2416       2420       2424       2428       2432       2436       2440       2444       2448       2452       2456       2460       2464       2468       2472       2476       2480       2484       2488       2492       2496       2500       2504       2508       2512       2516       2520       2524       2528       2532       2536       2540       2544       2548       2552       2556       2560       2564       2568       2572       2576       2580       2584       2588       2592       2596       2600       2604       2608       2612       2616       2620       2624       2628       2632       2636       2640       2644       2648       2652       2656       2660       2664       2668       2672       2676       2680       2684       2688       2692       2696       2700       2704       2708       2712       2716       2720       2724       2728       2732       2736       2740       2744       2748       2752       2756       2760       2764       2768       2772       2776       2780       2784       2788       2792       2796       2800       2804       2808       2812       2816       2820       2824       2828       2832       2836       2840       2844       2848       2852       2856       2860       2864       2868       2872       2876       2880       2884       2888       2892       2896       2900       2904       2908       2912       2916       2920       2924       2928       2932       2936       2940       2944       2948       2952       2956       2960       2964       2968       2972       2976       2980       2984       2988       2992       2996       3000       3004       3008       3012       3016       3020       3024       3028       3032       3036       3040       3044       3048       3052       3056       3060       3064       3068       3072       3076       3080       3084       3088       3092       3096       3100       3104       3108       3112       3116       3120       3124       3128       3132       3136       3140       3144       3148       3152       3156       3160       3164       3168       3172       3176       3180       3184       3188       3192       3196       3200       3204       3208       3212       3216       3220       3224       3228       3232       3236       3240       3244       3248       3252       3256       3260       3264       3268       3272       3276       3280       3284       3288       3292       3296       3300       3304       3308       3312       3316       3320       3324       3328       3332       3336       3340       3344       3348       3352       3356       3360       3364       3368       3372       3376       3380       3384       3388       3392       3396       3400       3404       3408       3412       3416       3420       3424       3428       3432       3436       3440       3444       3448       3452       3456       3460       3464       3468       3472       3476       3480       3484       3488       3492       3496       3500       3504       3508       3512       3516       3520       3524       3528       3532       3536       3540       3544       3548       3552       3556       3560       3564       3568       3572       3576       3580       3584       3588       3592       3596       3600       3604       3608       3612       3616       3620       3624       3628       3632       3636       3640       3644       3648       3652       3656       3660       3664       3668       3672       3676       3680       3684       3688       3692       3696       3700       3704       3708       3712       3716       3720       3724       3728       3732       3736       3740       3744       3748       3752       3756       3760       3764       3768       3772       3776       3780       3784       3788       3792       3796       3800       3804       3808       3812       3816       3820       3824       3828       3832       3836       3840       3844       3848       3852       3856       3860       3864       3868       3872       3876       3880       3884       3888       3892       3896       3900       3904       3908       3912       3916       3920       3924       3928       3932       3936       3940       3944       3948       3952       3956       3960       3964       3968       3972       3976       3980       3984       3988       3992       3996       4000       4004       4008       4012       4016       4020       4024       4028       4032       4036       4040       4044       4048       4052       4056       4060       4064       4068       4072       4076       4080       4084       4088       4092       4096 </DataArray>
<DataArray type="UInt8"                                    Name="types"                                                      NumberOfComponents=" 1" format="ascii">
         9          9          9          9          9          9          9          9          9          9          9          9          9          9          9          9          9          9          9          9          9          9          9          9          9          9          9          9          9          9          9          9          9          9          9          9          9          9          9          9          9          9          9          9          9          9          9          9          9          9          9          9          9          9          9          9          9          9          9          9          9          9          9          9          9          9          9          9          9          9          9          9          9          9          9          9          9          9          9          9          9          9          9          9          9          9          9          9          9          9          9          9          9          9          9          9          9          9          9          9          9          9          9          9          9          9          9          9          9          9          9          9          9          9          9          9          9          9          9          9          9          9          9          9          9          9          9          9          9          9          9          9          9          9          9          9          9          9          9          9          9          9          9          9          9          9          9          9          9          9          9          9          9          9          9          9          9          9          9          9          9          9          9          9          9          9          9          9          9          9          9          9          9          9          9          9          9          9          9          9          9          9          9          9          9          9          9          9          9          9          9          9          9          9          9          9          9          9          9          9          9          9          9          9          9          9          9          9          9          9          9          9          9          9          9          9          9          9          9          9          9          9          9          9          9          9          9          9          9          9          9          9          9          9          9          9          9          9          9          9          9          9          9          9          9          9          9          9          9          9          9          9          9          9          9          9          9          9          9          9          9          9          9          9          9          9          9          9          9          9          9          9          9          9          9          9          9          9          9          9          9          9          9          9          9          9          9          9          9          9          9          9          9          9          9          9          9          9          9          9          9          9          9          9          9          9          9          9          9          9          9          9          9          9          9          9          9          9          9          9          9          9          9          9          9          9          9          9          9          9          9          9          9          9          9          9          9          9          9          9          9          9          9          9          9          9          9          9          9          9          9          9          9          9          9          9          9          9          9          9          9          9          9          9          9          9          9          9          9          9          9          9          9          9          9          9          9          9          9          9          9          9          9          9          9          9          9          9          9          9          9          9          9          9          9          9          9          9          9          9          9          9          9          9          9          9          9          9          9          9          9          9          9          9          9          9          9          9          9          9          9          9          9          9          9          9          9          9          9          9          9          9          9          9          9          9          9          9          9          9          9          9          9          9          9          9          9          9          9          9          9          9          9          9          9          9          9          9          9          9          9          9          9          9          9          9          9          9          9          9          9          9          9          9          9          9          9          9          9          9          9          9          9          9          9          9          9          9          9          9          9          9          9          9          9          9          9          9          9          9          9          9          9          9          9          9          9          9          9          9          9          9          9          9          9          9          9          9          9          9          9          9          9          9          9          9          9          9          9          9          9          9          9          9          9          9          9          9          9          9          9          9          9          9          9          9          9          9          9          9          9          9          9          9          9          9          9          9          9          9          9          9          9          9          9          9          9          9          9          9          9          9          9          9          9          9          9          9          9          9          9          9          9          9          9          9          9          9          9          9          9          9          9          9          9          9          9          9          9          9          9          9          9          9          9          9          9          9          9          9          9          9          9          9          9          9          9          9          9          9          9          9          9          9          9          9          9          9          9          9          9          9          9          9          9          9          9          9          9          9          9          9          9          9          9          9          9          9          9          9          9          9          9          9          9          9          9          9          9          9          9          9          9          9          9          9          9          9          9          9          9          9          9          9          9          9          9          9          9          9          9          9          9          9          9          9          9          9          9          9          9          9          9          9          9          9          9          9          9          9          9          9          9          9          9          9          9          9          9          9          9          9          9          9          9          9          9          9          9          9          9          9          9          9          9          9          9          9          9          9          9          9          9          9          9          9          9          9          9          9          9          9          9          9          9          9          9          9          9          9          9          9          9          9          9          9          9          9          9          9          9          9          9          9          9          9          9          9          9          9          9          9          9          9          9          9          9          9          9          9          9          9          9          9          9          9          9          9          9          9          9          9          9          9          9          9          9          9          9          9          9          9          9          9          9          9          9          9          9          9          9          9          9          9          9          9          9          9          9          9          9          9          9          9          9          9          9          9          9          9          9          9          9          9          9          9          9          9          9          9          9          9          9          9          9          9          9          9          9          9          9          9          9          9          9          9          9          9          9          9          9          9          9          9          9          9          9          9          9          9          9          9          9          9          9          9          9          9          9          9          9          9          9          9          9          9          9          9          9          9          9          9          9          9          9          9          9          9          9          9          9          9          9          9          9          9          9          9          9          9          9          9          9          9          9          9          9          9          9          9          9          9          9          9          9          9          9          9          9          9          9          9          9          9          9          9          9          9          9          9          9          9          9          9          9          9          9          9          9          9          9          9          9          9          9          9          9          9          9          9          9          9          9          9          9          9          9          9          9          9          9          9          9          9          9          9          9          9          9          9          9          9          9          9          9          9          9          9          9          9          9          9          9          9          9          9          9          9          9          9          9          9          9          9          9          9          9          9          9          9          9          9          9          9          9          9          9          9          9          9          9          9          9          9 </DataArray>
</Cells>
<CellData>
<DataArray type="Int32"                                    Name="material"                                                      NumberOfComponents=" 1" format="ascii">
         1          1          1          1          1          1          1          1          1          1          1          1          1          1          1          1          1          1          1          1          1          1          1          1          1          1          1          1          1          1          1          1          1          1          1          1          1          1          1          1          1          1          1          1          1          1          1          1          1          1          1          1          1          1          1          1          1          1          1          1          1          1          1          1          1          1          1          1          1          1          1          1          1          1          1          1          1          1          1          1          1          1          1          1          1          1          1          1          1          1          1          1          1          1          1          1          1          1          1          1          1          1          1          1          1          1          1          1          1          1          1          1          1          1          1          1          1          1          1          1          1          1          1          1          1          1          1          1          1          1          1          1          1          1          1          1          1          1          1          1          1          1          1          1          1          1          1          1          1          1          1          1          1          1          1          1          1          1          1          1          1          1          1          1          1          1          1          1          1          1          1          1          1          1          1          1          1          1          1          1          1          1          1          1          1          1          1          1          1          1          1          1          1          1          1          1          1          1          1          1          1          1          1          1          1          1          1          1          1          1          1          1          1          1          1          1          1          1          1          1          1          1          1          1          1          1          1          1          1          1          1          1          1          1          1          1          1          1          1          1          1          1          1          1          1          1          1          1          1          1          1          1          1          1          1          1          1          1          1          1          1          1          1          1          1          1          1          1          1          1          1          1          1          1          1          1          1          1          1          1          1          1          1          1          1          1          1          1          1          1          1          1          1          1          1          1          1          1          1          1          1          1          1          1          1          1          1          1          1          1          1          1          1          1          1          1          1          1          1          1          1          1          1          1          1          1          1          1          1          1          1          1          1          1          1          1          1          1          1          1          1          1          1          1          1          1          1          1          1          1          1          1          1          1          1          1          1          1          1          1          1          1          1          1          1          1          1          1          1          1          1          1          1          1          1          1          1          1          1          1          1          1          1          1          1          1          1          1          1          1          1          1          1          1          1          1          1          1          1          1          1          1          1          1          1          1          1          1          1          1          1          1          1          1          1          1          1          1          1          1          1          1          1          1          1          1          1          1          1          1          1          1          1          1          1          1          1          1          1          1          1          1          1          1          1          1          1          1          1          1          1          1          1          1          1          1          1          1          1          1          1          1          1          1          1          1          1          1          1          1          1          1          1          1          1          1          1          1          1          1          1          1          1          1          1          1          1          1          1          1          1          1          1          1          1          1          1          1          1          1          1          1          1          1          1          1          1          1          1          1          1          1          1          1          1          1          1          1          1          1          1          1          1          1          1          1          1          1          1          1          1          1          1          1          1          1          1          1          1          1          1          1          1          1          1          1          1          1          1          1          1          1          1          1          1          1          1          1          1          1          1          1          1          1          1          1          1          1          1          1          1          1          1          1          1          1          1          1          1          1          1          1          1          1          1          1          1          1          1          1          1          1          1          1          1          1          1          1          1          1          1          1          1          1          1          1          1          1          1          1          1          1          1          1          1          1          1          1          1          1          1          1          1          1          1          1          1          1          1          1          1          1          1          1          1          1          1          1          1          1          1          1          1          1          1          1          1          1          1          1          1          1          1          1          1          1          1          1          1          1          1          1          1          1          1          1          1          1          1          1          1          1          1          1          1          1          1          1          1          1          1          1          1          1          1          1          1          1          1          1          1          1          1          1          1          1          1          1          1          1          1          1          1          1          1          1          1          1          1          1          1          1          1          1          1          1          1          1          1          1          1          1          1          1          1          1          1          1          1          1          1          1          1          1          1          1          1          1          1          1          1          1          1          1          1          1          1          1          1          1          1          1          1          1          1          1          1          1          1          1          1          1          1          1          1          1          1          1          1          1          1          1          1          1          1          1          1          1          1          1          1          1          1          1          1          1          1          1          1          1          1          1          1          1          1          1          1          1          1          1          1          1          1          1          1          1          1          1          1          1          1          1          1          1          1          1          1          1          1          1          1          1          1          1          1          1          1          1          1          1          1          1          1          1          1          1          1          1          1          1          1          1          1          1          1          1          1          1          1          1          1          1          1          1          1          1          1          1          1          1          1          1          1          1          1          1          1          1          1          1          1          1          1          1          1          1          1          1          1          1          1          1          1          1          1          1          1          1          1          1          1          1          1          1          1          1          1          1          1          1          1          1          1          1          1          1          1          1          1          1          1          1          1          1          1          1          1          1          1          1          1          1          1          1          1          1          1          1          1          1          1          1          1          1          1          1          1          1          1          1          1          1          1          1          1          1          1          1          1          1          1          1          1          1          1          1          1          1          1          1          1          1          1          1          1          1          1          1          1          1          1          1          1          1          1          1          1          1          1          1          1          1          1          1          1          1          1          1          1          1          1          1          1          1          1          1          1          1          1          1          1          1          1          1          1          1          1          1          1          1          1          1          1          1          1          1          1          1          1          1          1          1          1          1 </DataArray>
</CellData>
<PointData>
<DataArray type="Float64"                                    Name="u"                                                      NumberOfComponents=" 3" format="ascii">
              0.000004615               0.000000000               0.999999999               0.000001923               0.000000000               0.999999999               0.000000666              -0.000000000               0.999999999               0.000000032               0.000000000               0.999999999              -0.000000219               0.000000000               0.999999999              -0.000000291              -0.000000000               0.999999999              -0.000000281               0.000000000               0.999999999              -0.000000238               0.000000000               0.999999999              -0.000000141               0.000000000               0.999999999               0.000000027               0.000000000               0.999999999               0.000000092               0.000000000               0.999999999              -0.000000057               0.000000000               0.999999999              -0.000000433               0.000000000               0.999999999              -0.000001153               0.000000000               0.999999999              -0.000002314               0.000000000               0.999999999              -0.000003944               0.000000000               0.999999999              -0.000006122               0.000000000               0.999999999               0.000004569               0.000006740               0.999999999               0.000001912               0.000006186               0.999999999               0.000000692               0.000006201               0.999999999               0.000000126               0.000006490               0.999999999              -0.000000153               0.000006890               0.999999999              -0.000000258               0.000007448               0.999999999              -0.000000281               0.000008108               0.999999999              -0.000000324               0.000008790               0.999999999              -0.000000392               0.000009392               0.999999999              -0.000000437               0.000009966               0.999999999              -0.000000539               0.000010800               0.999999999              -0.000000875               0.000011796               0.999999999              -0.000001526               0.000012995               0.999999999              -0.000002529               0.000014459               0.999999999              -0.000003970               0.000016151               0.999999999              -0.000005871               0.000018097               0.999999999              -0.000008246               0.000020328               0.999999999               0.000004347               0.000013368               0.999999999               0.000001931               0.000012327               0.999999999               0.000000840               0.000012304               0.999999999               0.000000313               0.000012914               0.999999999               0.000000043               0.000013783               0.999999999              -0.000000119               0.000014963               0.999999999              -0.000000342               0.000016317               0.999999999              -0.000000636               0.000017783               0.999999999              -0.000000981               0.000019067               0.999999999              -0.000001452               0.000020364               0.999999999              -0.000002148               0.000022073               0.999999999              -0.000003117               0.000024073               0.999999999              -0.000004372               0.000026479               0.999999999              -0.000005979               0.000029334               0.999999999              -0.000007998               0.000032595               0.999999999              -0.000010424               0.000036275               0.999999999              -0.000013278               0.000040348               0.999999999               0.000004021               0.000019853               0.999999999               0.000002012               0.000018303               0.999999999               0.000001074               0.000018335               0.999999999               0.000000563               0.000019261               0.999999999               0.000000276               0.000020644               0.999999999              -0.000000053               0.000022534               0.999999999              -0.000000521               0.000024739               0.999999999              -0.000001162               0.000027070               0.999999999              -0.000001967               0.000029153               0.999999999              -0.000003021               0.000031389               0.999999999              -0.000004353               0.000034186               0.999999999              -0.000005982               0.000037343               0.999999999              -0.000008022               0.000041018               0.999999999              -0.000010483               0.000045247               0.999999999              -0.000013353               0.000050021               0.999999999              -0.000016635               0.000055368               0.999999999              -0.000020326               0.000061288               0.999999999               0.000003669               0.000026199               0.999999999               0.000002095               0.000024041               0.999999999               0.000001353               0.000024196               0.999999999               0.000000902               0.000025522               0.999999999               0.000000450               0.000027496               0.999999999              -0.000000120               0.000030204               0.999999999              -0.000000942               0.000033334               0.999999999              -0.000002030               0.000036601               0.999999999              -0.000003285               0.000039767               0.999999999              -0.000004883               0.000043257               0.999999999              -0.000006881               0.000047364               0.999999999              -0.000009378               0.000051981               0.999999999              -0.000012371               0.000057192               0.999999999              -0.000015815               0.000063074               0.999999999              -0.000019752               0.000069611               0.999999999              -0.000024086               0.000076860               0.999999999              -0.000028804               0.000084831               0.999999999               0.000003210               0.000032294               0.999999999               0.000002275               0.000029563               0.999999999               0.000001717               0.000029885               0.999999999               0.000001204               0.000031686               0.999999999               0.000000568               0.000034410               0.999999999              -0.000000409               0.000037985               0.999999999              -0.000001726               0.000042095               0.999999999              -0.000003255               0.000046500               0.999999999              -0.000005095               0.000050900               0.999999999              -0.000007349               0.000055999               0.999999999              -0.000010054               0.000061868               0.999999999              -0.000013295               0.000068431               0.999999999              -0.000017097               0.000075705               0.999999999              -0.000021487               0.000083773               0.999999999              -0.000026390               0.000092600               0.999999999              -0.000031703               0.000102190               0.999999999              -0.000037455               0.000112583               0.999999999               0.000002705               0.000038059               0.999999999               0.000002554               0.000034848               0.999999999               0.000002118               0.000035449               0.999999999               0.000001512               0.000037797               0.999999999               0.000000544               0.000041371               0.999999999              -0.000000912               0.000045976               0.999999999              -0.000002726               0.000051257               0.999999999              -0.000004857               0.000056918               0.999999999              -0.000007199               0.000063072               0.999999999              -0.000009969               0.000070157               0.999999999              -0.000013319               0.000078296               0.999999999              -0.000017323               0.000087220               0.999999999              -0.000021941               0.000097078               0.999999999              -0.000027159               0.000107779               0.999999999              -0.000032911               0.000119335               0.999999999              -0.000039144               0.000131744               0.999999999              -0.000045862               0.000144900               0.999999999               0.000002264               0.000043499               0.999999999               0.000002862               0.000039861               0.999999999               0.000002553               0.000040848               0.999999999               0.000001776               0.000043883               0.999999999               0.000000367               0.000048455               0.999999999              -0.000001582               0.000054240               0.999999999              -0.000003868               0.000060963               0.999999999              -0.000006313               0.000068521               0.999999999              -0.000009077               0.000076784               0.999999999              -0.000012458               0.000086299               0.999999999              -0.000016537               0.000097015               0.999999999              -0.000021318               0.000108632               0.999999999              -0.000026740               0.000121284               0.999999999              -0.000032709               0.000134980               0.999999999              -0.000039240               0.000149577               0.999999999              -0.000046295               0.000165019               0.999999999              -0.000053828               0.000181128               0.999999999               0.000001816               0.000048457               0.999999999               0.000003258               0.000044672               0.999999999               0.000002943               0.000046067               0.999999999               0.000001873               0.000049931               0.999999999               0.000000041               0.000055672               0.999999999              -0.000002303               0.000062991               0.999999999              -0.000004915               0.000071603               0.999999999              -0.000007732               0.000081269               0.999999999              -0.000011003               0.000092041               0.999999999              -0.000014967               0.000104314               0.999999999              -0.000019719               0.000117824               0.999999999              -0.000025130               0.000132393               0.999999999              -0.000031176               0.000148159               0.999999999              -0.000037794               0.000165115               0.999999999              -0.000044977               0.000183082               0.999999999              -0.000052630               0.000201893               0.999999999              -0.000060546               0.000221385               0.999999999               0.000001318               0.000053079               0.999999999               0.000003517               0.000049557               0.999999999               0.000003441               0.000050467               0.999999999               0.000002578               0.000053866               0.999999999               0.000000971               0.000059107               0.999999999              -0.000001093               0.000065990               0.999999999              -0.000003545               0.000074229               0.999999999              -0.000006102               0.000083611               0.999999999              -0.000008661               0.000094002               0.999999999              -0.000011654               0.000105502               0.999999999              -0.000015317               0.000118142               0.999999999              -0.000019489               0.000131804               0.999999999              -0.000024097               0.000146439               0.999999999              -0.000029217               0.000162178               0.999999999              -0.000034793               0.000178928               0.999999999              -0.000040841               0.000196795               0.999999999              -0.000047332               0.000215546               0.999999999               0.000000996               0.000057363               0.999999999               0.000003597               0.000054272               0.999999999               0.000003822               0.000054959               0.999999999               0.000003157               0.000057922               0.999999999               0.000001789               0.000062761               0.999999999              -0.000000023               0.000069177               0.999999999              -0.000002231               0.000077062               0.999999999              -0.000004479               0.000086153               0.999999999              -0.000006639               0.000096140               0.999999999              -0.000008859               0.000107054               0.999999999              -0.000011503               0.000119009               0.999999999              -0.000014540               0.000131921               0.999999999              -0.000017898               0.000145677               0.999999999              -0.000021688               0.000160288               0.999999999              -0.000025875               0.000175916               0.999999999              -0.000030442               0.000192566               0.999999999              -0.000035401               0.000210148               0.999999999               0.000000756               0.000061183               0.999999999               0.000003480               0.000058713               0.999999999               0.000003976               0.000059322               0.999999999               0.000003487               0.000062045               0.999999999               0.000002348               0.000066529               0.999999999               0.000000816               0.000072543               0.999999999              -0.000000983               0.000080085               0.999999999              -0.000002928               0.000088817               0.999999999              -0.000004727               0.000098466               0.999999999              -0.000006435               0.000108889               0.999999999              -0.000008305               0.000120283               0.999999999              -0.000010419               0.000132562               0.999999999              -0.000012775               0.000145674               0.999999999              -0.000015396               0.000159590               0.999999999              -0.000018314               0.000174318               0.999999999              -0.000021432               0.000189889               0.999999999              -0.000024844               0.000206371               0.999999999               0.000000545               0.000064422               0.999999999               0.000003188               0.000062737               0.999999999               0.000003816               0.000063413               0.999999999               0.000003450               0.000066012               0.999999999               0.000002592               0.000070262               0.999999999               0.000001445               0.000076029               0.999999999              -0.000000012               0.000083172               0.999999999              -0.000001597               0.000091436               0.999999999              -0.000003078               0.000100643               0.999999999              -0.000004415               0.000110780               0.999999999              -0.000005697               0.000121784               0.999999999              -0.000007113               0.000133677               0.999999999              -0.000008683               0.000146404               0.999999999              -0.000010365               0.000159862               0.999999999              -0.000012159               0.000173919               0.999999999              -0.000014074               0.000188649               0.999999999              -0.000016124               0.000204183               0.999999999               0.000000412               0.000067068               0.999999999               0.000002680               0.000066141               0.999999999               0.000003271               0.000066991               0.999999999               0.000003061               0.000069565               0.999999999               0.000002492               0.000073694               0.999999999               0.000001612               0.000079210               0.999999999               0.000000551               0.000085968               0.999999999              -0.000000586               0.000093863               0.999999999              -0.000001709               0.000102772               0.999999999              -0.000002742               0.000112669               0.999999999              -0.000003647               0.000123413               0.999999999              -0.000004558               0.000135023               0.999999999              -0.000005539               0.000147433               0.999999999              -0.000006510               0.000160512               0.999999999              -0.000007500               0.000174201               0.999999999              -0.000008567               0.000188505               0.999999999              -0.000009543               0.000203397               0.999999999               0.000000301               0.000069010               0.999999999               0.000001929               0.000068715               0.999999999               0.000002405               0.000069821               0.999999999               0.000002322               0.000072411               0.999999999               0.000001937               0.000076430               0.999999999               0.000001343               0.000081773               0.999999999               0.000000735               0.000088301               0.999999999               0.000000005               0.000095908               0.999999999              -0.000000790               0.000104615               0.999999999              -0.000001519               0.000114303               0.999999999              -0.000002091               0.000124814               0.999999999              -0.000002603               0.000136176               0.999999999              -0.000003160               0.000148313               0.999999999              -0.000003693               0.000161148               0.999999999              -0.000004204               0.000174632               0.999999999              -0.000004726               0.000188729               0.999999999              -0.000005129               0.000203324               0.999999999               0.000000158               0.000070211               0.999999999               0.000001011               0.000070339               0.999999999               0.000001290               0.000071636               0.999999999               0.000001239               0.000074262               0.999999999               0.000001029               0.000078242               0.999999999               0.000000820               0.000083470               0.999999999               0.000000488               0.000089850               0.999999999               0.000000110               0.000097317               0.999999999              -0.000000276               0.000105872               0.999999999              -0.000000626               0.000115332               0.999999999              -0.000000914               0.000125661               0.999999999              -0.000001166               0.000136899               0.999999999              -0.000001418               0.000148853               0.999999999              -0.000001652               0.000161510               0.999999999              -0.000001878               0.000174852               0.999999999              -0.000002083               0.000188796               0.999999999              -0.000002242               0.000203238               0.999999999               0.000000000               0.000070649               0.999999999               0.000000000               0.000070920               0.999999999               0.000000000               0.000072239               0.999999999              -0.000000000               0.000074887               0.999999999              -0.000000000               0.000078899               0.999999999               0.000000000               0.000084043               0.999999999              -0.000000000               0.000090376               0.999999999              -0.000000000               0.000097835               0.999999999              -0.000000000               0.000106297               0.999999999              -0.000000000               0.000115679               0.999999999              -0.000000000               0.000125971               0.999999999              -0.000000000               0.000137135               0.999999999               0.000000000               0.000148994               0.999999999               0.000000000               0.000161590               0.999999999              -0.000000000               0.000174881               0.999999999               0.000000000               0.000188773               0.999999999               0.000000000               0.000203171               0.999999999               0.000004615               0.000000000               0.999999999               0.000001923               0.000000000               0.999999999               0.000000666              -0.000000000               0.999999999               0.000000032               0.000000000               0.999999999              -0.000000219               0.000000000               0.999999999              -0.000000291              -0.000000000               0.999999999              -0.000000281               0.000000000               0.999999999              -0.000000238               0.000000000               0.999999999              -0.000000141               0.000000000               0.999999999               0.000000027               0.000000000               0.999999999               0.000000092               0.000000000               0.999999999              -0.000000057               0.000000000               0.999999999              -0.000000433               0.000000000               0.999999999              -0.000001153               0.000000000               0.999999999              -0.000002314               0.000000000               0.999999999              -0.000003944               0.000000000               0.999999999              -0.000006122               0.000000000               0.999999999               0.000004569              -0.000006740               0.999999999               0.000001912              -0.000006186               0.999999999               0.000000692              -0.000006201               0.999999999               0.000000126              -0.000006490               0.999999999              -0.000000153              -0.000006890               0.999999999              -0.000000258              -0.000007448               0.999999999              -0.000000281              -0.000008108               0.999999999              -0.000000324              -0.000008790               0.999999999              -0.000000392              -0.000009392               0.999999999              -0.000000437              -0.000009966               0.999999999              -0.000000539              -0.000010800               0.999999999              -0.000000875              -0.000011796               0.999999999              -0.000001526              -0.000012995               0.999999999              -0.000002529              -0.000014459               0.999999999              -0.000003970              -0.000016151               0.999999999              -0.000005871              -0.000018097               0.999999999              -0.000008246              -0.000020328               0.999999999               0.000004347              -0.000013368               0.999999999               0.000001931              -0.000012327               0.999999999               0.000000840              -0.000012304               0.999999999               0.000000313              -0.000012914               0.999999999               0.000000043              -0.000013783               0.999999999              -0.000000119              -0.000014963               0.999999999              -0.000000342              -0.000016317               0.999999999              -0.000000636              -0.000017783               0.999999999              -0.000000981              -0.000019067               0.999999999              -0.000001452              -0.000020364               0.999999999              -0.000002148              -0.000022073               0.999999999              -0.000003117              -0.000024073               0.999999999              -0.000004372              -0.000026479               0.999999999              -0.000005979              -0.000029334               0.999999999              -0.000007998              -0.000032595               0.999999999              -0.000010424              -0.000036275               0.999999999              -0.000013278              -0.000040348               0.999999999               0.000004021              -0.000019853               0.999999999               0.000002012              -0.000018303               0.999999999               0.000001074              -0.000018335               0.999999999               0.000000563              -0.000019261               0.999999999               0.000000276              -0.000020644               0.999999999              -0.000000053              -0.000022534               0.999999999              -0.000000521              -0.000024739               0.999999999              -0.000001162              -0.000027070               0.999999999              -0.000001967              -0.000029153               0.999999999              -0.000003021              -0.000031389               0.999999999              -0.000004353              -0.000034186               0.999999999              -0.000005982              -0.000037343               0.999999999              -0.000008022              -0.000041018               0.999999999              -0.000010483              -0.000045247               0.999999999              -0.000013353              -0.000050021               0.999999999              -0.000016635              -0.000055368               0.999999999              -0.000020326              -0.000061288               0.999999999               0.000003669              -0.000026199               0.999999999               0.000002095              -0.000024041               0.999999999               0.000001353              -0.000024196               0.999999999               0.000000902              -0.000025522               0.999999999               0.000000450              -0.000027496               0.999999999              -0.000000120              -0.000030204               0.999999999              -0.000000942              -0.000033334               0.999999999              -0.000002030              -0.000036601               0.999999999              -0.000003285              -0.000039767               0.999999999              -0.000004883              -0.000043257               0.999999999              -0.000006881              -0.000047364               0.999999999              -0.000009378              -0.000051981               0.999999999              -0.000012371              -0.000057192               0.999999999              -0.000015815              -0.000063074               0.999999999              -0.000019752              -0.000069611               0.999999999              -0.000024086              -0.000076860               0.999999999              -0.000028804              -0.000084831               0.999999999               0.000003210              -0.000032294               0.999999999               0.000002275              -0.000029563               0.999999999               0.000001717              -0.000029885               0.999999999               0.000001204              -0.000031686               0.999999999               0.000000568              -0.000034410               0.999999999              -0.000000409              -0.000037985               0.999999999              -0.000001726              -0.000042095               0.999999999              -0.000003255              -0.000046500               0.999999999              -0.000005095              -0.000050900               0.999999999              -0.000007349              -0.000055999               0.999999999              -0.000010054              -0.000061868               0.999999999              -0.000013295              -0.000068431               0.999999999              -0.000017097              -0.000075705               0.999999999              -0.000021487              -0.000083773               0.999999999              -0.000026390              -0.000092600               0.999999999              -0.000031703              -0.000102190               0.999999999              -0.000037455              -0.000112583               0.999999999               0.000002705              -0.000038059               0.999999999               0.000002554              -0.000034848               0.999999999               0.000002118              -0.000035449               0.999999999               0.000001512              -0.000037797               0.999999999               0.000000544              -0.000041371               0.999999999              -0.000000912              -0.000045976               0.999999999              -0.000002726              -0.000051257               0.999999999              -0.000004857              -0.000056918               0.999999999              -0.000007199              -0.000063072               0.999999999              -0.000009969              -0.000070157               0.999999999              -0.000013319              -0.000078296               0.999999999              -0.000017323              -0.000087220               0.999999999              -0.000021941              -0.000097078               0.999999999              -0.000027159              -0.000107779               0.999999999              -0.000032911              -0.000119335               0.999999999              -0.000039144              -0.000131744               0.999999999              -0.000045862              -0.000144900               0.999999999               0.000002264              -0.000043499               0.999999999               0.000002862              -0.000039861               0.999999999               0.000002553              -0.000040848               0.999999999               0.000001776              -0.000043883               0.999999999               0.000000367              -0.000048455               0.999999999              -0.000001582              -0.000054240               0.999999999              -0.000003868              -0.000060963               0.999999999              -0.000006313              -0.000068521               0.999999999              -0.000009077              -0.000076784               0.999999999              -0.000012458              -0.000086299               0.999999999              -0.000016537              -0.000097015               0.999999999              -0.000021318              -0.000108632               0.999999999              -0.000026740              -0.000121284               0.999999999              -0.000032709              -0.000134980               0.999999999              -0.000039240              -0.000149577               0.999999999              -0.000046295              -0.000165019               0.999999999              -0.000053828              -0.000181128               0.999999999               0.000001816              -0.000048457               0.999999999               0.000003258              -0.000044672               0.999999999               0.000002943              -0.000046067               0.999999999               0.000001873              -0.000049931               0.999999999               0.000000041              -0.000055672               0.999999999              -0.000002303              -0.000062991               0.999999999              -0.000004915              -0.000071603               0.999999999              -0.000007732              -0.000081269               0.999999999              -0.000011003              -0.000092041               0.999999999              -0.000014967              -0.000104314               0.999999999              -0.000019719              -0.000117824               0.999999999              -0.000025130              -0.000132393               0.999999999              -0.000031176              -0.000148159               0.999999999              -0.000037794              -0.000165115               0.999999999              -0.000044977              -0.000183082               0.999999999              -0.000052630              -0.000201893               0.999999999              -0.000060546              -0.000221385               0.999999999               0.000001318              -0.000053079               0.999999999               0.000003517              -0.000049557               0.999999999               0.000003441              -0.000050467               0.999999999               0.000002578              -0.000053866               0.999999999               0.000000971              -0.000059107               0.999999999              -0.000001093              -0.000065990               0.999999999              -0.000003545              -0.000074229               0.999999999              -0.000006102              -0.000083611               0.999999999              -0.000008661              -0.000094002               0.999999999              -0.000011654              -0.000105502               0.999999999              -0.000015317              -0.000118142               0.999999999              -0.000019489              -0.000131804               0.999999999              -0.000024097              -0.000146439               0.999999999              -0.000029217              -0.000162178               0.999999999              -0.000034793              -0.000178928               0.999999999              -0.000040841              -0.000196795               0.999999999              -0.000047332              -0.000215546               0.999999999               0.000000996              -0.000057363               0.999999999               0.000003597              -0.000054272               0.999999999               0.000003822              -0.000054959               0.999999999               0.000003157              -0.000057922               0.999999999               0.000001789              -0.000062761               0.999999999              -0.000000023              -0.000069177               0.999999999              -0.000002231              -0.000077062               0.999999999              -0.000004479              -0.000086153               0.999999999              -0.000006639              -0.000096140               0.999999999              -0.000008859              -0.000107054               0.999999999              -0.000011503              -0.000119009               0.999999999              -0.000014540              -0.000131921               0.999999999              -0.000017898              -0.000145677               0.999999999              -0.000021688              -0.000160288               0.999999999              -0.000025875              -0.000175916               0.999999999              -0.000030442              -0.000192566               0.999999999              -0.000035401              -0.000210148               0.999999999               0.000000756              -0.000061183               0.999999999               0.000003480              -0.000058713               0.999999999               0.000003976              -0.000059322               0.999999999               0.000003487              -0.000062045               0.999999999               0.000002348              -0.000066529               0.999999999               0.000000816              -0.000072543               0.999999999              -0.000000983              -0.000080085               0.999999999              -0.000002928              -0.000088817               0.999999999              -0.000004727              -0.000098466               0.999999999              -0.000006435              -0.000108889               0.999999999              -0.000008305              -0.000120283               0.999999999              -0.000010419              -0.000132562               0.999999999              -0.000012775              -0.000145674               0.999999999              -0.000015396              -0.000159590               0.999999999              -0.000018314              -0.000174318               0.999999999              -0.000021432              -0.000189889               0.999999999              -0.000024844              -0.000206371               0.999999999               0.000000545              -0.000064422               0.999999999               0.000003188              -0.000062737               0.999999999               0.000003816              -0.000063413               0.999999999               0.000003450              -0.000066012               0.999999999               0.000002592              -0.000070262               0.999999999               0.000001445              -0.000076029               0.999999999              -0.000000012              -0.000083172               0.999999999              -0.000001597              -0.000091436               0.999999999              -0.000003078              -0.000100643               0.999999999              -0.000004415              -0.000110780               0.999999999              -0.000005697              -0.000121784               0.999999999              -0.000007113              -0.000133677               0.999999999              -0.000008683              -0.000146404               0.999999999              -0.000010365              -0.000159862               0.999999999              -0.000012159              -0.000173919               0.999999999              -0.000014074              -0.000188649               0.999999999              -0.000016124              -0.000204183               0.999999999               0.000000412              -0.000067068               0.999999999               0.000002680              -0.000066141               0.999999999               0.000003271              -0.000066991               0.999999999               0.000003061              -0.000069565               0.999999999               0.000002492              -0.000073694               0.999999999               0.000001612              -0.000079210               0.999999999               0.000000551              -0.000085968               0.999999999              -0.000000586              -0.000093863               0.999999999              -0.000001709              -0.000102772               0.999999999              -0.000002742              -0.000112669               0.999999999              -0.000003647              -0.000123413               0.999999999              -0.000004558              -0.000135023               0.999999999              -0.000005539              -0.000147433               0.999999999              -0.000006510              -0.000160512               0.999999999              -0.000007500              -0.000174201               0.999999999              -0.000008567              -0.000188505               0.999999999              -0.000009543              -0.000203397               0.999999999               0.000000301              -0.000069010               0.999999999               0.000001929              -0.000068715               0.999999999               0.000002405              -0.000069821               0.999999999               0.000002322              -0.000072411               0.999999999               0.000001937              -0.000076430               0.999999999               0.000001343              -0.000081773               0.999999999               0.000000735              -0.000088301               0.999999999               0.000000005              -0.000095908               0.999999999              -0.000000790              -0.000104615               0.999999999              -0.000001519              -0.000114303               0.999999999              -0.000002091              -0.000124814               0.999999999              -0.000002603              -0.000136176               0.999999999              -0.000003160              -0.000148313               0.999999999              -0.000003693              -0.000161148               0.999999999              -0.000004204              -0.000174632               0.999999999              -0.000004726              -0.000188729               0.999999999              -0.000005129              -0.000203324               0.999999999               0.000000158              -0.000070211               0.999999999               0.000001011              -0.000070339               0.999999999               0.000001290              -0.000071636               0.999999999               0.000001239              -0.000074262               0.999999999               0.000001029              -0.000078242               0.999999999               0.000000820              -0.000083470               0.999999999               0.000000488              -0.000089850               0.999999999               0.000000110              -0.000097317               0.999999999              -0.000000276              -0.000105872               0.999999999              -0.000000626              -0.000115332               0.999999999              -0.000000914              -0.000125661               0.999999999              -0.000001166              -0.000136899               0.999999999              -0.000001418              -0.000148853               0.999999999              -0.000001652              -0.000161510               0.999999999              -0.000001878              -0.000174852               0.999999999              -0.000002083              -0.000188796               0.999999999              -0.000002242              -0.000203238               0.999999999               0.000000000              -0.000070649               0.999999999               0.000000000              -0.000070920               0.999999999              -0.000000000              -0.000072239               0.999999999               0.000000000              -0.000074887               0.999999999              -0.000000000              -0.000078899               0.999999999              -0.000000000              -0.000084043               0.999999999              -0.000000000              -0.000090376               0.999999999              -0.000000000              -0.000097835               0.999999999               0.000000000              -0.000106297               0.999999999              -0.000000000              -0.000115679               0.999999999              -0.000000000              -0.000125971               0.999999999              -0.000000000              -0.000137135               0.999999999               0.000000000              -0.000148994               0.999999999              -0.000000000              -0.000161590               0.999999999               0.000000000              -0.000174881               0.999999999               0.000000000              -0.000188773               0.999999999               0.000000000              -0.000203171               0.999999999              -0.000004615               0.000000000               0.999999999              -0.000001923              -0.000000000               0.999999999              -0.000000666               0.000000000               0.999999999              -0.000000032               0.000000000               0.999999999               0.000000219              -0.000000000               0.999999999               0.000000291               0.000000000               0.999999999               0.000000281               0.000000000               0.999999999               0.000000238              -0.000000000               0.999999999               0.000000141               0.000000000               0.999999999              -0.000000027              -0.000000000               0.999999999              -0.000000092              -0.000000000               0.999999999               0.000000057               0.000000000               0.999999999               0.000000433               0.000000000               0.999999999               0.000001153               0.000000000               0.999999999               0.000002314               0.000000000               0.999999999               0.000003944              -0.000000000               0.999999999               0.000006122              -0.000000000               0.999999999              -0.000004569              -0.000006740               0.999999999              -0.000001912              -0.000006186               0.999999999              -0.000000692              -0.000006201               0.999999999              -0.000000126              -0.000006490               0.999999999               0.000000153              -0.000006890               0.999999999               0.000000258              -0.000007448               0.999999999               0.000000281              -0.000008108               0.999999999               0.000000324              -0.000008790               0.999999999               0.000000392              -0.000009392               0.999999999               0.000000437              -0.000009966               0.999999999               0.000000539              -0.000010800               0.999999999               0.000000875              -0.000011796               0.999999999               0.000001526              -0.000012995               0.999999999               0.000002529              -0.000014459               0.999999999               0.000003970              -0.000016151               0.999999999               0.000005871              -0.000018097               0.999999999               0.000008246              -0.000020328               0.999999999              -0.000004347              -0.000013368               0.999999999              -0.000001931              -0.000012327               0.999999999              -0.000000840              -0.000012304               0.999999999              -0.000000313              -0.000012914               0.999999999              -0.000000043              -0.000013783               0.999999999               0.000000119              -0.000014963               0.999999999               0.000000342              -0.000016317               0.999999999               0.000000636              -0.000017783               0.999999999               0.000000981              -0.000019067               0.999999999               0.000001452              -0.000020364               0.999999999               0.000002148              -0.000022073               0.999999999               0.000003117              -0.000024073               0.999999999               0.000004372              -0.000026479               0.999999999               0.000005979              -0.000029334               0.999999999               0.000007998              -0.000032595               0.999999999               0.000010424              -0.000036275               0.999999999               0.000013278              -0.000040348               0.999999999              -0.000004021              -0.000019853               0.999999999              -0.000002012              -0.000018303               0.999999999              -0.000001074              -0.000018335               0.999999999              -0.000000563              -0.000019261               0.999999999              -0.000000276              -0.000020644               0.999999999               0.000000053              -0.000022534               0.999999999               0.000000521              -0.000024739               0.999999999               0.000001162              -0.000027070               0.999999999               0.000001967              -0.000029153               0.999999999               0.000003021              -0.000031389               0.999999999               0.000004353              -0.000034186               0.999999999               0.000005982              -0.000037343               0.999999999               0.000008022              -0.000041018               0.999999999               0.000010483              -0.000045247               0.999999999               0.000013353              -0.000050021               0.999999999               0.000016635              -0.000055368               0.999999999               0.000020326              -0.000061288               0.999999999              -0.000003669              -0.000026199               0.999999999              -0.000002095              -0.000024041               0.999999999              -0.000001353              -0.000024196               0.999999999              -0.000000902              -0.000025522               0.999999999              -0.000000450              -0.000027496               0.999999999               0.000000120              -0.000030204               0.999999999               0.000000942              -0.000033334               0.999999999               0.000002030              -0.000036601               0.999999999               0.000003285              -0.000039767               0.999999999               0.000004883              -0.000043257               0.999999999               0.000006881              -0.000047364               0.999999999               0.000009378              -0.000051981               0.999999999               0.000012371              -0.000057192               0.999999999               0.000015815              -0.000063074               0.999999999               0.000019752              -0.000069611               0.999999999               0.000024086              -0.000076860               0.999999999               0.000028804              -0.000084831               0.999999999              -0.000003210              -0.000032294               0.999999999              -0.000002275              -0.000029563               0.999999999              -0.000001717              -0.000029885               0.999999999              -0.000001204              -0.000031686               0.999999999              -0.000000568              -0.000034410               0.999999999               0.000000409              -0.000037985               0.999999999               0.000001726              -0.000042095               0.999999999               0.000003255              -0.000046500               0.999999999               0.000005095              -0.000050900               0.999999999               0.000007349              -0.000055999               0.999999999               0.000010054              -0.000061868               0.999999999               0.000013295              -0.000068431               0.999999999               0.000017097              -0.000075705               0.999999999               0.000021487              -0.000083773               0.999999999               0.000026390              -0.000092600               0.999999999               0.000031703              -0.000102190               0.999999999               0.000037455              -0.000112583               0.999999999              -0.000002705              -0.000038059               0.999999999              -0.000002554              -0.000034848               0.999999999              -0.000002118              -0.000035449               0.999999999              -0.000001512              -0.000037797               0.999999999              -0.000000544              -0.000041371               0.999999999               0.000000912              -0.000045976               0.999999999               0.000002726              -0.000051257               0.999999999               0.000004857              -0.000056918               0.999999999               0.000007199              -0.000063072               0.999999999               0.000009969              -0.000070157               0.999999999               0.000013319              -0.000078296               0.999999999               0.000017323              -0.000087220               0.999999999               0.000021941              -0.000097078               0.999999999               0.000027159              -0.000107779               0.999999999               0.000032911              -0.000119335               0.999999999               0.000039144              -0.000131744               0.999999999               0.000045862              -0.000144900               0.999999999              -0.000002264              -0.000043499               0.999999999              -0.000002862              -0.000039861               0.999999999              -0.000002553              -0.000040848               0.999999999              -0.000001776              -0.000043883               0.999999999              -0.000000367              -0.000048455               0.999999999               0.000001582              -0.000054240               0.999999999               0.000003868              -0.000060963               0.999999999               0.000006313              -0.000068521               0.999999999               0.000009077              -0.000076784               0.999999999               0.000012458              -0.000086299               0.999999999               0.000016537              -0.000097015               0.999999999               0.000021318              -0.000108632               0.999999999               0.000026740              -0.000121284               0.999999999               0.000032709              -0.000134980               0.999999999               0.000039240              -0.000149577               0.999999999               0.000046295              -0.000165019               0.999999999               0.000053828              -0.000181128               0.999999999              -0.000001816              -0.000048457               0.999999999              -0.000003258              -0.000044672               0.999999999              -0.000002943              -0.000046067               0.999999999              -0.000001873              -0.000049931               0.999999999              -0.000000041              -0.000055672               0.999999999               0.000002303              -0.000062991               0.999999999               0.000004915              -0.000071603               0.999999999               0.000007732              -0.000081269               0.999999999               0.000011003              -0.000092041               0.999999999               0.000014967              -0.000104314               0.999999999               0.000019719              -0.000117824               0.999999999               0.000025130              -0.000132393               0.999999999               0.000031176              -0.000148159               0.999999999               0.000037794              -0.000165115               0.999999999               0.000044977              -0.000183082               0.999999999               0.000052630              -0.000201893               0.999999999               0.000060546              -0.000221385               0.999999999              -0.000001318              -0.000053079               0.999999999              -0.000003517              -0.000049557               0.999999999              -0.000003441              -0.000050467               0.999999999              -0.000002578              -0.000053866               0.999999999              -0.000000971              -0.000059107               0.999999999               0.000001093              -0.000065990               0.999999999               0.000003545              -0.000074229               0.999999999               0.000006102              -0.000083611               0.999999999               0.000008661              -0.000094002               0.999999999               0.000011654              -0.000105502               0.999999999               0.000015317              -0.000118142               0.999999999               0.000019489              -0.000131804               0.999999999               0.000024097              -0.000146439               0.999999999               0.000029217              -0.000162178               0.999999999               0.000034793              -0.000178928               0.999999999               0.000040841              -0.000196795               0.999999999               0.000047332              -0.000215546               0.999999999              -0.000000996              -0.000057363               0.999999999              -0.000003597              -0.000054272               0.999999999              -0.000003822              -0.000054959               0.999999999              -0.000003157              -0.000057922               0.999999999              -0.000001789              -0.000062761               0.999999999               0.000000023              -0.000069177               0.999999999               0.000002231              -0.000077062               0.999999999               0.000004479              -0.000086153               0.999999999               0.000006639              -0.000096140               0.999999999               0.000008859              -0.000107054               0.999999999               0.000011503              -0.000119009               0.999999999               0.000014540              -0.000131921               0.999999999               0.000017898              -0.000145677               0.999999999               0.000021688              -0.000160288               0.999999999               0.000025875              -0.000175916               0.999999999               0.000030442              -0.000192566               0.999999999               0.000035401              -0.000210148               0.999999999              -0.000000756              -0.000061183               0.999999999              -0.000003480              -0.000058713               0.999999999              -0.000003976              -0.000059322               0.999999999              -0.000003487              -0.000062045               0.999999999              -0.000002348              -0.000066529               0.999999999              -0.000000816              -0.000072543               0.999999999               0.000000983              -0.000080085               0.999999999               0.000002928              -0.000088817               0.999999999               0.000004727              -0.000098466               0.999999999               0.000006435              -0.000108889               0.999999999               0.000008305              -0.000120283               0.999999999               0.000010419              -0.000132562               0.999999999               0.000012775              -0.000145674               0.999999999               0.000015396              -0.000159590               0.999999999               0.000018314              -0.000174318               0.999999999               0.000021432              -0.000189889               0.999999999               0.000024844              -0.000206371               0.999999999              -0.000000545              -0.000064422               0.999999999              -0.000003188              -0.000062737               0.999999999              -0.000003816              -0.000063413               0.999999999              -0.000003450              -0.000066012               0.999999999              -0.000002592              -0.000070262               0.999999999              -0.000001445              -0.000076029               0.999999999               0.000000012              -0.000083172               0.999999999               0.000001597              -0.000091436               0.999999999               0.000003078              -0.000100643               0.999999999               0.000004415              -0.000110780               0.999999999               0.000005697              -0.000121784               0.999999999               0.000007113              -0.000133677               0.999999999               0.000008683              -0.000146404               0.999999999               0.000010365              -0.000159862               0.999999999               0.000012159              -0.000173919               0.999999999               0.000014074              -0.000188649               0.999999999               0.000016124              -0.000204183               0.999999999              -0.000000412              -0.000067068               0.999999999              -0.000002680              -0.000066141               0.999999999              -0.000003271              -0.000066991               0.999999999              -0.000003061              -0.000069565               0.999999999              -0.000002492              -0.000073694               0.999999999              -0.000001612              -0.000079210               0.999999999              -0.000000551              -0.000085968               0.999999999               0.000000586              -0.000093863               0.999999999               0.000001709              -0.000102772               0.999999999               0.000002742              -0.000112669               0.999999999               0.000003647              -0.000123413               0.999999999               0.000004558              -0.000135023               0.999999999               0.000005539              -0.000147433               0.999999999               0.000006510              -0.000160512               0.999999999               0.000007500              -0.000174201               0.999999999               0.000008567              -0.000188505               0.999999999               0.000009543              -0.000203397               0.999999999              -0.000000301              -0.000069010               0.999999999              -0.000001929              -0.000068715               0.999999999              -0.000002405              -0.000069821               0.999999999              -0.000002322              -0.000072411               0.999999999              -0.000001937              -0.000076430               0.999999999              -0.000001343              -0.000081773               0.999999999              -0.000000735              -0.000088301               0.999999999              -0.000000005              -0.000095908               0.999999999               0.000000790              -0.000104615               0.999999999               0.000001519              -0.000114303               0.999999999               0.000002091              -0.000124814               0.999999999               0.000002603              -0.000136176               0.999999999               0.000003160              -0.000148313               0.999999999               0.000003693              -0.000161148               0.999999999               0.000004204              -0.000174632               0.999999999               0.000004726              -0.000188729               0.999999999               0.000005129              -0.000203324               0.999999999              -0.000000158              -0.000070211               0.999999999              -0.000001011              -0.000070339               0.999999999              -0.000001290              -0.000071636               0.999999999              -0.000001239              -0.000074262               0.999999999              -0.000001029              -0.000078242               0.999999999              -0.000000820              -0.000083470               0.999999999              -0.000000488              -0.000089850               0.999999999              -0.000000110              -0.000097317               0.999999999               0.000000276              -0.000105872               0.999999999               0.000000626              -0.000115332               0.999999999               0.000000914              -0.000125661               0.999999999               0.000001166              -0.000136899               0.999999999               0.000001418              -0.000148853               0.999999999               0.000001652              -0.000161510               0.999999999               0.000001878              -0.000174852               0.999999999               0.000002083              -0.000188796               0.999999999               0.000002242              -0.000203238               0.999999999               0.000000000              -0.000070649               0.999999999               0.000000000              -0.000070920               0.999999999              -0.000000000              -0.000072239               0.999999999               0.000000000              -0.000074887               0.999999999              -0.000000000              -0.000078899               0.999999999              -0.000000000              -0.000084043               0.999999999              -0.000000000              -0.000090376               0.999999999              -0.000000000              -0.000097835               0.999999999               0.000000000              -0.000106297               0.999999999              -0.000000000              -0.000115679               0.999999999              -0.000000000              -0.000125971               0.999999999              -0.000000000              -0.000137135               0.999999999               0.000000000              -0.000148994               0.999999999              -0.000000000              -0.000161590               0.999999999               0.000000000              -0.000174881               0.999999999               0.000000000              -0.000188773               0.999999999               0.000000000              -0.000203171               0.999999999              -0.000004615               0.000000000               0.999999999              -0.000001923              -0.000000000               0.999999999              -0.000000666               0.000000000               0.999999999              -0.000000032               0.000000000               0.999999999               0.000000219              -0.000000000               0.999999999               0.000000291               0.000000000               0.999999999               0.000000281               0.000000000               0.999999999               0.000000238              -0.000000000               0.999999999               0.000000141               0.000000000               0.999999999              -0.000000027              -0.000000000               0.999999999              -0.000000092              -0.000000000               0.999999999               0.000000057               0.000000000               0.999999999               0.000000433               0.000000000               0.999999999               0.000001153               0.000000000               0.999999999               0.000002314               0.000000000               0.999999999               0.000003944              -0.000000000               0.999999999               0.000006122              -0.000000000               0.999999999              -0.000004569               0.000006740               0.999999999              -0.000001912               0.000006186               0.999999999              -0.000000692               0.000006201               0.999999999              -0.000000126               0.000006490               0.999999999               0.000000153               0.000006890               0.999999999               0.000000258               0.000007448               0.999999999               0.000000281               0.000008108               0.999999999               0.000000324               0.000008790               0.999999999               0.000000392               0.000009392               0.999999999               0.000000437               0.000009966               0.999999999               0.000000539               0.000010800               0.999999999               0.000000875               0.000011796               0.999999999               0.000001526               0.000012995               0.999999999               0.000002529               0.000014459               0.999999999               0.000003970               0.000016151               0.999999999               0.000005871               0.000018097               0.999999999               0.000008246               0.000020328               0.999999999              -0.000004347               0.000013368               0.999999999              -0.000001931               0.000012327               0.999999999              -0.000000840               0.000012304               0.999999999              -0.000000313               0.000012914               0.999999999              -0.000000043               0.000013783               0.999999999               0.000000119               0.000014963               0.999999999               0.000000342               0.000016317               0.999999999               0.000000636               0.000017783               0.999999999               0.000000981               0.000019067               0.999999999               0.000001452               0.000020364               0.999999999               0.000002148               0.000022073               0.999999999               0.000003117               0.000024073               0.999999999               0.000004372               0.000026479               0.999999999               0.000005979               0.000029334               0.999999999               0.000007998               0.000032595               0.999999999               0.000010424               0.000036275               0.999999999               0.000013278               0.000040348               0.999999999              -0.000004021               0.000019853               0.999999999              -0.000002012               0.000018303               0.999999999              -0.000001074               0.000018335               0.999999999              -0.000000563               0.000019261               0.999999999              -0.000000276               0.000020644               0.999999999               0.000000053               0.000022534               0.999999999               0.000000521               0.000024739               0.999999999               0.000001162               0.000027070               0.999999999               0.000001967               0.000029153               0.999999999               0.000003021               0.000031389               0.999999999               0.000004353               0.000034186               0.999999999               0.000005982               0.000037343               0.999999999               0.000008022               0.000041018               0.999999999               0.000010483               0.000045247               0.999999999               0.000013353               0.000050021               0.999999999               0.000016635               0.000055368               0.999999999               0.000020326               0.000061288               0.999999999              -0.000003669               0.000026199               0.999999999              -0.000002095               0.000024041               0.999999999              -0.000001353               0.000024196               0.999999999              -0.000000902               0.000025522               0.999999999              -0.000000450               0.000027496               0.999999999               0.000000120               0.000030204               0.999999999               0.000000942               0.000033334               0.999999999               0.000002030               0.000036601               0.999999999               0.000003285               0.000039767               0.999999999               0.000004883               0.000043257               0.999999999               0.000006881               0.000047364               0.999999999               0.000009378               0.000051981               0.999999999               0.000012371               0.000057192               0.999999999               0.000015815               0.000063074               0.999999999               0.000019752               0.000069611               0.999999999               0.000024086               0.000076860               0.999999999               0.000028804               0.000084831               0.999999999              -0.000003210               0.000032294               0.999999999              -0.000002275               0.000029563               0.999999999              -0.000001717               0.000029885               0.999999999              -0.000001204               0.000031686               0.999999999              -0.000000568               0.000034410               0.999999999               0.000000409               0.000037985               0.999999999               0.000001726               0.000042095               0.999999999               0.000003255               0.000046500               0.999999999               0.000005095               0.000050900               0.999999999               0.000007349               0.000055999               0.999999999               0.000010054               0.000061868               0.999999999               0.000013295               0.000068431               0.999999999               0.000017097               0.000075705               0.999999999               0.000021487               0.000083773               0.999999999               0.000026390               0.000092600               0.999999999               0.000031703               0.000102190               0.999999999               0.000037455               0.000112583               0.999999999              -0.000002705               0.000038059               0.999999999              -0.000002554               0.000034848               0.999999999              -0.000002118               0.000035449               0.999999999              -0.000001512               0.000037797               0.999999999              -0.000000544               0.000041371               0.999999999               0.000000912               0.000045976               0.999999999               0.000002726               0.000051257               0.999999999               0.000004857               0.000056918               0.999999999               0.000007199               0.000063072               0.999999999               0.000009969               0.000070157               0.999999999               0.000013319               0.000078296               0.999999999               0.000017323               0.000087220               0.999999999               0.000021941               0.000097078               0.999999999               0.000027159               0.000107779               0.999999999               0.000032911               0.000119335               0.999999999               0.000039144               0.000131744               0.999999999               0.000045862               0.000144900               0.999999999              -0.000002264               0.000043499               0.999999999              -0.000002862               0.000039861               0.999999999              -0.000002553               0.000040848               0.999999999              -0.000001776               0.000043883               0.999999999              -0.000000367               0.000048455               0.999999999               0.000001582               0.000054240               0.999999999               0.000003868               0.000060963               0.999999999               0.000006313               0.000068521               0.999999999               0.000009077               0.000076784               0.999999999               0.000012458               0.000086299               0.999999999               0.000016537               0.000097015               0.999999999               0.000021318               0.000108632               0.999999999               0.000026740               0.000121284               0.999999999               0.000032709               0.000134980               0.999999999               0.000039240               0.000149577               0.999999999               0.000046295               0.000165019               0.999999999               0.000053828               0.000181128               0.999999999              -0.000001816               0.000048457               0.999999999              -0.000003258               0.000044672               0.999999999              -0.000002943               0.000046067               0.999999999              -0.000001873               0.000049931               0.999999999              -0.000000041               0.000055672               0.999999999               0.000002303               0.000062991               0.999999999               0.000004915               0.000071603               0.999999999               0.000007732               0.000081269               0.999999999               0.000011003               0.000092041               0.999999999               0.000014967               0.000104314               0.999999999               0.000019719               0.000117824               0.999999999               0.000025130               0.000132393               0.999999999               0.000031176               0.000148159               0.999999999               0.000037794               0.000165115               0.999999999               0.000044977               0.000183082               0.999999999               0.000052630               0.000201893               0.999999999               0.000060546               0.000221385               0.999999999              -0.000001318               0.000053079               0.999999999              -0.000003517               0.000049557               0.999999999              -0.000003441               0.000050467               0.999999999              -0.000002578               0.000053866               0.999999999              -0.000000971               0.000059107               0.999999999               0.000001093               0.000065990               0.999999999               0.000003545               0.000074229               0.999999999               0.000006102               0.000083611               0.999999999               0.000008661               0.000094002               0.999999999               0.000011654               0.000105502               0.999999999               0.000015317               0.000118142               0.999999999               0.000019489               0.000131804               0.999999999               0.000024097               0.000146439               0.999999999               0.000029217               0.000162178               0.999999999               0.000034793               0.000178928               0.999999999               0.000040841               0.000196795               0.999999999               0.000047332               0.000215546               0.999999999              -0.000000996               0.000057363               0.999999999              -0.000003597               0.000054272               0.999999999              -0.000003822               0.000054959               0.999999999              -0.000003157               0.000057922               0.999999999              -0.000001789               0.000062761               0.999999999               0.000000023               0.000069177               0.999999999               0.000002231               0.000077062               0.999999999               0.000004479               0.000086153               0.999999999               0.000006639               0.000096140               0.999999999               0.000008859               0.000107054               0.999999999               0.000011503               0.000119009               0.999999999               0.000014540               0.000131921               0.999999999               0.000017898               0.000145677               0.999999999               0.000021688               0.000160288               0.999999999               0.000025875               0.000175916               0.999999999               0.000030442               0.000192566               0.999999999               0.000035401               0.000210148               0.999999999              -0.000000756               0.000061183               0.999999999              -0.000003480               0.000058713               0.999999999              -0.000003976               0.000059322               0.999999999              -0.000003487               0.000062045               0.999999999              -0.000002348               0.000066529               0.999999999              -0.000000816               0.000072543               0.999999999               0.000000983               0.000080085               0.999999999               0.000002928               0.000088817               0.999999999               0.000004727               0.000098466               0.999999999               0.000006435               0.000108889               0.999999999               0.000008305               0.000120283               0.999999999               0.000010419               0.000132562               0.999999999               0.000012775               0.000145674               0.999999999               0.000015396               0.000159590               0.999999999               0.000018314               0.000174318               0.999999999               0.000021432               0.000189889               0.999999999               0.000024844               0.000206371               0.999999999              -0.000000545               0.000064422               0.999999999              -0.000003188               0.000062737               0.999999999              -0.000003816               0.000063413               0.999999999              -0.000003450               0.000066012               0.999999999              -0.000002592               0.000070262               0.999999999              -0.000001445               0.000076029               0.999999999               0.000000012               0.000083172               0.999999999               0.000001597               0.000091436               0.999999999               0.000003078               0.000100643               0.999999999               0.000004415               0.000110780               0.999999999               0.000005697               0.000121784               0.999999999               0.000007113               0.000133677               0.999999999               0.000008683               0.000146404               0.999999999               0.000010365               0.000159862               0.999999999               0.000012159               0.000173919               0.999999999               0.000014074               0.000188649               0.999999999               0.000016124               0.000204183               0.999999999              -0.000000412               0.000067068               0.999999999              -0.000002680               0.000066141               0.999999999              -0.000003271               0.000066991               0.999999999              -0.000003061               0.000069565               0.999999999              -0.000002492               0.000073694               0.999999999              -0.000001612               0.000079210               0.999999999              -0.000000551               0.000085968               0.999999999               0.000000586               0.000093863               0.999999999               0.000001709               0.000102772               0.999999999               0.000002742               0.000112669               0.999999999               0.000003647               0.000123413               0.999999999               0.000004558               0.000135023               0.999999999               0.000005539               0.000147433               0.999999999               0.000006510               0.000160512               0.999999999               0.000007500               0.000174201               0.999999999               0.000008567               0.000188505               0.999999999               0.000009543               0.000203397               0.999999999              -0.000000301               0.000069010               0.999999999              -0.000001929               0.000068715               0.999999999              -0.000002405               0.000069821               0.999999999              -0.000002322               0.000072411               0.999999999              -0.000001937               0.000076430               0.999999999              -0.000001343               0.000081773               0.999999999              -0.000000735               0.000088301               0.999999999              -0.000000005               0.000095908               0.999999999               0.000000790               0.000104615               0.999999999               0.000001519               0.000114303               0.999999999               0.000002091               0.000124814               0.999999999               0.000002603               0.000136176               0.999999999               0.000003160               0.000148313               0.999999999               0.000003693               0.000161148               0.999999999               0.000004204               0.000174632               0.999999999               0.000004726               0.000188729               0.999999999               0.000005129               0.000203324               0.999999999              -0.000000158               0.000070211               0.999999999              -0.000001011               0.000070339               0.999999999              -0.000001290               0.000071636               0.999999999              -0.000001239               0.000074262               0.999999999              -0.000001029               0.000078242               0.999999999              -0.000000820               0.000083470               0.999999999              -0.000000488               0.000089850               0.999999999              -0.000000110               0.000097317               0.999999999               0.000000276               0.000105872               0.999999999               0.000000626               0.000115332               0.999999999               0.000000914               0.000125661               0.999999999               0.000001166               0.000136899               0.999999999               0.000001418               0.000148853               0.999999999               0.000001652               0.000161510               0.999999999               0.000001878               0.000174852               0.999999999               0.000002083               0.000188796               0.999999999               0.000002242               0.000203238               0.999999999               0.000000000               0.000070649               0.999999999               0.000000000               0.000070920               0.999999999               0.000000000               0.000072239               0.999999999              -0.000000000               0.000074887               0.999999999              -0.000000000               0.000078899               0.999999999               0.000000000               0.000084043               0.999999999              -0.000000000               0.000090376               0.999999999              -0.000000000               0.000097835               0.999999999              -0.000000000               0.000106297               0.999999999              -0.000000000               0.000115679               0.999999999              -0.000000000               0.000125971               0.999999999              -0.000000000               0.000137135               0.999999999               0.000000000               0.000148994               0.999999999               0.000000000               0.000161590               0.999999999              -0.000000000               0.000174881               0.999999999               0.000000000               0.000188773               0.999999999               0.000000000               0.000203171               0.999999999 </DataArray>
<DataArray type="Float64"                                    Name="defo"                                                      NumberOfComponents=" 3" format="ascii">
              0.000004615               0.000000000               0.999999999               0.000001923               0.000000000               0.999999999               0.000000666              -0.000000000               0.999999999               0.000000032               0.000000000               0.999999999              -0.000000219               0.000000000               0.999999999              -0.000000291              -0.000000000               0.999999999              -0.000000281               0.000000000               0.999999999              -0.000000238               0.000000000               0.999999999              -0.000000141               0.000000000               0.999999999               0.000000027               0.000000000               0.999999999               0.000000092               0.000000000               0.999999999              -0.000000057               0.000000000               0.999999999              -0.000000433               0.000000000               0.999999999              -0.000001153               0.000000000               0.999999999              -0.000002314               0.000000000               0.999999999              -0.000003944               0.000000000               0.999999999              -0.000006122               0.000000000               0.999999999               0.000004569               0.000006740               0.999999999               0.000001912               0.000006186               0.999999999               0.000000692               0.000006201               0.999999999               0.000000126               0.000006490               0.999999999              -0.000000153               0.000006890               0.999999999              -0.000000258               0.000007448               0.999999999              -0.000000281               0.000008108               0.999999999              -0.000000324               0.000008790               0.999999999              -0.000000392               0.000009392               0.999999999              -0.000000437               0.000009966               0.999999999              -0.000000539               0.000010800               0.999999999              -0.000000875               0.000011796               0.999999999              -0.000001526               0.000012995               0.999999999              -0.000002529               0.000014459               0.999999999              -0.000003970               0.000016151               0.999999999              -0.000005871               0.000018097               0.999999999              -0.000008246               0.000020328               0.999999999               0.000004347               0.000013368               0.999999999               0.000001931               0.000012327               0.999999999               0.000000840               0.000012304               0.999999999               0.000000313               0.000012914               0.999999999               0.000000043               0.000013783               0.999999999              -0.000000119               0.000014963               0.999999999              -0.000000342               0.000016317               0.999999999              -0.000000636               0.000017783               0.999999999              -0.000000981               0.000019067               0.999999999              -0.000001452               0.000020364               0.999999999              -0.000002148               0.000022073               0.999999999              -0.000003117               0.000024073               0.999999999              -0.000004372               0.000026479               0.999999999              -0.000005979               0.000029334               0.999999999              -0.000007998               0.000032595               0.999999999              -0.000010424               0.000036275               0.999999999              -0.000013278               0.000040348               0.999999999               0.000004021               0.000019853               0.999999999               0.000002012               0.000018303               0.999999999               0.000001074               0.000018335               0.999999999               0.000000563               0.000019261               0.999999999               0.000000276               0.000020644               0.999999999              -0.000000053               0.000022534               0.999999999              -0.000000521               0.000024739               0.999999999              -0.000001162               0.000027070               0.999999999              -0.000001967               0.000029153               0.999999999              -0.000003021               0.000031389               0.999999999              -0.000004353               0.000034186               0.999999999              -0.000005982               0.000037343               0.999999999              -0.000008022               0.000041018               0.999999999              -0.000010483               0.000045247               0.999999999              -0.000013353               0.000050021               0.999999999              -0.000016635               0.000055368               0.999999999              -0.000020326               0.000061288               0.999999999               0.000003669               0.000026199               0.999999999               0.000002095               0.000024041               0.999999999               0.000001353               0.000024196               0.999999999               0.000000902               0.000025522               0.999999999               0.000000450               0.000027496               0.999999999              -0.000000120               0.000030204               0.999999999              -0.000000942               0.000033334               0.999999999              -0.000002030               0.000036601               0.999999999              -0.000003285               0.000039767               0.999999999              -0.000004883               0.000043257               0.999999999              -0.000006881               0.000047364               0.999999999              -0.000009378               0.000051981               0.999999999              -0.000012371               0.000057192               0.999999999              -0.000015815               0.000063074               0.999999999              -0.000019752               0.000069611               0.999999999              -0.000024086               0.000076860               0.999999999              -0.000028804               0.000084831               0.999999999               0.000003210               0.000032294               0.999999999               0.000002275               0.000029563               0.999999999               0.000001717               0.000029885               0.999999999               0.000001204               0.000031686               0.999999999               0.000000568               0.000034410               0.999999999              -0.000000409               0.000037985               0.999999999              -0.000001726               0.000042095               0.999999999              -0.000003255               0.000046500               0.999999999              -0.000005095               0.000050900               0.999999999              -0.000007349               0.000055999               0.999999999              -0.000010054               0.000061868               0.999999999              -0.000013295               0.000068431               0.999999999              -0.000017097               0.000075705               0.999999999              -0.000021487               0.000083773               0.999999999              -0.000026390               0.000092600               0.999999999              -0.000031703               0.000102190               0.999999999              -0.000037455               0.000112583               0.999999999               0.000002705               0.000038059               0.999999999               0.000002554               0.000034848               0.999999999               0.000002118               0.000035449               0.999999999               0.000001512               0.000037797               0.999999999               0.000000544               0.000041371               0.999999999              -0.000000912               0.000045976               0.999999999              -0.000002726               0.000051257               0.999999999              -0.000004857               0.000056918               0.999999999              -0.000007199               0.000063072               0.999999999              -0.000009969               0.000070157               0.999999999              -0.000013319               0.000078296               0.999999999              -0.000017323               0.000087220               0.999999999              -0.000021941               0.000097078               0.999999999              -0.000027159               0.000107779               0.999999999              -0.000032911               0.000119335               0.999999999              -0.000039144               0.000131744               0.999999999              -0.000045862               0.000144900               0.999999999               0.000002264               0.000043499               0.999999999               0.000002862               0.000039861               0.999999999               0.000002553               0.000040848               0.999999999               0.000001776               0.000043883               0.999999999               0.000000367               0.000048455               0.999999999              -0.000001582               0.000054240               0.999999999              -0.000003868               0.000060963               0.999999999              -0.000006313               0.000068521               0.999999999              -0.000009077               0.000076784               0.999999999              -0.000012458               0.000086299               0.999999999              -0.000016537               0.000097015               0.999999999              -0.000021318               0.000108632               0.999999999              -0.000026740               0.000121284               0.999999999              -0.000032709               0.000134980               0.999999999              -0.000039240               0.000149577               0.999999999              -0.000046295               0.000165019               0.999999999              -0.000053828               0.000181128               0.999999999               0.000001816               0.000048457               0.999999999               0.000003258               0.000044672               0.999999999               0.000002943               0.000046067               0.999999999               0.000001873               0.000049931               0.999999999               0.000000041               0.000055672               0.999999999              -0.000002303               0.000062991               0.999999999              -0.000004915               0.000071603               0.999999999              -0.000007732               0.000081269               0.999999999              -0.000011003               0.000092041               0.999999999              -0.000014967               0.000104314               0.999999999              -0.000019719               0.000117824               0.999999999              -0.000025130               0.000132393               0.999999999              -0.000031176               0.000148159               0.999999999              -0.000037794               0.000165115               0.999999999              -0.000044977               0.000183082               0.999999999              -0.000052630               0.000201893               0.999999999              -0.000060546               0.000221385               0.999999999               0.000001318               0.000053079               0.999999999               0.000003517               0.000049557               0.999999999               0.000003441               0.000050467               0.999999999               0.000002578               0.000053866               0.999999999               0.000000971               0.000059107               0.999999999              -0.000001093               0.000065990               0.999999999              -0.000003545               0.000074229               0.999999999              -0.000006102               0.000083611               0.999999999              -0.000008661               0.000094002               0.999999999              -0.000011654               0.000105502               0.999999999              -0.000015317               0.000118142               0.999999999              -0.000019489               0.000131804               0.999999999              -0.000024097               0.000146439               0.999999999              -0.000029217               0.000162178               0.999999999              -0.000034793               0.000178928               0.999999999              -0.000040841               0.000196795               0.999999999              -0.000047332               0.000215546               0.999999999               0.000000996               0.000057363               0.999999999               0.000003597               0.000054272               0.999999999               0.000003822               0.000054959               0.999999999               0.000003157               0.000057922               0.999999999               0.000001789               0.000062761               0.999999999              -0.000000023               0.000069177               0.999999999              -0.000002231               0.000077062               0.999999999              -0.000004479               0.000086153               0.999999999              -0.000006639               0.000096140               0.999999999              -0.000008859               0.000107054               0.999999999              -0.000011503               0.000119009               0.999999999              -0.000014540               0.000131921               0.999999999              -0.000017898               0.000145677               0.999999999              -0.000021688               0.000160288               0.999999999              -0.000025875               0.000175916               0.999999999              -0.000030442               0.000192566               0.999999999              -0.000035401               0.000210148               0.999999999               0.000000756               0.000061183               0.999999999               0.000003480               0.000058713               0.999999999               0.000003976               0.000059322               0.999999999               0.000003487               0.000062045               0.999999999               0.000002348               0.000066529               0.999999999               0.000000816               0.000072543               0.999999999              -0.000000983               0.000080085               0.999999999              -0.000002928               0.000088817               0.999999999              -0.000004727               0.000098466               0.999999999              -0.000006435               0.000108889               0.999999999              -0.000008305               0.000120283               0.999999999              -0.000010419               0.000132562               0.999999999              -0.000012775               0.000145674               0.999999999              -0.000015396               0.000159590               0.999999999              -0.000018314               0.000174318               0.999999999              -0.000021432               0.000189889               0.999999999              -0.000024844               0.000206371               0.999999999               0.000000545               0.000064422               0.999999999               0.000003188               0.000062737               0.999999999               0.000003816               0.000063413               0.999999999               0.000003450               0.000066012               0.999999999               0.000002592               0.000070262               0.999999999               0.000001445               0.000076029               0.999999999              -0.000000012               0.000083172               0.999999999              -0.000001597               0.000091436               0.999999999              -0.000003078               0.000100643               0.999999999              -0.000004415               0.000110780               0.999999999              -0.000005697               0.000121784               0.999999999              -0.000007113               0.000133677               0.999999999              -0.000008683               0.000146404               0.999999999              -0.000010365               0.000159862               0.999999999              -0.000012159               0.000173919               0.999999999              -0.000014074               0.000188649               0.999999999              -0.000016124               0.000204183               0.999999999               0.000000412               0.000067068               0.999999999               0.000002680               0.000066141               0.999999999               0.000003271               0.000066991               0.999999999               0.000003061               0.000069565               0.999999999               0.000002492               0.000073694               0.999999999               0.000001612               0.000079210               0.999999999               0.000000551               0.000085968               0.999999999              -0.000000586               0.000093863               0.999999999              -0.000001709               0.000102772               0.999999999              -0.000002742               0.000112669               0.999999999              -0.000003647               0.000123413               0.999999999              -0.000004558               0.000135023               0.999999999              -0.000005539               0.000147433               0.999999999              -0.000006510               0.000160512               0.999999999              -0.000007500               0.000174201               0.999999999              -0.000008567               0.000188505               0.999999999              -0.000009543               0.000203397               0.999999999               0.000000301               0.000069010               0.999999999               0.000001929               0.000068715               0.999999999               0.000002405               0.000069821               0.999999999               0.000002322               0.000072411               0.999999999               0.000001937               0.000076430               0.999999999               0.000001343               0.000081773               0.999999999               0.000000735               0.000088301               0.999999999               0.000000005               0.000095908               0.999999999              -0.000000790               0.000104615               0.999999999              -0.000001519               0.000114303               0.999999999              -0.000002091               0.000124814               0.999999999              -0.000002603               0.000136176               0.999999999              -0.000003160               0.000148313               0.999999999              -0.000003693               0.000161148               0.999999999              -0.000004204               0.000174632               0.999999999              -0.000004726               0.000188729               0.999999999              -0.000005129               0.000203324               0.999999999               0.000000158               0.000070211               0.999999999               0.000001011               0.000070339               0.999999999               0.000001290               0.000071636               0.999999999               0.000001239               0.000074262               0.999999999               0.000001029               0.000078242               0.999999999               0.000000820               0.000083470               0.999999999               0.000000488               0.000089850               0.999999999               0.000000110               0.000097317               0.999999999              -0.000000276               0.000105872               0.999999999              -0.000000626               0.000115332               0.999999999              -0.000000914               0.000125661               0.999999999              -0.000001166               0.000136899               0.999999999              -0.000001418               0.000148853               0.999999999              -0.000001652               0.000161510               0.999999999              -0.000001878               0.000174852               0.999999999              -0.000002083               0.000188796               0.999999999              -0.000002242               0.000203238               0.999999999               0.000000000               0.000070649               0.999999999               0.000000000               0.000070920               0.999999999               0.000000000               0.000072239               0.999999999              -0.000000000               0.000074887               0.999999999              -0.000000000               0.000078899               0.999999999               0.000000000               0.000084043               0.999999999              -0.000000000               0.000090376               0.999999999              -0.000000000               0.000097835               0.999999999              -0.000000000               0.000106297               0.999999999              -0.000000000               0.000115679               0.999999999              -0.000000000               0.000125971               0.999999999              -0.000000000               0.000137135               0.999999999               0.000000000               0.000148994               0.999999999               0.000000000               0.000161590               0.999999999              -0.000000000               0.000174881               0.999999999               0.000000000               0.000188773               0.999999999               0.000000000               0.000203171               0.999999999               0.000004615               0.000000000               0.999999999               0.000001923               0.000000000               0.999999999               0.000000666              -0.000000000               0.999999999               0.000000032               0.000000000               0.999999999              -0.000000219               0.000000000               0.999999999              -0.000000291              -0.000000000               0.999999999              -0.000000281               0.000000000               0.999999999              -0.000000238               0.000000000               0.999999999              -0.000000141               0.000000000               0.999999999               0.000000027               0.000000000               0.999999999               0.000000092               0.000000000               0.999999999              -0.000000057               0.000000000               0.999999999              -0.000000433               0.000000000               0.999999999              -0.000001153               0.000000000               0.999999999              -0.000002314               0.000000000               0.999999999              -0.000003944               0.000000000               0.999999999              -0.000006122               0.000000000               0.999999999               0.000004569              -0.000006740               0.999999999               0.000001912              -0.000006186               0.999999999               0.000000692              -0.000006201               0.999999999               0.000000126              -0.000006490               0.999999999              -0.000000153              -0.000006890               0.999999999              -0.000000258              -0.000007448               0.999999999              -0.000000281              -0.000008108               0.999999999              -0.000000324              -0.000008790               0.999999999              -0.000000392              -0.000009392               0.999999999              -0.000000437              -0.000009966               0.999999999              -0.000000539              -0.000010800               0.999999999              -0.000000875              -0.000011796               0.999999999              -0.000001526              -0.000012995               0.999999999              -0.000002529              -0.000014459               0.999999999              -0.000003970              -0.000016151               0.999999999              -0.000005871              -0.000018097               0.999999999              -0.000008246              -0.000020328               0.999999999               0.000004347              -0.000013368               0.999999999               0.000001931              -0.000012327               0.999999999               0.000000840              -0.000012304               0.999999999               0.000000313              -0.000012914               0.999999999               0.000000043              -0.000013783               0.999999999              -0.000000119              -0.000014963               0.999999999              -0.000000342              -0.000016317               0.999999999              -0.000000636              -0.000017783               0.999999999              -0.000000981              -0.000019067               0.999999999              -0.000001452              -0.000020364               0.999999999              -0.000002148              -0.000022073               0.999999999              -0.000003117              -0.000024073               0.999999999              -0.000004372              -0.000026479               0.999999999              -0.000005979              -0.000029334               0.999999999              -0.000007998              -0.000032595               0.999999999              -0.000010424              -0.000036275               0.999999999              -0.000013278              -0.000040348               0.999999999               0.000004021              -0.000019853               0.999999999               0.000002012              -0.000018303               0.999999999               0.000001074              -0.000018335               0.999999999               0.000000563              -0.000019261               0.999999999               0.000000276              -0.000020644               0.999999999              -0.000000053              -0.000022534               0.999999999              -0.000000521              -0.000024739               0.999999999              -0.000001162              -0.000027070               0.999999999              -0.000001967              -0.000029153               0.999999999              -0.000003021              -0.000031389               0.999999999              -0.000004353              -0.000034186               0.999999999              -0.000005982              -0.000037343               0.999999999              -0.000008022              -0.000041018               0.999999999              -0.000010483              -0.000045247               0.999999999              -0.000013353              -0.000050021               0.999999999              -0.000016635              -0.000055368               0.999999999              -0.000020326              -0.000061288               0.999999999               0.000003669              -0.000026199               0.999999999               0.000002095              -0.000024041               0.999999999               0.000001353              -0.000024196               0.999999999               0.000000902              -0.000025522               0.999999999               0.000000450              -0.000027496               0.999999999              -0.000000120              -0.000030204               0.999999999              -0.000000942              -0.000033334               0.999999999              -0.000002030              -0.000036601               0.999999999              -0.000003285              -0.000039767               0.999999999              -0.000004883              -0.000043257               0.999999999              -0.000006881              -0.000047364               0.999999999              -0.000009378              -0.000051981               0.999999999              -0.000012371              -0.000057192               0.999999999              -0.000015815              -0.000063074               0.999999999              -0.000019752              -0.000069611               0.999999999              -0.000024086              -0.000076860               0.999999999              -0.000028804              -0.000084831               0.999999999               0.000003210              -0.000032294               0.999999999               0.000002275              -0.000029563               0.999999999               0.000001717              -0.000029885               0.999999999               0.000001204              -0.000031686               0.999999999               0.000000568              -0.000034410               0.999999999              -0.000000409              -0.000037985               0.999999999              -0.000001726              -0.000042095               0.999999999              -0.000003255              -0.000046500               0.999999999              -0.000005095              -0.000050900               0.999999999              -0.000007349              -0.000055999               0.999999999              -0.000010054              -0.000061868               0.999999999              -0.000013295              -0.000068431               0.999999999              -0.000017097              -0.000075705               0.999999999              -0.000021487              -0.000083773               0.999999999              -0.000026390              -0.000092600               0.999999999              -0.000031703              -0.000102190               0.999999999              -0.000037455              -0.000112583               0.999999999               0.000002705              -0.000038059               0.999999999               0.000002554              -0.000034848               0.999999999               0.000002118              -0.000035449               0.999999999               0.000001512              -0.000037797               0.999999999               0.000000544              -0.000041371               0.999999999              -0.000000912              -0.000045976               0.999999999              -0.000002726              -0.000051257               0.999999999              -0.000004857              -0.000056918               0.999999999              -0.000007199              -0.000063072               0.999999999              -0.000009969              -0.000070157               0.999999999              -0.000013319              -0.000078296               0.999999999              -0.000017323              -0.000087220               0.999999999              -0.000021941              -0.000097078               0.999999999              -0.000027159              -0.000107779               0.999999999              -0.000032911              -0.000119335               0.999999999              -0.000039144              -0.000131744               0.999999999              -0.000045862              -0.000144900               0.999999999               0.000002264              -0.000043499               0.999999999               0.000002862              -0.000039861               0.999999999               0.000002553              -0.000040848               0.999999999               0.000001776              -0.000043883               0.999999999               0.000000367              -0.000048455               0.999999999              -0.000001582              -0.000054240               0.999999999              -0.000003868              -0.000060963               0.999999999              -0.000006313              -0.000068521               0.999999999              -0.000009077              -0.000076784               0.999999999              -0.000012458              -0.000086299               0.999999999              -0.000016537              -0.000097015               0.999999999              -0.000021318              -0.000108632               0.999999999              -0.000026740              -0.000121284               0.999999999              -0.000032709              -0.000134980               0.999999999              -0.000039240              -0.000149577               0.999999999              -0.000046295              -0.000165019               0.999999999              -0.000053828              -0.000181128               0.999999999               0.000001816              -0.000048457               0.999999999               0.000003258              -0.000044672               0.999999999               0.000002943              -0.000046067               0.999999999               0.000001873              -0.000049931               0.999999999               0.000000041              -0.000055672               0.999999999              -0.000002303              -0.000062991               0.999999999              -0.000004915              -0.000071603               0.999999999              -0.000007732              -0.000081269               0.999999999              -0.000011003              -0.000092041               0.999999999              -0.000014967              -0.000104314               0.999999999              -0.000019719              -0.000117824               0.999999999              -0.000025130              -0.000132393               0.999999999              -0.000031176              -0.000148159               0.999999999              -0.000037794              -0.000165115               0.999999999              -0.000044977              -0.000183082               0.999999999              -0.000052630              -0.000201893               0.999999999              -0.000060546              -0.000221385               0.999999999               0.000001318              -0.000053079               0.999999999               0.000003517              -0.000049557               0.999999999               0.000003441              -0.000050467               0.999999999               0.000002578              -0.000053866               0.999999999               0.000000971              -0.000059107               0.999999999              -0.000001093              -0.000065990               0.999999999              -0.000003545              -0.000074229               0.999999999              -0.000006102              -0.000083611               0.999999999              -0.000008661              -0.000094002               0.999999999              -0.000011654              -0.000105502               0.999999999              -0.000015317              -0.000118142               0.999999999              -0.000019489              -0.000131804               0.999999999              -0.000024097              -0.000146439               0.999999999              -0.000029217              -0.000162178               0.999999999              -0.000034793              -0.000178928               0.999999999              -0.000040841              -0.000196795               0.999999999              -0.000047332              -0.000215546               0.999999999               0.000000996              -0.000057363               0.999999999               0.000003597              -0.000054272               0.999999999               0.000003822              -0.000054959               0.999999999               0.000003157              -0.000057922               0.999999999               0.000001789              -0.000062761               0.999999999              -0.000000023              -0.000069177               0.999999999              -0.000002231              -0.000077062               0.999999999              -0.000004479              -0.000086153               0.999999999              -0.000006639              -0.000096140               0.999999999              -0.000008859              -0.000107054               0.999999999              -0.000011503              -0.000119009               0.999999999              -0.000014540              -0.000131921               0.999999999              -0.000017898              -0.000145677               0.999999999              -0.000021688              -0.000160288               0.999999999              -0.000025875              -0.000175916               0.999999999              -0.000030442              -0.000192566               0.999999999              -0.000035401              -0.000210148               0.999999999               0.000000756              -0.000061183               0.999999999               0.000003480              -0.000058713               0.999999999               0.000003976              -0.000059322               0.999999999               0.000003487              -0.000062045               0.999999999               0.000002348              -0.000066529               0.999999999               0.000000816              -0.000072543               0.999999999              -0.000000983              -0.000080085               0.999999999              -0.000002928              -0.000088817               0.999999999              -0.000004727              -0.000098466               0.999999999              -0.000006435              -0.000108889               0.999999999              -0.000008305              -0.000120283               0.999999999              -0.000010419              -0.000132562               0.999999999              -0.000012775              -0.000145674               0.999999999              -0.000015396              -0.000159590               0.999999999              -0.000018314              -0.000174318               0.999999999              -0.000021432              -0.000189889               0.999999999              -0.000024844              -0.000206371               0.999999999               0.000000545              -0.000064422               0.999999999               0.000003188              -0.000062737               0.999999999               0.000003816              -0.000063413               0.999999999               0.000003450              -0.000066012               0.999999999               0.000002592              -0.000070262               0.999999999               0.000001445              -0.000076029               0.999999999              -0.000000012              -0.000083172               0.999999999              -0.000001597              -0.000091436               0.999999999              -0.000003078              -0.000100643               0.999999999              -0.000004415              -0.000110780               0.999999999              -0.000005697              -0.000121784               0.999999999              -0.000007113              -0.000133677               0.999999999              -0.000008683              -0.000146404               0.999999999              -0.000010365              -0.000159862               0.999999999              -0.000012159              -0.000173919               0.999999999              -0.000014074              -0.000188649               0.999999999              -0.000016124              -0.000204183               0.999999999               0.000000412              -0.000067068               0.999999999               0.000002680              -0.000066141               0.999999999               0.000003271              -0.000066991               0.999999999               0.000003061              -0.000069565               0.999999999               0.000002492              -0.000073694               0.999999999               0.000001612              -0.000079210               0.999999999               0.000000551              -0.000085968               0.999999999              -0.000000586              -0.000093863               0.999999999              -0.000001709              -0.000102772               0.999999999              -0.000002742              -0.000112669               0.999999999              -0.000003647              -0.000123413               0.999999999              -0.000004558              -0.000135023               0.999999999              -0.000005539              -0.000147433               0.999999999              -0.000006510              -0.000160512               0.999999999              -0.000007500              -0.000174201               0.999999999              -0.000008567              -0.000188505               0.999999999              -0.000009543              -0.000203397               0.999999999               0.000000301              -0.000069010               0.999999999               0.000001929              -0.000068715               0.999999999               0.000002405              -0.000069821               0.999999999               0.000002322              -0.000072411               0.999999999               0.000001937              -0.000076430               0.999999999               0.000001343              -0.000081773               0.999999999               0.000000735              -0.000088301               0.999999999               0.000000005              -0.000095908               0.999999999              -0.000000790              -0.000104615               0.999999999              -0.000001519              -0.000114303               0.999999999              -0.000002091              -0.000124814               0.999999999              -0.000002603              -0.000136176               0.999999999              -0.000003160              -0.000148313               0.999999999              -0.000003693              -0.000161148               0.999999999              -0.000004204              -0.000174632               0.999999999              -0.000004726              -0.000188729               0.999999999              -0.000005129              -0.000203324               0.999999999               0.000000158              -0.000070211               0.999999999               0.000001011              -0.000070339               0.999999999               0.000001290              -0.000071636               0.999999999               0.000001239              -0.000074262               0.999999999               0.000001029              -0.000078242               0.999999999               0.000000820              -0.000083470               0.999999999               0.000000488              -0.000089850               0.999999999               0.000000110              -0.000097317               0.999999999              -0.000000276              -0.000105872               0.999999999              -0.000000626              -0.000115332               0.999999999              -0.000000914              -0.000125661               0.999999999              -0.000001166              -0.000136899               0.999999999              -0.000001418              -0.000148853               0.999999999              -0.000001652              -0.000161510               0.999999999              -0.000001878              -0.000174852               0.999999999              -0.000002083              -0.000188796               0.999999999              -0.000002242              -0.000203238               0.999999999               0.000000000              -0.000070649               0.999999999               0.000000000              -0.000070920               0.999999999              -0.000000000              -0.000072239               0.999999999               0.000000000              -0.000074887               0.999999999              -0.000000000              -0.000078899               0.999999999              -0.000000000              -0.000084043               0.999999999              -0.000000000              -0.000090376               0.999999999              -0.000000000              -0.000097835               0.999999999               0.000000000              -0.000106297               0.999999999              -0.000000000              -0.000115679               0.999999999              -0.000000000              -0.000125971               0.999999999              -0.000000000              -0.000137135               0.999999999               0.000000000              -0.000148994               0.999999999              -0.000000000              -0.000161590               0.999999999               0.000000000              -0.000174881               0.999999999               0.000000000              -0.000188773               0.999999999               0.000000000              -0.000203171               0.999999999              -0.000004615               0.000000000               0.999999999              -0.000001923              -0.000000000               0.999999999              -0.000000666               0.000000000               0.999999999              -0.000000032               0.000000000               0.999999999               0.000000219              -0.000000000               0.999999999               0.000000291               0.000000000               0.999999999               0.000000281               0.000000000               0.999999999               0.000000238              -0.000000000               0.999999999               0.000000141               0.000000000               0.999999999              -0.000000027              -0.000000000               0.999999999              -0.000000092              -0.000000000               0.999999999               0.000000057               0.000000000               0.999999999               0.000000433               0.000000000               0.999999999               0.000001153               0.000000000               0.999999999               0.000002314               0.000000000               0.999999999               0.000003944              -0.000000000               0.999999999               0.000006122              -0.000000000               0.999999999              -0.000004569              -0.000006740               0.999999999              -0.000001912              -0.000006186               0.999999999              -0.000000692              -0.000006201               0.999999999              -0.000000126              -0.000006490               0.999999999               0.000000153              -0.000006890               0.999999999               0.000000258              -0.000007448               0.999999999               0.000000281              -0.000008108               0.999999999               0.000000324              -0.000008790               0.999999999               0.000000392              -0.000009392               0.999999999               0.000000437              -0.000009966               0.999999999               0.000000539              -0.000010800               0.999999999               0.000000875              -0.000011796               0.999999999               0.000001526              -0.000012995               0.999999999               0.000002529              -0.000014459               0.999999999               0.000003970              -0.000016151               0.999999999               0.000005871              -0.000018097               0.999999999               0.000008246              -0.000020328               0.999999999              -0.000004347              -0.000013368               0.999999999              -0.000001931              -0.000012327               0.999999999              -0.000000840              -0.000012304               0.999999999              -0.000000313              -0.000012914               0.999999999              -0.000000043              -0.000013783               0.999999999               0.000000119              -0.000014963               0.999999999               0.000000342              -0.000016317               0.999999999               0.000000636              -0.000017783               0.999999999               0.000000981              -0.000019067               0.999999999               0.000001452              -0.000020364               0.999999999               0.000002148              -0.000022073               0.999999999               0.000003117              -0.000024073               0.999999999               0.000004372              -0.000026479               0.999999999               0.000005979              -0.000029334               0.999999999               0.000007998              -0.000032595               0.999999999               0.000010424              -0.000036275               0.999999999               0.000013278              -0.000040348               0.999999999              -0.000004021              -0.000019853               0.999999999              -0.000002012              -0.000018303               0.999999999              -0.000001074              -0.000018335               0.999999999              -0.000000563              -0.000019261               0.999999999              -0.000000276              -0.000020644               0.999999999               0.000000053              -0.000022534               0.999999999               0.000000521              -0.000024739               0.999999999               0.000001162              -0.000027070               0.999999999               0.000001967              -0.000029153               0.999999999               0.000003021              -0.000031389               0.999999999               0.000004353              -0.000034186               0.999999999               0.000005982              -0.000037343               0.999999999               0.000008022              -0.000041018               0.999999999               0.000010483              -0.000045247               0.999999999               0.000013353              -0.000050021               0.999999999               0.000016635              -0.000055368               0.999999999               0.000020326              -0.000061288               0.999999999              -0.000003669              -0.000026199               0.999999999              -0.000002095              -0.000024041               0.999999999              -0.000001353              -0.000024196               0.999999999              -0.000000902              -0.000025522               0.999999999              -0.000000450              -0.000027496               0.999999999               0.000000120              -0.000030204               0.999999999               0.000000942              -0.000033334               0.999999999               0.000002030              -0.000036601               0.999999999               0.000003285              -0.000039767               0.999999999               0.000004883              -0.000043257               0.999999999               0.000006881              -0.000047364               0.999999999               0.000009378              -0.000051981               0.999999999               0.000012371              -0.000057192               0.999999999               0.000015815              -0.000063074               0.999999999               0.000019752              -0.000069611               0.999999999               0.000024086              -0.000076860               0.999999999               0.000028804              -0.000084831               0.999999999              -0.000003210              -0.000032294               0.999999999              -0.000002275              -0.000029563               0.999999999              -0.000001717              -0.000029885               0.999999999              -0.000001204              -0.000031686               0.999999999              -0.000000568              -0.000034410               0.999999999               0.000000409              -0.000037985               0.999999999               0.000001726              -0.000042095               0.999999999               0.000003255              -0.000046500               0.999999999               0.000005095              -0.000050900               0.999999999               0.000007349              -0.000055999               0.999999999               0.000010054              -0.000061868               0.999999999               0.000013295              -0.000068431               0.999999999               0.000017097              -0.000075705               0.999999999               0.000021487              -0.000083773               0.999999999               0.000026390              -0.000092600               0.999999999               0.000031703              -0.000102190               0.999999999               0.000037455              -0.000112583               0.999999999              -0.000002705              -0.000038059               0.999999999              -0.000002554              -0.000034848               0.999999999              -0.000002118              -0.000035449               0.999999999              -0.000001512              -0.000037797               0.999999999              -0.000000544              -0.000041371               0.999999999               0.000000912              -0.000045976               0.999999999               0.000002726              -0.000051257               0.999999999               0.000004857              -0.000056918               0.999999999               0.000007199              -0.000063072               0.999999999               0.000009969              -0.000070157               0.999999999               0.000013319              -0.000078296               0.999999999               0.000017323              -0.000087220               0.999999999               0.000021941              -0.000097078               0.999999999               0.000027159              -0.000107779               0.999999999               0.000032911              -0.000119335               0.999999999               0.000039144              -0.000131744               0.999999999               0.000045862              -0.000144900               0.999999999              -0.000002264              -0.000043499               0.999999999              -0.000002862              -0.000039861               0.999999999              -0.000002553              -0.000040848               0.999999999              -0.000001776              -0.000043883               0.999999999              -0.000000367              -0.000048455               0.999999999               0.000001582              -0.000054240               0.999999999               0.000003868              -0.000060963               0.999999999               0.000006313              -0.000068521               0.999999999               0.000009077              -0.000076784               0.999999999               0.000012458              -0.000086299               0.999999999               0.000016537              -0.000097015               0.999999999               0.000021318              -0.000108632               0.999999999               0.000026740              -0.000121284               0.999999999               0.000032709              -0.000134980               0.999999999               0.000039240              -0.000149577               0.999999999               0.000046295              -0.000165019               0.999999999               0.000053828              -0.000181128               0.999999999              -0.000001816              -0.000048457               0.999999999              -0.000003258              -0.000044672               0.999999999              -0.000002943              -0.000046067               0.999999999              -0.000001873              -0.000049931               0.999999999              -0.000000041              -0.000055672               0.999999999               0.000002303              -0.000062991               0.999999999               0.000004915              -0.000071603               0.999999999               0.000007732              -0.000081269               0.999999999               0.000011003              -0.000092041               0.999999999               0.000014967              -0.000104314               0.999999999               0.000019719              -0.000117824               0.999999999               0.000025130              -0.000132393               0.999999999               0.000031176              -0.000148159               0.999999999               0.000037794              -0.000165115               0.999999999               0.000044977              -0.000183082               0.999999999               0.000052630              -0.000201893               0.999999999               0.000060546              -0.000221385               0.999999999              -0.000001318              -0.000053079               0.999999999              -0.000003517              -0.000049557               0.999999999              -0.000003441              -0.000050467               0.999999999              -0.000002578              -0.000053866               0.999999999              -0.000000971              -0.000059107               0.999999999               0.000001093              -0.000065990               0.999999999               0.000003545              -0.000074229               0.999999999               0.000006102              -0.000083611               0.999999999               0.000008661              -0.000094002               0.999999999               0.000011654              -0.000105502               0.999999999               0.000015317              -0.000118142               0.999999999               0.000019489              -0.000131804               0.999999999               0.000024097              -0.000146439               0.999999999               0.000029217              -0.000162178               0.999999999               0.000034793              -0.000178928               0.999999999               0.000040841              -0.000196795               0.999999999               0.000047332              -0.000215546               0.999999999              -0.000000996              -0.000057363               0.999999999              -0.000003597              -0.000054272               0.999999999              -0.000003822              -0.000054959               0.999999999              -0.000003157              -0.000057922               0.999999999              -0.000001789              -0.000062761               0.999999999               0.000000023              -0.000069177               0.999999999               0.000002231              -0.000077062               0.999999999               0.000004479              -0.000086153               0.999999999               0.000006639              -0.000096140               0.999999999               0.000008859              -0.000107054               0.999999999               0.000011503              -0.000119009               0.999999999               0.000014540              -0.000131921               0.999999999               0.000017898              -0.000145677               0.999999999               0.000021688              -0.000160288               0.999999999               0.000025875              -0.000175916               0.999999999               0.000030442              -0.000192566               0.999999999               0.000035401              -0.000210148               0.999999999              -0.000000756              -0.000061183               0.999999999              -0.000003480              -0.000058713               0.999999999              -0.000003976              -0.000059322               0.999999999              -0.000003487              -0.000062045               0.999999999              -0.000002348              -0.000066529               0.999999999              -0.000000816              -0.000072543               0.999999999               0.000000983              -0.000080085               0.999999999               0.000002928              -0.000088817               0.999999999               0.000004727              -0.000098466               0.999999999               0.000006435              -0.000108889               0.999999999               0.000008305              -0.000120283               0.999999999               0.000010419              -0.000132562               0.999999999               0.000012775              -0.000145674               0.999999999               0.000015396              -0.000159590               0.999999999               0.000018314              -0.000174318               0.999999999               0.000021432              -0.000189889               0.999999999               0.000024844              -0.000206371               0.999999999              -0.000000545              -0.000064422               0.999999999              -0.000003188              -0.000062737               0.999999999              -0.000003816              -0.000063413               0.999999999              -0.000003450              -0.000066012               0.999999999              -0.000002592              -0.000070262               0.999999999              -0.000001445              -0.000076029               0.999999999               0.000000012              -0.000083172               0.999999999               0.000001597              -0.000091436               0.999999999               0.000003078              -0.000100643               0.999999999               0.000004415              -0.000110780               0.999999999               0.000005697              -0.000121784               0.999999999               0.000007113              -0.000133677               0.999999999               0.000008683              -0.000146404               0.999999999               0.000010365              -0.000159862               0.999999999               0.000012159              -0.000173919               0.999999999               0.000014074              -0.000188649               0.999999999               0.000016124              -0.000204183               0.999999999              -0.000000412              -0.000067068               0.999999999              -0.000002680              -0.000066141               0.999999999              -0.000003271              -0.000066991               0.999999999              -0.000003061              -0.000069565               0.999999999              -0.000002492              -0.000073694               0.999999999              -0.000001612              -0.000079210               0.999999999              -0.000000551              -0.000085968               0.999999999               0.000000586              -0.000093863               0.999999999               0.000001709              -0.000102772               0.999999999               0.000002742              -0.000112669               0.999999999               0.000003647              -0.000123413               0.999999999               0.000004558              -0.000135023               0.999999999               0.000005539              -0.000147433               0.999999999               0.000006510              -0.000160512               0.999999999               0.000007500              -0.000174201               0.999999999               0.000008567              -0.000188505               0.999999999               0.000009543              -0.000203397               0.999999999              -0.000000301              -0.000069010               0.999999999              -0.000001929              -0.000068715               0.999999999              -0.000002405              -0.000069821               0.999999999              -0.000002322              -0.000072411               0.999999999              -0.000001937              -0.000076430               0.999999999              -0.000001343              -0.000081773               0.999999999              -0.000000735              -0.000088301               0.999999999              -0.000000005              -0.000095908               0.999999999               0.000000790              -0.000104615               0.999999999               0.000001519              -0.000114303               0.999999999               0.000002091              -0.000124814               0.999999999               0.000002603              -0.000136176               0.999999999               0.000003160              -0.000148313               0.999999999               0.000003693              -0.000161148               0.999999999               0.000004204              -0.000174632               0.999999999               0.000004726              -0.000188729               0.999999999               0.000005129              -0.000203324               0.999999999              -0.000000158              -0.000070211               0.999999999              -0.000001011              -0.000070339               0.999999999              -0.000001290              -0.000071636               0.999999999              -0.000001239              -0.000074262               0.999999999              -0.000001029              -0.000078242               0.999999999              -0.000000820              -0.000083470               0.999999999              -0.000000488              -0.000089850               0.999999999              -0.000000110              -0.000097317               0.999999999               0.000000276              -0.000105872               0.999999999               0.000000626              -0.000115332               0.999999999               0.000000914              -0.000125661               0.999999999               0.000001166              -0.000136899               0.999999999               0.000001418              -0.000148853               0.999999999               0.000001652              -0.000161510               0.999999999               0.000001878              -0.000174852               0.999999999               0.000002083              -0.000188796               0.999999999               0.000002242              -0.000203238               0.999999999               0.000000000              -0.000070649               0.999999999               0.000000000              -0.000070920               0.999999999              -0.000000000              -0.000072239               0.999999999               0.000000000              -0.000074887               0.999999999              -0.000000000              -0.000078899               0.999999999              -0.000000000              -0.000084043               0.999999999              -0.000000000              -0.000090376               0.999999999              -0.000000000              -0.000097835               0.999999999               0.000000000              -0.000106297               0.999999999              -0.000000000              -0.000115679               0.999999999              -0.000000000              -0.000125971               0.999999999              -0.000000000              -0.000137135               0.999999999               0.000000000              -0.000148994               0.999999999              -0.000000000              -0.000161590               0.999999999               0.000000000              -0.000174881               0.999999999               0.000000000              -0.000188773               0.999999999               0.000000000              -0.000203171               0.999999999              -0.000004615               0.000000000               0.999999999              -0.000001923              -0.000000000               0.999999999              -0.000000666               0.000000000               0.999999999              -0.000000032               0.000000000               0.999999999               0.000000219              -0.000000000               0.999999999               0.000000291               0.000000000               0.999999999               0.000000281               0.000000000               0.999999999               0.000000238              -0.000000000               0.999999999               0.000000141               0.000000000               0.999999999              -0.000000027              -0.000000000               0.999999999              -0.000000092              -0.000000000               0.999999999               0.000000057               0.000000000               0.999999999               0.000000433               0.000000000               0.999999999               0.000001153               0.000000000               0.999999999               0.000002314               0.000000000               0.999999999               0.000003944              -0.000000000               0.999999999               0.000006122              -0.000000000               0.999999999              -0.000004569               0.000006740               0.999999999              -0.000001912               0.000006186               0.999999999              -0.000000692               0.000006201               0.999999999              -0.000000126               0.000006490               0.999999999               0.000000153               0.000006890               0.999999999               0.000000258               0.000007448               0.999999999               0.000000281               0.000008108               0.999999999               0.000000324               0.000008790               0.999999999               0.000000392               0.000009392               0.999999999               0.000000437               0.000009966               0.999999999               0.000000539               0.000010800               0.999999999               0.000000875               0.000011796               0.999999999               0.000001526               0.000012995               0.999999999               0.000002529               0.000014459               0.999999999               0.000003970               0.000016151               0.999999999               0.000005871               0.000018097               0.999999999               0.000008246               0.000020328               0.999999999              -0.000004347               0.000013368               0.999999999              -0.000001931               0.000012327               0.999999999              -0.000000840               0.000012304               0.999999999              -0.000000313               0.000012914               0.999999999              -0.000000043               0.000013783               0.999999999               0.000000119               0.000014963               0.999999999               0.000000342               0.000016317               0.999999999               0.000000636               0.000017783               0.999999999               0.000000981               0.000019067               0.999999999               0.000001452               0.000020364               0.999999999               0.000002148               0.000022073               0.999999999               0.000003117               0.000024073               0.999999999               0.000004372               0.000026479               0.999999999               0.000005979               0.000029334               0.999999999               0.000007998               0.000032595               0.999999999               0.000010424               0.000036275               0.999999999               0.000013278               0.000040348               0.999999999              -0.000004021               0.000019853               0.999999999              -0.000002012               0.000018303               0.999999999              -0.000001074               0.000018335               0.999999999              -0.000000563               0.000019261               0.999999999              -0.000000276               0.000020644               0.999999999               0.000000053               0.000022534               0.999999999               0.000000521               0.000024739               0.999999999               0.000001162               0.000027070               0.999999999               0.000001967               0.000029153               0.999999999               0.000003021               0.000031389               0.999999999               0.000004353               0.000034186               0.999999999               0.000005982               0.000037343               0.999999999               0.000008022               0.000041018               0.999999999               0.000010483               0.000045247               0.999999999               0.000013353               0.000050021               0.999999999               0.000016635               0.000055368               0.999999999               0.000020326               0.000061288               0.999999999              -0.000003669               0.000026199               0.999999999              -0.000002095               0.000024041               0.999999999              -0.000001353               0.000024196               0.999999999              -0.000000902               0.000025522               0.999999999              -0.000000450               0.000027496               0.999999999               0.000000120               0.000030204               0.999999999               0.000000942               0.000033334               0.999999999               0.000002030               0.000036601               0.999999999               0.000003285               0.000039767               0.999999999               0.000004883               0.000043257               0.999999999               0.000006881               0.000047364               0.999999999               0.000009378               0.000051981               0.999999999               0.000012371               0.000057192               0.999999999               0.000015815               0.000063074               0.999999999               0.000019752               0.000069611               0.999999999               0.000024086               0.000076860               0.999999999               0.000028804               0.000084831               0.999999999              -0.000003210               0.000032294               0.999999999              -0.000002275               0.000029563               0.999999999              -0.000001717               0.000029885               0.999999999              -0.000001204               0.000031686               0.999999999              -0.000000568               0.000034410               0.999999999               0.000000409               0.000037985               0.999999999               0.000001726               0.000042095               0.999999999               0.000003255               0.000046500               0.999999999               0.000005095               0.000050900               0.999999999               0.000007349               0.000055999               0.999999999               0.000010054               0.000061868               0.999999999               0.000013295               0.000068431               0.999999999               0.000017097               0.000075705               0.999999999               0.000021487               0.000083773               0.999999999               0.000026390               0.000092600               0.999999999               0.000031703               0.000102190               0.999999999               0.000037455               0.000112583               0.999999999              -0.000002705               0.000038059               0.999999999              -0.000002554               0.000034848               0.999999999              -0.000002118               0.000035449               0.999999999              -0.000001512               0.000037797               0.999999999              -0.000000544               0.000041371               0.999999999               0.000000912               0.000045976               0.999999999               0.000002726               0.000051257               0.999999999               0.000004857               0.000056918               0.999999999               0.000007199               0.000063072               0.999999999               0.000009969               0.000070157               0.999999999               0.000013319               0.000078296               0.999999999               0.000017323               0.000087220               0.999999999               0.000021941               0.000097078               0.999999999               0.000027159               0.000107779               0.999999999               0.000032911               0.000119335               0.999999999               0.000039144               0.000131744               0.999999999               0.000045862               0.000144900               0.999999999              -0.000002264               0.000043499               0.999999999              -0.000002862               0.000039861               0.999999999              -0.000002553               0.000040848               0.999999999              -0.000001776               0.000043883               0.999999999              -0.000000367               0.000048455               0.999999999               0.000001582               0.000054240               0.999999999               0.000003868               0.000060963               0.999999999               0.000006313               0.000068521               0.999999999               0.000009077               0.000076784               0.999999999               0.000012458               0.000086299               0.999999999               0.000016537               0.000097015               0.999999999               0.000021318               0.000108632               0.999999999               0.000026740               0.000121284               0.999999999               0.000032709               0.000134980               0.999999999               0.000039240               0.000149577               0.999999999               0.000046295               0.000165019               0.999999999               0.000053828               0.000181128               0.999999999              -0.000001816               0.000048457               0.999999999              -0.000003258               0.000044672               0.999999999              -0.000002943               0.000046067               0.999999999              -0.000001873               0.000049931               0.999999999              -0.000000041               0.000055672               0.999999999               0.000002303               0.000062991               0.999999999               0.000004915               0.000071603               0.999999999               0.000007732               0.000081269               0.999999999               0.000011003               0.000092041               0.999999999               0.000014967               0.000104314               0.999999999               0.000019719               0.000117824               0.999999999               0.000025130               0.000132393               0.999999999               0.000031176               0.000148159               0.999999999               0.000037794               0.000165115               0.999999999               0.000044977               0.000183082               0.999999999               0.000052630               0.000201893               0.999999999               0.000060546               0.000221385               0.999999999              -0.000001318               0.000053079               0.999999999              -0.000003517               0.000049557               0.999999999              -0.000003441               0.000050467               0.999999999              -0.000002578               0.000053866               0.999999999              -0.000000971               0.000059107               0.999999999               0.000001093               0.000065990               0.999999999               0.000003545               0.000074229               0.999999999               0.000006102               0.000083611               0.999999999               0.000008661               0.000094002               0.999999999               0.000011654               0.000105502               0.999999999               0.000015317               0.000118142               0.999999999               0.000019489               0.000131804               0.999999999               0.000024097               0.000146439               0.999999999               0.000029217               0.000162178               0.999999999               0.000034793               0.000178928               0.999999999               0.000040841               0.000196795               0.999999999               0.000047332               0.000215546               0.999999999              -0.000000996               0.000057363               0.999999999              -0.000003597               0.000054272               0.999999999              -0.000003822               0.000054959               0.999999999              -0.000003157               0.000057922               0.999999999              -0.000001789               0.000062761               0.999999999               0.000000023               0.000069177               0.999999999               0.000002231               0.000077062               0.999999999               0.000004479               0.000086153               0.999999999               0.000006639               0.000096140               0.999999999               0.000008859               0.000107054               0.999999999               0.000011503               0.000119009               0.999999999               0.000014540               0.000131921               0.999999999               0.000017898               0.000145677               0.999999999               0.000021688               0.000160288               0.999999999               0.000025875               0.000175916               0.999999999               0.000030442               0.000192566               0.999999999               0.000035401               0.000210148               0.999999999              -0.000000756               0.000061183               0.999999999              -0.000003480               0.000058713               0.999999999              -0.000003976               0.000059322               0.999999999              -0.000003487               0.000062045               0.999999999              -0.000002348               0.000066529               0.999999999              -0.000000816               0.000072543               0.999999999               0.000000983               0.000080085               0.999999999               0.000002928               0.000088817               0.999999999               0.000004727               0.000098466               0.999999999               0.000006435               0.000108889               0.999999999               0.000008305               0.000120283               0.999999999               0.000010419               0.000132562               0.999999999               0.000012775               0.000145674               0.999999999               0.000015396               0.000159590               0.999999999               0.000018314               0.000174318               0.999999999               0.000021432               0.000189889               0.999999999               0.000024844               0.000206371               0.999999999              -0.000000545               0.000064422               0.999999999              -0.000003188               0.000062737               0.999999999              -0.000003816               0.000063413               0.999999999              -0.000003450               0.000066012               0.999999999              -0.000002592               0.000070262               0.999999999              -0.000001445               0.000076029               0.999999999               0.000000012               0.000083172               0.999999999               0.000001597               0.000091436               0.999999999               0.000003078               0.000100643               0.999999999               0.000004415               0.000110780               0.999999999               0.000005697               0.000121784               0.999999999               0.000007113               0.000133677               0.999999999               0.000008683               0.000146404               0.999999999               0.000010365               0.000159862               0.999999999               0.000012159               0.000173919               0.999999999               0.000014074               0.000188649               0.999999999               0.000016124               0.000204183               0.999999999              -0.000000412               0.000067068               0.999999999              -0.000002680               0.000066141               0.999999999              -0.000003271               0.000066991               0.999999999              -0.000003061               0.000069565               0.999999999              -0.000002492               0.000073694               0.999999999              -0.000001612               0.000079210               0.999999999              -0.000000551               0.000085968               0.999999999               0.000000586               0.000093863               0.999999999               0.000001709               0.000102772               0.999999999               0.000002742               0.000112669               0.999999999               0.000003647               0.000123413               0.999999999               0.000004558               0.000135023               0.999999999               0.000005539               0.000147433               0.999999999               0.000006510               0.000160512               0.999999999               0.000007500               0.000174201               0.999999999               0.000008567               0.000188505               0.999999999               0.000009543               0.000203397               0.999999999              -0.000000301               0.000069010               0.999999999              -0.000001929               0.000068715               0.999999999              -0.000002405               0.000069821               0.999999999              -0.000002322               0.000072411               0.999999999              -0.000001937               0.000076430               0.999999999              -0.000001343               0.000081773               0.999999999              -0.000000735               0.000088301               0.999999999              -0.000000005               0.000095908               0.999999999               0.000000790               0.000104615               0.999999999               0.000001519               0.000114303               0.999999999               0.000002091               0.000124814               0.999999999               0.000002603               0.000136176               0.999999999               0.000003160               0.000148313               0.999999999               0.000003693               0.000161148               0.999999999               0.000004204               0.000174632               0.999999999               0.000004726               0.000188729               0.999999999               0.000005129               0.000203324               0.999999999              -0.000000158               0.000070211               0.999999999              -0.000001011               0.000070339               0.999999999              -0.000001290               0.000071636               0.999999999              -0.000001239               0.000074262               0.999999999              -0.000001029               0.000078242               0.999999999              -0.000000820               0.000083470               0.999999999              -0.000000488               0.000089850               0.999999999              -0.000000110               0.000097317               0.999999999               0.000000276               0.000105872               0.999999999               0.000000626               0.000115332               0.999999999               0.000000914               0.000125661               0.999999999               0.000001166               0.000136899               0.999999999               0.000001418               0.000148853               0.999999999               0.000001652               0.000161510               0.999999999               0.000001878               0.000174852               0.999999999               0.000002083               0.000188796               0.999999999               0.000002242               0.000203238               0.999999999               0.000000000               0.000070649               0.999999999               0.000000000               0.000070920               0.999999999               0.000000000               0.000072239               0.999999999              -0.000000000               0.000074887               0.999999999              -0.000000000               0.000078899               0.999999999               0.000000000               0.000084043               0.999999999              -0.000000000               0.000090376               0.999999999              -0.000000000               0.000097835               0.999999999              -0.000000000               0.000106297               0.999999999              -0.000000000               0.000115679               0.999999999              -0.000000000               0.000125971               0.999999999              -0.000000000               0.000137135               0.999999999               0.000000000               0.000148994               0.999999999               0.000000000               0.000161590               0.999999999              -0.000000000               0.000174881               0.999999999               0.000000000               0.000188773               0.999999999               0.000000000               0.000203171               0.999999999 </DataArray>
<DataArray type="Float64"                                    Name="stress"                                                      NumberOfComponents="10" format="ascii">
              0.000115334               0.001277694              -0.000000000              -0.000116461               0.000464714               0.000348253               0.000000000               0.000000000               0.000000000               0.000000000               0.000138645               0.001082640              -0.000000000              -0.000083338               0.000388656               0.000305318               0.000000000               0.000000000               0.000000000               0.000000000               0.000205525               0.000934317              -0.000000000              -0.000039718               0.000324675               0.000284957               0.000000000               0.000000000               0.000000000               0.000000000               0.000235184               0.000855803               0.000000000              -0.000018781               0.000291525               0.000272744               0.000000000               0.000000000               0.000000000               0.000000000               0.000249921               0.000809123               0.000000000              -0.000007420               0.000272178               0.000264758               0.000000000               0.000000000               0.000000000               0.000000000               0.000256516               0.000784035               0.000000000              -0.000001811               0.000261946               0.000260135               0.000000000               0.000000000               0.000000000               0.000000000               0.000257716               0.000770686               0.000000000               0.000000308               0.000256790               0.000257098               0.000000000               0.000000000               0.000000000               0.000000000               0.000257197               0.000760616               0.000000000               0.000001372               0.000253079               0.000254451               0.000000000               0.000000000               0.000000000               0.000000000               0.000258667               0.000748971               0.000000000               0.000003379               0.000248528               0.000251907               0.000000000               0.000000000               0.000000000               0.000000000               0.000253290               0.000737660               0.000000000               0.000002776               0.000244959               0.000247735               0.000000000               0.000000000               0.000000000               0.000000000               0.000234738               0.000735174               0.000000000              -0.000003870               0.000246345               0.000242476               0.000000000               0.000000000               0.000000000               0.000000000               0.000209140               0.000740344               0.000000000              -0.000014116               0.000251484               0.000237369               0.000000000               0.000000000               0.000000000               0.000000000               0.000178801               0.000753239               0.000000000              -0.000027104               0.000260112               0.000233008               0.000000000               0.000000000               0.000000000               0.000000000               0.000140110               0.000773093              -0.000000000              -0.000044095               0.000272394               0.000228298               0.000000000               0.000000000               0.000000000               0.000000000               0.000096547               0.000799002              -0.000000000              -0.000063670               0.000287555               0.000223885               0.000000000               0.000000000               0.000000000               0.000000000               0.000050106               0.000831192              -0.000000000              -0.000085109               0.000305431               0.000220322               0.000000000               0.000000000               0.000000000               0.000000000               0.000029857               0.000859589               0.000000000              -0.000096252               0.000318611               0.000222359               0.000000000               0.000000000               0.000000000               0.000000000               0.000121486               0.001256575              -0.000100925              -0.000111514               0.000456026               0.000344511               0.000000000               0.000000000               0.000000000               0.000000000               0.000142444               0.001069683              -0.000068794              -0.000080293               0.000383322               0.000303028               0.000000000               0.000000000               0.000000000               0.000000000               0.000206581               0.000925548              -0.000034237              -0.000038225               0.000321255               0.000283029               0.000000000               0.000000000               0.000000000               0.000000000               0.000233346               0.000850484              -0.000018510              -0.000018806               0.000289760               0.000270955               0.000000000               0.000000000               0.000000000               0.000000000               0.000245544               0.000807592              -0.000010572              -0.000008870               0.000272151               0.000263281               0.000000000               0.000000000               0.000000000               0.000000000               0.000251706               0.000785681              -0.000006085              -0.000003820               0.000263165               0.000259344               0.000000000               0.000000000               0.000000000               0.000000000               0.000251466               0.000773878              -0.000006527              -0.000002435               0.000258768               0.000256333               0.000000000               0.000000000               0.000000000               0.000000000               0.000248679               0.000765838              -0.000012132              -0.000002475               0.000256102               0.000253627               0.000000000               0.000000000               0.000000000               0.000000000               0.000246977               0.000755722              -0.000019393              -0.000001849               0.000252521               0.000250672               0.000000000               0.000000000               0.000000000               0.000000000               0.000241891               0.000747765              -0.000020895              -0.000002761               0.000250173               0.000247412               0.000000000               0.000000000               0.000000000               0.000000000               0.000225325               0.000746790              -0.000019829              -0.000008852               0.000251878               0.000243026               0.000000000               0.000000000               0.000000000               0.000000000               0.000198851               0.000751150              -0.000019733              -0.000019325               0.000256822               0.000237498               0.000000000               0.000000000               0.000000000               0.000000000               0.000167965               0.000762873              -0.000017634              -0.000032372               0.000265079               0.000232707               0.000000000               0.000000000               0.000000000               0.000000000               0.000130675               0.000780693              -0.000014902              -0.000048583               0.000276423               0.000227840               0.000000000               0.000000000               0.000000000               0.000000000               0.000088835               0.000803417              -0.000011749              -0.000067114               0.000290174               0.000223061               0.000000000               0.000000000               0.000000000               0.000000000               0.000045574               0.000831041              -0.000006920              -0.000086790               0.000305941               0.000219151               0.000000000               0.000000000               0.000000000               0.000000000               0.000026981               0.000854814              -0.000004817              -0.000096734               0.000317180               0.000220446               0.000000000               0.000000000               0.000000000               0.000000000               0.000146301               0.001201204              -0.000189721              -0.000095288               0.000432160               0.000336872               0.000000000               0.000000000               0.000000000               0.000000000               0.000155124               0.001031706              -0.000129267              -0.000070792               0.000367496               0.000296704               0.000000000               0.000000000               0.000000000               0.000000000               0.000206201               0.000904306              -0.000065367              -0.000035713               0.000313337               0.000277624               0.000000000               0.000000000               0.000000000               0.000000000               0.000227901               0.000838166              -0.000036333              -0.000019308               0.000285822               0.000266514               0.000000000               0.000000000               0.000000000               0.000000000               0.000236875               0.000803478              -0.000020848              -0.000011606               0.000271692               0.000260086               0.000000000               0.000000000               0.000000000               0.000000000               0.000237467               0.000788436              -0.000013176              -0.000009504               0.000265978               0.000256473               0.000000000               0.000000000               0.000000000               0.000000000               0.000233298               0.000782873              -0.000013879              -0.000010372               0.000264413               0.000254040               0.000000000               0.000000000               0.000000000               0.000000000               0.000230082               0.000780232              -0.000023789              -0.000011248               0.000263824               0.000252576               0.000000000               0.000000000               0.000000000               0.000000000               0.000223957               0.000774503              -0.000035544              -0.000012829               0.000262441               0.000249613               0.000000000               0.000000000               0.000000000               0.000000000               0.000212304               0.000773131              -0.000036814              -0.000017027               0.000263384               0.000246356               0.000000000               0.000000000               0.000000000               0.000000000               0.000194451               0.000777475              -0.000034536              -0.000024265               0.000267244               0.000242979               0.000000000               0.000000000               0.000000000               0.000000000               0.000171208               0.000784996              -0.000032489              -0.000033922               0.000272970               0.000239048               0.000000000               0.000000000               0.000000000               0.000000000               0.000143802               0.000796844              -0.000027145              -0.000045680               0.000280838               0.000235159               0.000000000               0.000000000               0.000000000               0.000000000               0.000110852               0.000811599              -0.000021385              -0.000059880               0.000290490               0.000230610               0.000000000               0.000000000               0.000000000               0.000000000               0.000075146               0.000829760              -0.000015109              -0.000075540               0.000301764               0.000226224               0.000000000               0.000000000               0.000000000               0.000000000               0.000038648               0.000851323              -0.000007741              -0.000091922               0.000314412               0.000222490               0.000000000               0.000000000               0.000000000               0.000000000               0.000023331               0.000869900              -0.000005515              -0.000099988               0.000323293               0.000223305               0.000000000               0.000000000               0.000000000               0.000000000               0.000181327               0.001121042              -0.000259921              -0.000072133               0.000397721               0.000325588               0.000000000               0.000000000               0.000000000               0.000000000               0.000171206               0.000971446              -0.000177952              -0.000057228               0.000342888               0.000285660               0.000000000               0.000000000               0.000000000               0.000000000               0.000203096               0.000872800              -0.000091791              -0.000032939               0.000301910               0.000268971               0.000000000               0.000000000               0.000000000               0.000000000               0.000217639               0.000821949              -0.000052189              -0.000021129               0.000281023               0.000259894               0.000000000               0.000000000               0.000000000               0.000000000               0.000222972               0.000798410              -0.000031685              -0.000016187               0.000271530               0.000255343               0.000000000               0.000000000               0.000000000               0.000000000               0.000219461               0.000793304              -0.000021449              -0.000016865               0.000270054               0.000253189               0.000000000               0.000000000               0.000000000               0.000000000               0.000212252               0.000795255              -0.000022454              -0.000019812               0.000271686               0.000251874               0.000000000               0.000000000               0.000000000               0.000000000               0.000205964               0.000797321              -0.000035546              -0.000022429               0.000273247               0.000250819               0.000000000               0.000000000               0.000000000               0.000000000               0.000196160               0.000801491              -0.000048301              -0.000026626               0.000276037               0.000249410               0.000000000               0.000000000               0.000000000               0.000000000               0.000181496               0.000812983              -0.000046992              -0.000033562               0.000282179               0.000248617               0.000000000               0.000000000               0.000000000               0.000000000               0.000164014               0.000828061              -0.000042537              -0.000042002               0.000290018               0.000248016               0.000000000               0.000000000               0.000000000               0.000000000               0.000141045               0.000843996              -0.000039711              -0.000052608               0.000298865               0.000246258               0.000000000               0.000000000               0.000000000               0.000000000               0.000113611               0.000860561              -0.000033636              -0.000064966               0.000308506               0.000243540               0.000000000               0.000000000               0.000000000               0.000000000               0.000085082               0.000878866              -0.000026730              -0.000077952               0.000318936               0.000240984               0.000000000               0.000000000               0.000000000               0.000000000               0.000056853               0.000899705              -0.000018962              -0.000091143               0.000330280               0.000239137               0.000000000               0.000000000               0.000000000               0.000000000               0.000029066               0.000923626              -0.000009740              -0.000104553               0.000342723               0.000238170               0.000000000               0.000000000               0.000000000               0.000000000               0.000019355               0.000943923              -0.000007318              -0.000110732               0.000351548               0.000240816               0.000000000               0.000000000               0.000000000               0.000000000               0.000214235               0.001018077              -0.000312674              -0.000046922               0.000354996               0.000308074               0.000000000               0.000000000               0.000000000               0.000000000               0.000184787               0.000897942              -0.000213250              -0.000042948               0.000313627               0.000270679               0.000000000               0.000000000               0.000000000               0.000000000               0.000198152               0.000834922              -0.000110456              -0.000030058               0.000288324               0.000258266               0.000000000               0.000000000               0.000000000               0.000000000               0.000203471               0.000804821              -0.000065548              -0.000024301               0.000276371               0.000252070               0.000000000               0.000000000               0.000000000               0.000000000               0.000204253               0.000797375              -0.000042529              -0.000023077               0.000273481               0.000250404               0.000000000               0.000000000               0.000000000               0.000000000               0.000200095               0.000802113              -0.000031448              -0.000025228               0.000275778               0.000250549               0.000000000               0.000000000               0.000000000               0.000000000               0.000192650               0.000809860              -0.000033694              -0.000028988               0.000279613               0.000250625               0.000000000               0.000000000               0.000000000               0.000000000               0.000187790               0.000820930              -0.000046566              -0.000032195               0.000284372               0.000252177               0.000000000               0.000000000               0.000000000               0.000000000               0.000179598               0.000839205              -0.000056414              -0.000037551               0.000292249               0.000254698               0.000000000               0.000000000               0.000000000               0.000000000               0.000164500               0.000868279              -0.000053738              -0.000046847               0.000305039               0.000258192               0.000000000               0.000000000               0.000000000               0.000000000               0.000142795               0.000898764              -0.000049071              -0.000058797               0.000319184               0.000260387               0.000000000               0.000000000               0.000000000               0.000000000               0.000116207               0.000930053              -0.000046030              -0.000072679               0.000334241               0.000261562               0.000000000               0.000000000               0.000000000               0.000000000               0.000089906               0.000962054              -0.000039721              -0.000086542               0.000349529               0.000262987               0.000000000               0.000000000               0.000000000               0.000000000               0.000064132               0.000994581              -0.000032158              -0.000100273               0.000364948               0.000264675               0.000000000               0.000000000               0.000000000               0.000000000               0.000041619               0.001028066              -0.000023339              -0.000112901               0.000380319               0.000267418               0.000000000               0.000000000               0.000000000               0.000000000               0.000022416               0.001062254              -0.000012006              -0.000124375               0.000395539               0.000271164               0.000000000               0.000000000               0.000000000               0.000000000               0.000017723               0.001087548              -0.000008908              -0.000129297               0.000405612               0.000276314               0.000000000               0.000000000               0.000000000               0.000000000               0.000248544               0.000901277              -0.000341660              -0.000019456               0.000306908               0.000287452               0.000000000               0.000000000               0.000000000               0.000000000               0.000195868               0.000820863              -0.000232980              -0.000029158               0.000283337               0.000254180               0.000000000               0.000000000               0.000000000               0.000000000               0.000187999               0.000799614              -0.000123487              -0.000029452               0.000276353               0.000246901               0.000000000               0.000000000               0.000000000               0.000000000               0.000187404               0.000792439              -0.000076541              -0.000028778               0.000273737               0.000244958               0.000000000               0.000000000               0.000000000               0.000000000               0.000184313               0.000802176              -0.000053516              -0.000031154               0.000277774               0.000246620               0.000000000               0.000000000               0.000000000               0.000000000               0.000179350               0.000818525              -0.000043955              -0.000035059               0.000284525               0.000249466               0.000000000               0.000000000               0.000000000               0.000000000               0.000178584               0.000837945              -0.000045737              -0.000037774               0.000291904               0.000254130               0.000000000               0.000000000               0.000000000               0.000000000               0.000179420               0.000862377              -0.000056716              -0.000040515               0.000300961               0.000260447               0.000000000               0.000000000               0.000000000               0.000000000               0.000173356               0.000900521              -0.000061949              -0.000047557               0.000316023               0.000268466               0.000000000               0.000000000               0.000000000               0.000000000               0.000159845               0.000950781              -0.000055372              -0.000058905               0.000336559               0.000277654               0.000000000               0.000000000               0.000000000               0.000000000               0.000139496               0.001003246              -0.000050197              -0.000073094               0.000358777               0.000285682               0.000000000               0.000000000               0.000000000               0.000000000               0.000113375               0.001053740              -0.000046227              -0.000089202               0.000380977               0.000291775               0.000000000               0.000000000               0.000000000               0.000000000               0.000085568               0.001103713              -0.000039789              -0.000105876               0.000403192               0.000297317               0.000000000               0.000000000               0.000000000               0.000000000               0.000058972               0.001151519              -0.000031783              -0.000121825               0.000424444               0.000302619               0.000000000               0.000000000               0.000000000               0.000000000               0.000039005               0.001198846              -0.000022523              -0.000135229               0.000444688               0.000309459               0.000000000               0.000000000               0.000000000               0.000000000               0.000021408               0.001243504              -0.000011423              -0.000147410               0.000463634               0.000316224               0.000000000               0.000000000               0.000000000               0.000000000               0.000017169               0.001273095              -0.000008723              -0.000152698               0.000475260               0.000322562               0.000000000               0.000000000               0.000000000               0.000000000               0.000274071               0.000782376              -0.000346192               0.000004979               0.000259129               0.000264108               0.000000000               0.000000000               0.000000000               0.000000000               0.000203414               0.000744386              -0.000239425              -0.000016768               0.000253715               0.000236947               0.000000000               0.000000000               0.000000000               0.000000000               0.000175889               0.000768668              -0.000132058              -0.000030125               0.000266262               0.000236137               0.000000000               0.000000000               0.000000000               0.000000000               0.000169755               0.000786868              -0.000086276              -0.000034700               0.000273854               0.000239153               0.000000000               0.000000000               0.000000000               0.000000000               0.000166263               0.000815607              -0.000064857              -0.000039602               0.000285067               0.000245465               0.000000000               0.000000000               0.000000000               0.000000000               0.000165423               0.000849051              -0.000055448              -0.000044098               0.000297713               0.000253616               0.000000000               0.000000000               0.000000000               0.000000000               0.000170135               0.000888310              -0.000055878              -0.000047238               0.000311846               0.000264608               0.000000000               0.000000000               0.000000000               0.000000000               0.000178136               0.000939553              -0.000061512              -0.000050643               0.000330062               0.000279419               0.000000000               0.000000000               0.000000000               0.000000000               0.000178748               0.001004674              -0.000060267              -0.000058554               0.000354406               0.000295852               0.000000000               0.000000000               0.000000000               0.000000000               0.000165469               0.001074722              -0.000051145              -0.000072289               0.000382333               0.000310044               0.000000000               0.000000000               0.000000000               0.000000000               0.000143407               0.001141930              -0.000046412              -0.000088963               0.000410294               0.000321331               0.000000000               0.000000000               0.000000000               0.000000000               0.000117942               0.001204137              -0.000042776              -0.000106289               0.000436804               0.000330516               0.000000000               0.000000000               0.000000000               0.000000000               0.000092686               0.001264573              -0.000036021              -0.000123314               0.000462625               0.000339311               0.000000000               0.000000000               0.000000000               0.000000000               0.000067268               0.001321935              -0.000028212              -0.000140016               0.000487313               0.000347297               0.000000000               0.000000000               0.000000000               0.000000000               0.000045043               0.001375666              -0.000018836              -0.000155067               0.000510240               0.000355173               0.000000000               0.000000000               0.000000000               0.000000000               0.000023406               0.001423470              -0.000009514              -0.000169156               0.000530870               0.000361714               0.000000000               0.000000000               0.000000000               0.000000000               0.000016831               0.001453506              -0.000008294              -0.000175376               0.000542956               0.000367580               0.000000000               0.000000000               0.000000000               0.000000000               0.000283908               0.000664458              -0.000332592               0.000023408               0.000213681               0.000237089               0.000000000               0.000000000               0.000000000               0.000000000               0.000204695               0.000674083              -0.000235981              -0.000007500               0.000227192               0.000219692               0.000000000               0.000000000               0.000000000               0.000000000               0.000165683               0.000743260              -0.000137394              -0.000030776               0.000258010               0.000227233               0.000000000               0.000000000               0.000000000               0.000000000               0.000157896               0.000789629              -0.000096256              -0.000039493               0.000276371               0.000236878               0.000000000               0.000000000               0.000000000               0.000000000               0.000156170               0.000841772              -0.000075752              -0.000046658               0.000296141               0.000249483               0.000000000               0.000000000               0.000000000               0.000000000               0.000162686               0.000901027              -0.000064699              -0.000051621               0.000317546               0.000265925               0.000000000               0.000000000               0.000000000               0.000000000               0.000178900               0.000970808              -0.000060089              -0.000054263               0.000341687               0.000287424               0.000000000               0.000000000               0.000000000               0.000000000               0.000192727               0.001049405              -0.000060581              -0.000058903               0.000369432               0.000310529               0.000000000               0.000000000               0.000000000               0.000000000               0.000191139               0.001133171              -0.000057321              -0.000069969               0.000401043               0.000331074               0.000000000               0.000000000               0.000000000               0.000000000               0.000174379               0.001216303              -0.000048804              -0.000086645               0.000434312               0.000347667               0.000000000               0.000000000               0.000000000               0.000000000               0.000150220               0.001289547              -0.000044772              -0.000104861               0.000464798               0.000359938               0.000000000               0.000000000               0.000000000               0.000000000               0.000123542               0.001356679              -0.000040115              -0.000123256               0.000493307               0.000370051               0.000000000               0.000000000               0.000000000               0.000000000               0.000099297               0.001421732              -0.000030414              -0.000140480               0.000520732               0.000380253               0.000000000               0.000000000               0.000000000               0.000000000               0.000075093               0.001484273              -0.000021173              -0.000157374               0.000547211               0.000389837               0.000000000               0.000000000               0.000000000               0.000000000               0.000049532               0.001541029              -0.000013033              -0.000174054               0.000571689               0.000397635               0.000000000               0.000000000               0.000000000               0.000000000               0.000024585               0.001590313              -0.000005718              -0.000189569               0.000593289               0.000403720               0.000000000               0.000000000               0.000000000               0.000000000               0.000015279               0.001621388              -0.000005276              -0.000196943               0.000606105               0.000409162               0.000000000               0.000000000               0.000000000               0.000000000               0.000289686               0.000558310              -0.000304083               0.000038843               0.000173154               0.000211996               0.000000000               0.000000000               0.000000000               0.000000000               0.000205377               0.000613648              -0.000228230               0.000000310               0.000204444               0.000204754               0.000000000               0.000000000               0.000000000               0.000000000               0.000160552               0.000724674              -0.000146472              -0.000030377               0.000251681               0.000221304               0.000000000               0.000000000               0.000000000               0.000000000               0.000153960               0.000797491              -0.000107764              -0.000041951               0.000279812               0.000237860               0.000000000               0.000000000               0.000000000               0.000000000               0.000157484               0.000874213              -0.000085604              -0.000050220               0.000308141               0.000257921               0.000000000               0.000000000               0.000000000               0.000000000               0.000172439               0.000959639              -0.000071139              -0.000055290               0.000338307               0.000283016               0.000000000               0.000000000               0.000000000               0.000000000               0.000196805               0.001049568              -0.000063482              -0.000057394               0.000368984               0.000311590               0.000000000               0.000000000               0.000000000               0.000000000               0.000214507               0.001140090              -0.000059959              -0.000062071               0.000400717               0.000338646               0.000000000               0.000000000               0.000000000               0.000000000               0.000212588               0.001236336              -0.000054817              -0.000074821               0.000437048               0.000362227               0.000000000               0.000000000               0.000000000               0.000000000               0.000193649               0.001324903              -0.000047787              -0.000092994               0.000472628               0.000379634               0.000000000               0.000000000               0.000000000               0.000000000               0.000168405               0.001398099              -0.000042692              -0.000111610               0.000503232               0.000391621               0.000000000               0.000000000               0.000000000               0.000000000               0.000142087               0.001468062              -0.000035101              -0.000130225               0.000532757               0.000402533               0.000000000               0.000000000               0.000000000               0.000000000               0.000115889               0.001538684              -0.000023570              -0.000148877               0.000562515               0.000413638               0.000000000               0.000000000               0.000000000               0.000000000               0.000090352               0.001605697              -0.000013022              -0.000166830               0.000590837               0.000424007               0.000000000               0.000000000               0.000000000               0.000000000               0.000065056               0.001667997              -0.000005033              -0.000184103               0.000617361               0.000433258               0.000000000               0.000000000               0.000000000               0.000000000               0.000045713               0.001728661               0.000000584              -0.000198940               0.000642528               0.000443588               0.000000000               0.000000000               0.000000000               0.000000000               0.000036586               0.001761511               0.000002305              -0.000206468               0.000655987               0.000449519               0.000000000               0.000000000               0.000000000               0.000000000               0.000284496               0.000457153              -0.000268663               0.000049541               0.000135869               0.000185410               0.000000000               0.000000000               0.000000000               0.000000000               0.000207903               0.000540595              -0.000220930               0.000010389               0.000176734               0.000187123               0.000000000               0.000000000               0.000000000               0.000000000               0.000162872               0.000683745              -0.000162270              -0.000024391               0.000236043               0.000211652               0.000000000               0.000000000               0.000000000               0.000000000               0.000159056               0.000779961              -0.000125684              -0.000037849               0.000272601               0.000234752               0.000000000               0.000000000               0.000000000               0.000000000               0.000168217               0.000877574              -0.000103468              -0.000046615               0.000308060               0.000261445               0.000000000               0.000000000               0.000000000               0.000000000               0.000187326               0.000979466              -0.000088192              -0.000052186               0.000343881               0.000291695               0.000000000               0.000000000               0.000000000               0.000000000               0.000214947               0.001081691              -0.000078361              -0.000054606               0.000378762               0.000324156               0.000000000               0.000000000               0.000000000               0.000000000               0.000237935               0.001178120              -0.000067718              -0.000058039               0.000412049               0.000354010               0.000000000               0.000000000               0.000000000               0.000000000               0.000242508               0.001269108              -0.000057797              -0.000067698               0.000445598               0.000377900               0.000000000               0.000000000               0.000000000               0.000000000               0.000228391               0.001353509              -0.000051129              -0.000083542               0.000479012               0.000395471               0.000000000               0.000000000               0.000000000               0.000000000               0.000205912               0.001428888              -0.000044837              -0.000101394               0.000510089               0.000408695               0.000000000               0.000000000               0.000000000               0.000000000               0.000180793               0.001497950              -0.000035457              -0.000119446               0.000539127               0.000419681               0.000000000               0.000000000               0.000000000               0.000000000               0.000155195               0.001568154              -0.000024857              -0.000137821               0.000568653               0.000430832               0.000000000               0.000000000               0.000000000               0.000000000               0.000131673               0.001639252              -0.000014697              -0.000155529               0.000598255               0.000442726               0.000000000               0.000000000               0.000000000               0.000000000               0.000111992               0.001715376              -0.000006204              -0.000172425               0.000629261               0.000456837               0.000000000               0.000000000               0.000000000               0.000000000               0.000096227               0.001792272              -0.000000960              -0.000187949               0.000660068               0.000472119               0.000000000               0.000000000               0.000000000               0.000000000               0.000082469               0.001823625               0.000003162              -0.000197027               0.000673545               0.000476518               0.000000000               0.000000000               0.000000000               0.000000000               0.000263467               0.000360719              -0.000230878               0.000053709               0.000102335               0.000156045               0.000000000               0.000000000               0.000000000               0.000000000               0.000211179               0.000465420              -0.000210135               0.000021014               0.000148134               0.000169148               0.000000000               0.000000000               0.000000000               0.000000000               0.000172956               0.000630005              -0.000175507              -0.000013892               0.000214630               0.000200738               0.000000000               0.000000000               0.000000000               0.000000000               0.000174354               0.000748970              -0.000145433              -0.000028239               0.000259067               0.000230828               0.000000000               0.000000000               0.000000000               0.000000000               0.000187520               0.000862593              -0.000123807              -0.000037504               0.000300030               0.000262526               0.000000000               0.000000000               0.000000000               0.000000000               0.000206921               0.000976903              -0.000106848              -0.000044517               0.000340470               0.000295953               0.000000000               0.000000000               0.000000000               0.000000000               0.000229551               0.001089746              -0.000092369              -0.000050136               0.000379957               0.000329821               0.000000000               0.000000000               0.000000000               0.000000000               0.000251670               0.001185681              -0.000076250              -0.000053834               0.000413168               0.000359334               0.000000000               0.000000000               0.000000000               0.000000000               0.000264738               0.001268764              -0.000061471              -0.000059319               0.000442690               0.000383371               0.000000000               0.000000000               0.000000000               0.000000000               0.000263284               0.001351921              -0.000051780              -0.000070258               0.000474055               0.000403797               0.000000000               0.000000000               0.000000000               0.000000000               0.000250478               0.001432741              -0.000044975              -0.000085163               0.000505963               0.000420800               0.000000000               0.000000000               0.000000000               0.000000000               0.000232024               0.001503513              -0.000036437              -0.000100930               0.000534809               0.000433879               0.000000000               0.000000000               0.000000000               0.000000000               0.000212209               0.001570775              -0.000028855              -0.000116768               0.000562509               0.000445741               0.000000000               0.000000000               0.000000000               0.000000000               0.000193794               0.001643520              -0.000021715              -0.000132767               0.000592090               0.000459323               0.000000000               0.000000000               0.000000000               0.000000000               0.000178276               0.001723292              -0.000013415              -0.000148558               0.000623944               0.000475387               0.000000000               0.000000000               0.000000000               0.000000000               0.000160923               0.001798999              -0.000004867              -0.000164528               0.000654503               0.000489975               0.000000000               0.000000000               0.000000000               0.000000000               0.000142852               0.001828138               0.000002413              -0.000174947               0.000667689               0.000492742               0.000000000               0.000000000               0.000000000               0.000000000               0.000234663               0.000270334              -0.000188678               0.000054206               0.000072042               0.000126248               0.000000000               0.000000000               0.000000000               0.000000000               0.000210599               0.000389241              -0.000191321               0.000030319               0.000119639               0.000149958               0.000000000               0.000000000               0.000000000               0.000000000               0.000190677               0.000568509              -0.000180139               0.000000440               0.000189354               0.000189794               0.000000000               0.000000000               0.000000000               0.000000000               0.000199485               0.000708349              -0.000159789              -0.000013737               0.000240693               0.000226956               0.000000000               0.000000000               0.000000000               0.000000000               0.000212990               0.000835654              -0.000139442              -0.000024585               0.000286744               0.000262158               0.000000000               0.000000000               0.000000000               0.000000000               0.000229464               0.000962892              -0.000120630              -0.000034313               0.000332398               0.000298086               0.000000000               0.000000000               0.000000000               0.000000000               0.000247184               0.001080702              -0.000103139              -0.000042394               0.000374362               0.000331968               0.000000000               0.000000000               0.000000000               0.000000000               0.000265017               0.001175319              -0.000083543              -0.000047534               0.000407613               0.000360080               0.000000000               0.000000000               0.000000000               0.000000000               0.000280346               0.001256672              -0.000064483              -0.000051954               0.000436205               0.000384250               0.000000000               0.000000000               0.000000000               0.000000000               0.000290617               0.001342586              -0.000052160              -0.000058842               0.000467138               0.000408296               0.000000000               0.000000000               0.000000000               0.000000000               0.000291050               0.001429707              -0.000044424              -0.000069570               0.000499754               0.000430185               0.000000000               0.000000000               0.000000000               0.000000000               0.000284870               0.001509292              -0.000038222              -0.000081835               0.000530371               0.000448536               0.000000000               0.000000000               0.000000000               0.000000000               0.000276021               0.001584671              -0.000033296              -0.000094576               0.000559743               0.000465168               0.000000000               0.000000000               0.000000000               0.000000000               0.000263131               0.001657207              -0.000028336              -0.000108476               0.000588556               0.000480079               0.000000000               0.000000000               0.000000000               0.000000000               0.000247166               0.001727830              -0.000019774              -0.000123291               0.000617035               0.000493743               0.000000000               0.000000000               0.000000000               0.000000000               0.000230296               0.001800619              -0.000009507              -0.000138716               0.000646439               0.000507723               0.000000000               0.000000000               0.000000000               0.000000000               0.000212784               0.001831691              -0.000001474              -0.000149167               0.000660280               0.000511113               0.000000000               0.000000000               0.000000000               0.000000000               0.000199305               0.000196705              -0.000143198               0.000050151               0.000048851               0.000099002               0.000000000               0.000000000               0.000000000               0.000000000               0.000207844               0.000318047              -0.000164630               0.000038185               0.000093286               0.000131471               0.000000000               0.000000000               0.000000000               0.000000000               0.000214169               0.000503265              -0.000174074               0.000017405               0.000161952               0.000179356               0.000000000               0.000000000               0.000000000               0.000000000               0.000228620               0.000657727              -0.000161096               0.000003516               0.000218068               0.000221584               0.000000000               0.000000000               0.000000000               0.000000000               0.000241912               0.000798176              -0.000142249              -0.000009055               0.000269074               0.000260019               0.000000000               0.000000000               0.000000000               0.000000000               0.000256569               0.000930995              -0.000124702              -0.000020161               0.000317049               0.000296888               0.000000000               0.000000000               0.000000000               0.000000000               0.000269220               0.001046722              -0.000106823              -0.000029883               0.000358865               0.000328982               0.000000000               0.000000000               0.000000000               0.000000000               0.000280703               0.001143977              -0.000086197              -0.000037733               0.000393899               0.000356166               0.000000000               0.000000000               0.000000000               0.000000000               0.000297826               0.001237660              -0.000066585              -0.000043023               0.000426890               0.000383867               0.000000000               0.000000000               0.000000000               0.000000000               0.000316590               0.001333844              -0.000052625              -0.000048009               0.000460613               0.000412604               0.000000000               0.000000000               0.000000000               0.000000000               0.000328662               0.001427702              -0.000043951              -0.000055214               0.000494301               0.000439086               0.000000000               0.000000000               0.000000000               0.000000000               0.000335077               0.001518014              -0.000039255              -0.000064098               0.000527366               0.000463268               0.000000000               0.000000000               0.000000000               0.000000000               0.000336141               0.001599098              -0.000034591              -0.000073834               0.000557639               0.000483805               0.000000000               0.000000000               0.000000000               0.000000000               0.000329318               0.001666430              -0.000028520              -0.000084809               0.000583741               0.000498932               0.000000000               0.000000000               0.000000000               0.000000000               0.000318144               0.001728844              -0.000021265              -0.000096801               0.000608543               0.000511741               0.000000000               0.000000000               0.000000000               0.000000000               0.000308488               0.001798666              -0.000012637              -0.000109150               0.000635933               0.000526783               0.000000000               0.000000000               0.000000000               0.000000000               0.000295300               0.001829994              -0.000004926              -0.000118011               0.000649329               0.000531318               0.000000000               0.000000000               0.000000000               0.000000000               0.000161348               0.000138555              -0.000100468               0.000043186               0.000031789               0.000074975               0.000000000               0.000000000               0.000000000               0.000000000               0.000206502               0.000255505              -0.000131491               0.000045500               0.000070001               0.000115501               0.000000000               0.000000000               0.000000000               0.000000000               0.000238701               0.000438813              -0.000152460               0.000034661               0.000134716               0.000169377               0.000000000               0.000000000               0.000000000               0.000000000               0.000257522               0.000601492              -0.000144406               0.000021384               0.000193367               0.000214751               0.000000000               0.000000000               0.000000000               0.000000000               0.000273122               0.000748985              -0.000129729               0.000008797               0.000246727               0.000255524               0.000000000               0.000000000               0.000000000               0.000000000               0.000286479               0.000882372              -0.000114427              -0.000002867               0.000295077               0.000292210               0.000000000               0.000000000               0.000000000               0.000000000               0.000293155               0.001000763              -0.000097248              -0.000015162               0.000338639               0.000323476               0.000000000               0.000000000               0.000000000               0.000000000               0.000302544               0.001110472              -0.000080376              -0.000025355               0.000378605               0.000353250               0.000000000               0.000000000               0.000000000               0.000000000               0.000321012               0.001219719              -0.000065285              -0.000032085               0.000417264               0.000385179               0.000000000               0.000000000               0.000000000               0.000000000               0.000342361               0.001323114              -0.000051489              -0.000037004               0.000453368               0.000416364               0.000000000               0.000000000               0.000000000               0.000000000               0.000360596               0.001420692              -0.000041101              -0.000042363               0.000487680               0.000445317               0.000000000               0.000000000               0.000000000               0.000000000               0.000374590               0.001514970              -0.000035192              -0.000048900               0.000521285               0.000472385               0.000000000               0.000000000               0.000000000               0.000000000               0.000383439               0.001597556              -0.000029411              -0.000055905               0.000551148               0.000495243               0.000000000               0.000000000               0.000000000               0.000000000               0.000387353               0.001668523              -0.000022994              -0.000063308               0.000577271               0.000513964               0.000000000               0.000000000               0.000000000               0.000000000               0.000389261               0.001736387              -0.000018669              -0.000071075               0.000602482               0.000531406               0.000000000               0.000000000               0.000000000               0.000000000               0.000389912               0.001803295              -0.000012181              -0.000079195               0.000627490               0.000548296               0.000000000               0.000000000               0.000000000               0.000000000               0.000383910               0.001832172              -0.000005520              -0.000085055               0.000639070               0.000554015               0.000000000               0.000000000               0.000000000               0.000000000               0.000131959               0.000097263              -0.000063691               0.000037326               0.000019979               0.000057305               0.000000000               0.000000000               0.000000000               0.000000000               0.000207019               0.000208392              -0.000092125               0.000051582               0.000052269               0.000103852               0.000000000               0.000000000               0.000000000               0.000000000               0.000259632               0.000383661              -0.000113588               0.000049404               0.000111418               0.000160822               0.000000000               0.000000000               0.000000000               0.000000000               0.000284844               0.000547234              -0.000110603               0.000038412               0.000169605               0.000208017               0.000000000               0.000000000               0.000000000               0.000000000               0.000301638               0.000698731              -0.000100528               0.000025773               0.000224317               0.000250090               0.000000000               0.000000000               0.000000000               0.000000000               0.000310021               0.000834878              -0.000087380               0.000011898               0.000274324               0.000286222               0.000000000               0.000000000               0.000000000               0.000000000               0.000318024               0.000959285              -0.000074897              -0.000000652               0.000319976               0.000319324               0.000000000               0.000000000               0.000000000               0.000000000               0.000330061               0.001080778              -0.000064740              -0.000011324               0.000364031               0.000352706               0.000000000               0.000000000               0.000000000               0.000000000               0.000346552               0.001198661              -0.000054102              -0.000019876               0.000406175               0.000386299               0.000000000               0.000000000               0.000000000               0.000000000               0.000364005               0.001303477              -0.000041360              -0.000026433               0.000443299               0.000416866               0.000000000               0.000000000               0.000000000               0.000000000               0.000383758               0.001404121              -0.000030775              -0.000031606               0.000478571               0.000446965               0.000000000               0.000000000               0.000000000               0.000000000               0.000403167               0.001501483              -0.000025217              -0.000036498               0.000512655               0.000476158               0.000000000               0.000000000               0.000000000               0.000000000               0.000419128               0.001588221              -0.000020497              -0.000041355               0.000543186               0.000501832               0.000000000               0.000000000               0.000000000               0.000000000               0.000433853               0.001668322              -0.000015573              -0.000045845               0.000571384               0.000525538               0.000000000               0.000000000               0.000000000               0.000000000               0.000447567               0.001744064              -0.000012443              -0.000050170               0.000598072               0.000547902               0.000000000               0.000000000               0.000000000               0.000000000               0.000458184               0.001811096              -0.000007579              -0.000054568               0.000621882               0.000567314               0.000000000               0.000000000               0.000000000               0.000000000               0.000460805               0.001840097              -0.000003365              -0.000057210               0.000632429               0.000575220               0.000000000               0.000000000               0.000000000               0.000000000               0.000113845               0.000074000              -0.000032199               0.000033442               0.000013519               0.000046961               0.000000000               0.000000000               0.000000000               0.000000000               0.000207481               0.000178424              -0.000048154               0.000055502               0.000040974               0.000096475               0.000000000               0.000000000               0.000000000               0.000000000               0.000275411               0.000345559              -0.000060583               0.000060084               0.000095157               0.000155241               0.000000000               0.000000000               0.000000000               0.000000000               0.000303871               0.000508758              -0.000060623               0.000050357               0.000152799               0.000203155               0.000000000               0.000000000               0.000000000               0.000000000               0.000318563               0.000660828              -0.000054762               0.000036857               0.000207988               0.000244845               0.000000000               0.000000000               0.000000000               0.000000000               0.000327852               0.000799531              -0.000047130               0.000023003               0.000258840               0.000281843               0.000000000               0.000000000               0.000000000               0.000000000               0.000339228               0.000930969              -0.000041748               0.000010839               0.000306707               0.000317546               0.000000000               0.000000000               0.000000000               0.000000000               0.000351504               0.001058432              -0.000036680              -0.000000490               0.000352970               0.000352481               0.000000000               0.000000000               0.000000000               0.000000000               0.000363662               0.001175905              -0.000030071              -0.000010615               0.000395503               0.000384888               0.000000000               0.000000000               0.000000000               0.000000000               0.000378250               0.001282488              -0.000022408              -0.000018467               0.000433648               0.000415180               0.000000000               0.000000000               0.000000000               0.000000000               0.000400058               0.001390579              -0.000016487              -0.000023801               0.000471455               0.000447655               0.000000000               0.000000000               0.000000000               0.000000000               0.000422637               0.001490597              -0.000013076              -0.000027836               0.000506139               0.000478304               0.000000000               0.000000000               0.000000000               0.000000000               0.000442243               0.001579038              -0.000010047              -0.000031539               0.000536854               0.000505315               0.000000000               0.000000000               0.000000000               0.000000000               0.000462646               0.001665546              -0.000007291              -0.000034701               0.000566743               0.000532042               0.000000000               0.000000000               0.000000000               0.000000000               0.000482349               0.001746005              -0.000005291              -0.000037370               0.000594452               0.000557083               0.000000000               0.000000000               0.000000000               0.000000000               0.000499371               0.001815095              -0.000002634              -0.000039623               0.000618233               0.000578610               0.000000000               0.000000000               0.000000000               0.000000000               0.000506907               0.001845813              -0.000000852              -0.000040636               0.000628810               0.000588174               0.000000000               0.000000000               0.000000000               0.000000000               0.000107151               0.000065776              -0.000000000               0.000031959               0.000011272               0.000043231               0.000000000               0.000000000               0.000000000               0.000000000               0.000207419               0.000166368               0.000000000               0.000056986               0.000036460               0.000093446               0.000000000               0.000000000               0.000000000               0.000000000               0.000281655               0.000331076               0.000000000               0.000064235               0.000088946               0.000153181               0.000000000               0.000000000               0.000000000               0.000000000               0.000309965               0.000495799              -0.000000000               0.000054261               0.000147178               0.000201439               0.000000000               0.000000000               0.000000000               0.000000000               0.000323149               0.000645976               0.000000000               0.000040433               0.000201846               0.000242279               0.000000000               0.000000000               0.000000000               0.000000000               0.000336570               0.000785931               0.000000000               0.000027972               0.000252651               0.000280622               0.000000000               0.000000000               0.000000000               0.000000000               0.000347622               0.000921854              -0.000000000               0.000015127               0.000302239               0.000317366               0.000000000               0.000000000               0.000000000               0.000000000               0.000357945               0.001049291              -0.000000000               0.000003068               0.000348737               0.000351806               0.000000000               0.000000000               0.000000000               0.000000000               0.000369314               0.001165480              -0.000000000              -0.000007192               0.000390887               0.000383695               0.000000000               0.000000000               0.000000000               0.000000000               0.000384899               0.001275492              -0.000000000              -0.000015099               0.000430193               0.000415094               0.000000000               0.000000000               0.000000000               0.000000000               0.000406861               0.001386020              -0.000000000              -0.000020680               0.000468895               0.000448216               0.000000000               0.000000000               0.000000000               0.000000000               0.000428867               0.001485032               0.000000000              -0.000024804               0.000503273               0.000478470               0.000000000               0.000000000               0.000000000               0.000000000               0.000449563               0.001574590               0.000000000              -0.000028238               0.000534271               0.000506033               0.000000000               0.000000000               0.000000000               0.000000000               0.000472013               0.001664207              -0.000000000              -0.000031021               0.000565071               0.000534050               0.000000000               0.000000000               0.000000000               0.000000000               0.000493339               0.001746285              -0.000000000              -0.000033284               0.000593184               0.000559900               0.000000000               0.000000000               0.000000000               0.000000000               0.000512377               0.001816604               0.000000000              -0.000034934               0.000617173               0.000582239               0.000000000               0.000000000               0.000000000               0.000000000               0.000521102               0.001848181               0.000000000              -0.000035609               0.000627924               0.000592315               0.000000000               0.000000000               0.000000000               0.000000000               0.000000000               0.000000000               0.000000000               0.000000000               0.000000000               0.000000000               0.000000000               0.000000000               0.000000000               0.000000000               0.000000000               0.000000000               0.000000000               0.000000000               0.000000000               0.000000000               0.000000000               0.000000000               0.000000000               0.000000000               0.000000000               0.000000000               0.000000000               0.000000000               0.000000000               0.000000000               0.000000000               0.000000000               0.000000000               0.000000000               0.000000000               0.000000000               0.000000000               0.000000000               0.000000000               0.000000000               0.000000000               0.000000000               0.000000000               0.000000000               0.000000000               0.000000000               0.000000000               0.000000000               0.000000000               0.000000000               0.000000000               0.000000000               0.000000000               0.000000000               0.000000000               0.000000000               0.000000000               0.000000000               0.000000000               0.000000000               0.000000000               0.000000000               0.000000000               0.000000000               0.000000000               0.000000000               0.000000000               0.000000000               0.000000000               0.000000000               0.000000000               0.000000000               0.000000000               0.000000000               0.000000000               0.000000000               0.000000000               0.000000000               0.000000000               0.000000000               0.000000000               0.000000000               0.000000000               0.000000000               0.000000000               0.000000000               0.000000000               0.000000000               0.000000000               0.000000000               0.000000000               0.000000000               0.000000000               0.000000000               0.000000000               0.000000000               0.000000000               0.000000000               0.000000000               0.000000000               0.000000000               0.000000000               0.000000000               0.000000000               0.000000000               0.000000000               0.000000000               0.000000000               0.000000000               0.000000000               0.000000000               0.000000000               0.000000000               0.000000000               0.000000000               0.000000000               0.000000000               0.000000000               0.000000000               0.000000000               0.000000000               0.000000000               0.000000000               0.000000000               0.000000000               0.000000000               0.000000000               0.000000000               0.000000000               0.000000000               0.000000000               0.000000000               0.000000000               0.000000000               0.000000000               0.000000000               0.000000000               0.000000000               0.000000000               0.000000000               0.000000000               0.000000000               0.000000000               0.000000000               0.000000000               0.000000000               0.000000000               0.000000000               0.000000000               0.000000000               0.000000000               0.000000000               0.000000000               0.000000000               0.000000000               0.000000000               0.000000000               0.000000000               0.000000000               0.000000000               0.000000000               0.000000000               0.000000000               0.000000000               0.000000000               0.000000000               0.000000000               0.000000000               0.000000000               0.000000000               0.000000000               0.000000000               0.000000000               0.000000000               0.000121486               0.001256575               0.000100925              -0.000111514               0.000456026               0.000344511               0.000000000               0.000000000               0.000000000               0.000000000               0.000142444               0.001069683               0.000068794              -0.000080293               0.000383322               0.000303028               0.000000000               0.000000000               0.000000000               0.000000000               0.000206581               0.000925548               0.000034237              -0.000038225               0.000321255               0.000283029               0.000000000               0.000000000               0.000000000               0.000000000               0.000233346               0.000850484               0.000018510              -0.000018806               0.000289760               0.000270955               0.000000000               0.000000000               0.000000000               0.000000000               0.000245544               0.000807592               0.000010572              -0.000008870               0.000272151               0.000263281               0.000000000               0.000000000               0.000000000               0.000000000               0.000251706               0.000785681               0.000006085              -0.000003820               0.000263165               0.000259344               0.000000000               0.000000000               0.000000000               0.000000000               0.000251466               0.000773878               0.000006527              -0.000002435               0.000258768               0.000256333               0.000000000               0.000000000               0.000000000               0.000000000               0.000248679               0.000765838               0.000012132              -0.000002475               0.000256102               0.000253627               0.000000000               0.000000000               0.000000000               0.000000000               0.000246977               0.000755722               0.000019393              -0.000001849               0.000252521               0.000250672               0.000000000               0.000000000               0.000000000               0.000000000               0.000241891               0.000747765               0.000020895              -0.000002761               0.000250173               0.000247412               0.000000000               0.000000000               0.000000000               0.000000000               0.000225325               0.000746790               0.000019829              -0.000008852               0.000251878               0.000243026               0.000000000               0.000000000               0.000000000               0.000000000               0.000198851               0.000751150               0.000019733              -0.000019325               0.000256822               0.000237498               0.000000000               0.000000000               0.000000000               0.000000000               0.000167965               0.000762873               0.000017634              -0.000032372               0.000265079               0.000232707               0.000000000               0.000000000               0.000000000               0.000000000               0.000130675               0.000780693               0.000014902              -0.000048583               0.000276423               0.000227840               0.000000000               0.000000000               0.000000000               0.000000000               0.000088835               0.000803417               0.000011749              -0.000067114               0.000290174               0.000223061               0.000000000               0.000000000               0.000000000               0.000000000               0.000045574               0.000831041               0.000006920              -0.000086790               0.000305941               0.000219151               0.000000000               0.000000000               0.000000000               0.000000000               0.000026981               0.000854814               0.000004817              -0.000096734               0.000317180               0.000220446               0.000000000               0.000000000               0.000000000               0.000000000               0.000146301               0.001201204               0.000189721              -0.000095288               0.000432160               0.000336872               0.000000000               0.000000000               0.000000000               0.000000000               0.000155124               0.001031706               0.000129267              -0.000070792               0.000367496               0.000296704               0.000000000               0.000000000               0.000000000               0.000000000               0.000206201               0.000904306               0.000065367              -0.000035713               0.000313337               0.000277624               0.000000000               0.000000000               0.000000000               0.000000000               0.000227901               0.000838166               0.000036333              -0.000019308               0.000285822               0.000266514               0.000000000               0.000000000               0.000000000               0.000000000               0.000236875               0.000803478               0.000020848              -0.000011606               0.000271692               0.000260086               0.000000000               0.000000000               0.000000000               0.000000000               0.000237467               0.000788436               0.000013176              -0.000009504               0.000265978               0.000256473               0.000000000               0.000000000               0.000000000               0.000000000               0.000233298               0.000782873               0.000013879              -0.000010372               0.000264413               0.000254040               0.000000000               0.000000000               0.000000000               0.000000000               0.000230082               0.000780232               0.000023789              -0.000011248               0.000263824               0.000252576               0.000000000               0.000000000               0.000000000               0.000000000               0.000223957               0.000774503               0.000035544              -0.000012829               0.000262441               0.000249613               0.000000000               0.000000000               0.000000000               0.000000000               0.000212304               0.000773131               0.000036814              -0.000017027               0.000263384               0.000246356               0.000000000               0.000000000               0.000000000               0.000000000               0.000194451               0.000777475               0.000034536              -0.000024265               0.000267244               0.000242979               0.000000000               0.000000000               0.000000000               0.000000000               0.000171208               0.000784996               0.000032489              -0.000033922               0.000272970               0.000239048               0.000000000               0.000000000               0.000000000               0.000000000               0.000143802               0.000796844               0.000027145              -0.000045680               0.000280838               0.000235159               0.000000000               0.000000000               0.000000000               0.000000000               0.000110852               0.000811599               0.000021385              -0.000059880               0.000290490               0.000230610               0.000000000               0.000000000               0.000000000               0.000000000               0.000075146               0.000829760               0.000015109              -0.000075540               0.000301764               0.000226224               0.000000000               0.000000000               0.000000000               0.000000000               0.000038648               0.000851323               0.000007741              -0.000091922               0.000314412               0.000222490               0.000000000               0.000000000               0.000000000               0.000000000               0.000023331               0.000869900               0.000005515              -0.000099988               0.000323293               0.000223305               0.000000000               0.000000000               0.000000000               0.000000000               0.000181327               0.001121042               0.000259921              -0.000072133               0.000397721               0.000325588               0.000000000               0.000000000               0.000000000               0.000000000               0.000171206               0.000971446               0.000177952              -0.000057228               0.000342888               0.000285660               0.000000000               0.000000000               0.000000000               0.000000000               0.000203096               0.000872800               0.000091791              -0.000032939               0.000301910               0.000268971               0.000000000               0.000000000               0.000000000               0.000000000               0.000217639               0.000821949               0.000052189              -0.000021129               0.000281023               0.000259894               0.000000000               0.000000000               0.000000000               0.000000000               0.000222972               0.000798410               0.000031685              -0.000016187               0.000271530               0.000255343               0.000000000               0.000000000               0.000000000               0.000000000               0.000219461               0.000793304               0.000021449              -0.000016865               0.000270054               0.000253189               0.000000000               0.000000000               0.000000000               0.000000000               0.000212252               0.000795255               0.000022454              -0.000019812               0.000271686               0.000251874               0.000000000               0.000000000               0.000000000               0.000000000               0.000205964               0.000797321               0.000035546              -0.000022429               0.000273247               0.000250819               0.000000000               0.000000000               0.000000000               0.000000000               0.000196160               0.000801491               0.000048301              -0.000026626               0.000276037               0.000249410               0.000000000               0.000000000               0.000000000               0.000000000               0.000181496               0.000812983               0.000046992              -0.000033562               0.000282179               0.000248617               0.000000000               0.000000000               0.000000000               0.000000000               0.000164014               0.000828061               0.000042537              -0.000042002               0.000290018               0.000248016               0.000000000               0.000000000               0.000000000               0.000000000               0.000141045               0.000843996               0.000039711              -0.000052608               0.000298865               0.000246258               0.000000000               0.000000000               0.000000000               0.000000000               0.000113611               0.000860561               0.000033636              -0.000064966               0.000308506               0.000243540               0.000000000               0.000000000               0.000000000               0.000000000               0.000085082               0.000878866               0.000026730              -0.000077952               0.000318936               0.000240984               0.000000000               0.000000000               0.000000000               0.000000000               0.000056853               0.000899705               0.000018962              -0.000091143               0.000330280               0.000239137               0.000000000               0.000000000               0.000000000               0.000000000               0.000029066               0.000923626               0.000009740              -0.000104553               0.000342723               0.000238170               0.000000000               0.000000000               0.000000000               0.000000000               0.000019355               0.000943923               0.000007318              -0.000110732               0.000351548               0.000240816               0.000000000               0.000000000               0.000000000               0.000000000               0.000214235               0.001018077               0.000312674              -0.000046922               0.000354996               0.000308074               0.000000000               0.000000000               0.000000000               0.000000000               0.000184787               0.000897942               0.000213250              -0.000042948               0.000313627               0.000270679               0.000000000               0.000000000               0.000000000               0.000000000               0.000198152               0.000834922               0.000110456              -0.000030058               0.000288324               0.000258266               0.000000000               0.000000000               0.000000000               0.000000000               0.000203471               0.000804821               0.000065548              -0.000024301               0.000276371               0.000252070               0.000000000               0.000000000               0.000000000               0.000000000               0.000204253               0.000797375               0.000042529              -0.000023077               0.000273481               0.000250404               0.000000000               0.000000000               0.000000000               0.000000000               0.000200095               0.000802113               0.000031448              -0.000025228               0.000275778               0.000250549               0.000000000               0.000000000               0.000000000               0.000000000               0.000192650               0.000809860               0.000033694              -0.000028988               0.000279613               0.000250625               0.000000000               0.000000000               0.000000000               0.000000000               0.000187790               0.000820930               0.000046566              -0.000032195               0.000284372               0.000252177               0.000000000               0.000000000               0.000000000               0.000000000               0.000179598               0.000839205               0.000056414              -0.000037551               0.000292249               0.000254698               0.000000000               0.000000000               0.000000000               0.000000000               0.000164500               0.000868279               0.000053738              -0.000046847               0.000305039               0.000258192               0.000000000               0.000000000               0.000000000               0.000000000               0.000142795               0.000898764               0.000049071              -0.000058797               0.000319184               0.000260387               0.000000000               0.000000000               0.000000000               0.000000000               0.000116207               0.000930053               0.000046030              -0.000072679               0.000334241               0.000261562               0.000000000               0.000000000               0.000000000               0.000000000               0.000089906               0.000962054               0.000039721              -0.000086542               0.000349529               0.000262987               0.000000000               0.000000000               0.000000000               0.000000000               0.000064132               0.000994581               0.000032158              -0.000100273               0.000364948               0.000264675               0.000000000               0.000000000               0.000000000               0.000000000               0.000041619               0.001028066               0.000023339              -0.000112901               0.000380319               0.000267418               0.000000000               0.000000000               0.000000000               0.000000000               0.000022416               0.001062254               0.000012006              -0.000124375               0.000395539               0.000271164               0.000000000               0.000000000               0.000000000               0.000000000               0.000017723               0.001087548               0.000008908              -0.000129297               0.000405612               0.000276314               0.000000000               0.000000000               0.000000000               0.000000000               0.000248544               0.000901277               0.000341660              -0.000019456               0.000306908               0.000287452               0.000000000               0.000000000               0.000000000               0.000000000               0.000195868               0.000820863               0.000232980              -0.000029158               0.000283337               0.000254180               0.000000000               0.000000000               0.000000000               0.000000000               0.000187999               0.000799614               0.000123487              -0.000029452               0.000276353               0.000246901               0.000000000               0.000000000               0.000000000               0.000000000               0.000187404               0.000792439               0.000076541              -0.000028778               0.000273737               0.000244958               0.000000000               0.000000000               0.000000000               0.000000000               0.000184313               0.000802176               0.000053516              -0.000031154               0.000277774               0.000246620               0.000000000               0.000000000               0.000000000               0.000000000               0.000179350               0.000818525               0.000043955              -0.000035059               0.000284525               0.000249466               0.000000000               0.000000000               0.000000000               0.000000000               0.000178584               0.000837945               0.000045737              -0.000037774               0.000291904               0.000254130               0.000000000               0.000000000               0.000000000               0.000000000               0.000179420               0.000862377               0.000056716              -0.000040515               0.000300961               0.000260447               0.000000000               0.000000000               0.000000000               0.000000000               0.000173356               0.000900521               0.000061949              -0.000047557               0.000316023               0.000268466               0.000000000               0.000000000               0.000000000               0.000000000               0.000159845               0.000950781               0.000055372              -0.000058905               0.000336559               0.000277654               0.000000000               0.000000000               0.000000000               0.000000000               0.000139496               0.001003246               0.000050197              -0.000073094               0.000358777               0.000285682               0.000000000               0.000000000               0.000000000               0.000000000               0.000113375               0.001053740               0.000046227              -0.000089202               0.000380977               0.000291775               0.000000000               0.000000000               0.000000000               0.000000000               0.000085568               0.001103713               0.000039789              -0.000105876               0.000403192               0.000297317               0.000000000               0.000000000               0.000000000               0.000000000               0.000058972               0.001151519               0.000031783              -0.000121825               0.000424444               0.000302619               0.000000000               0.000000000               0.000000000               0.000000000               0.000039005               0.001198846               0.000022523              -0.000135229               0.000444688               0.000309459               0.000000000               0.000000000               0.000000000               0.000000000               0.000021408               0.001243504               0.000011423              -0.000147410               0.000463634               0.000316224               0.000000000               0.000000000               0.000000000               0.000000000               0.000017169               0.001273095               0.000008723              -0.000152698               0.000475260               0.000322562               0.000000000               0.000000000               0.000000000               0.000000000               0.000274071               0.000782376               0.000346192               0.000004979               0.000259129               0.000264108               0.000000000               0.000000000               0.000000000               0.000000000               0.000203414               0.000744386               0.000239425              -0.000016768               0.000253715               0.000236947               0.000000000               0.000000000               0.000000000               0.000000000               0.000175889               0.000768668               0.000132058              -0.000030125               0.000266262               0.000236137               0.000000000               0.000000000               0.000000000               0.000000000               0.000169755               0.000786868               0.000086276              -0.000034700               0.000273854               0.000239153               0.000000000               0.000000000               0.000000000               0.000000000               0.000166263               0.000815607               0.000064857              -0.000039602               0.000285067               0.000245465               0.000000000               0.000000000               0.000000000               0.000000000               0.000165423               0.000849051               0.000055448              -0.000044098               0.000297713               0.000253616               0.000000000               0.000000000               0.000000000               0.000000000               0.000170135               0.000888310               0.000055878              -0.000047238               0.000311846               0.000264608               0.000000000               0.000000000               0.000000000               0.000000000               0.000178136               0.000939553               0.000061512              -0.000050643               0.000330062               0.000279419               0.000000000               0.000000000               0.000000000               0.000000000               0.000178748               0.001004674               0.000060267              -0.000058554               0.000354406               0.000295852               0.000000000               0.000000000               0.000000000               0.000000000               0.000165469               0.001074722               0.000051145              -0.000072289               0.000382333               0.000310044               0.000000000               0.000000000               0.000000000               0.000000000               0.000143407               0.001141930               0.000046412              -0.000088963               0.000410294               0.000321331               0.000000000               0.000000000               0.000000000               0.000000000               0.000117942               0.001204137               0.000042776              -0.000106289               0.000436804               0.000330516               0.000000000               0.000000000               0.000000000               0.000000000               0.000092686               0.001264573               0.000036021              -0.000123314               0.000462625               0.000339311               0.000000000               0.000000000               0.000000000               0.000000000               0.000067268               0.001321935               0.000028212              -0.000140016               0.000487313               0.000347297               0.000000000               0.000000000               0.000000000               0.000000000               0.000045043               0.001375666               0.000018836              -0.000155067               0.000510240               0.000355173               0.000000000               0.000000000               0.000000000               0.000000000               0.000023406               0.001423470               0.000009514              -0.000169156               0.000530870               0.000361714               0.000000000               0.000000000               0.000000000               0.000000000               0.000016831               0.001453506               0.000008294              -0.000175376               0.000542956               0.000367580               0.000000000               0.000000000               0.000000000               0.000000000               0.000283908               0.000664458               0.000332592               0.000023408               0.000213681               0.000237089               0.000000000               0.000000000               0.000000000               0.000000000               0.000204695               0.000674083               0.000235981              -0.000007500               0.000227192               0.000219692               0.000000000               0.000000000               0.000000000               0.000000000               0.000165683               0.000743260               0.000137394              -0.000030776               0.000258010               0.000227233               0.000000000               0.000000000               0.000000000               0.000000000               0.000157896               0.000789629               0.000096256              -0.000039493               0.000276371               0.000236878               0.000000000               0.000000000               0.000000000               0.000000000               0.000156170               0.000841772               0.000075752              -0.000046658               0.000296141               0.000249483               0.000000000               0.000000000               0.000000000               0.000000000               0.000162686               0.000901027               0.000064699              -0.000051621               0.000317546               0.000265925               0.000000000               0.000000000               0.000000000               0.000000000               0.000178900               0.000970808               0.000060089              -0.000054263               0.000341687               0.000287424               0.000000000               0.000000000               0.000000000               0.000000000               0.000192727               0.001049405               0.000060581              -0.000058903               0.000369432               0.000310529               0.000000000               0.000000000               0.000000000               0.000000000               0.000191139               0.001133171               0.000057321              -0.000069969               0.000401043               0.000331074               0.000000000               0.000000000               0.000000000               0.000000000               0.000174379               0.001216303               0.000048804              -0.000086645               0.000434312               0.000347667               0.000000000               0.000000000               0.000000000               0.000000000               0.000150220               0.001289547               0.000044772              -0.000104861               0.000464798               0.000359938               0.000000000               0.000000000               0.000000000               0.000000000               0.000123542               0.001356679               0.000040115              -0.000123256               0.000493307               0.000370051               0.000000000               0.000000000               0.000000000               0.000000000               0.000099297               0.001421732               0.000030414              -0.000140480               0.000520732               0.000380253               0.000000000               0.000000000               0.000000000               0.000000000               0.000075093               0.001484273               0.000021173              -0.000157374               0.000547211               0.000389837               0.000000000               0.000000000               0.000000000               0.000000000               0.000049532               0.001541029               0.000013033              -0.000174054               0.000571689               0.000397635               0.000000000               0.000000000               0.000000000               0.000000000               0.000024585               0.001590313               0.000005718              -0.000189569               0.000593289               0.000403720               0.000000000               0.000000000               0.000000000               0.000000000               0.000015279               0.001621388               0.000005276              -0.000196943               0.000606105               0.000409162               0.000000000               0.000000000               0.000000000               0.000000000               0.000289686               0.000558310               0.000304083               0.000038843               0.000173154               0.000211996               0.000000000               0.000000000               0.000000000               0.000000000               0.000205377               0.000613648               0.000228230               0.000000310               0.000204444               0.000204754               0.000000000               0.000000000               0.000000000               0.000000000               0.000160552               0.000724674               0.000146472              -0.000030377               0.000251681               0.000221304               0.000000000               0.000000000               0.000000000               0.000000000               0.000153960               0.000797491               0.000107764              -0.000041951               0.000279812               0.000237860               0.000000000               0.000000000               0.000000000               0.000000000               0.000157484               0.000874213               0.000085604              -0.000050220               0.000308141               0.000257921               0.000000000               0.000000000               0.000000000               0.000000000               0.000172439               0.000959639               0.000071139              -0.000055290               0.000338307               0.000283016               0.000000000               0.000000000               0.000000000               0.000000000               0.000196805               0.001049568               0.000063482              -0.000057394               0.000368984               0.000311590               0.000000000               0.000000000               0.000000000               0.000000000               0.000214507               0.001140090               0.000059959              -0.000062071               0.000400717               0.000338646               0.000000000               0.000000000               0.000000000               0.000000000               0.000212588               0.001236336               0.000054817              -0.000074821               0.000437048               0.000362227               0.000000000               0.000000000               0.000000000               0.000000000               0.000193649               0.001324903               0.000047787              -0.000092994               0.000472628               0.000379634               0.000000000               0.000000000               0.000000000               0.000000000               0.000168405               0.001398099               0.000042692              -0.000111610               0.000503232               0.000391621               0.000000000               0.000000000               0.000000000               0.000000000               0.000142087               0.001468062               0.000035101              -0.000130225               0.000532757               0.000402533               0.000000000               0.000000000               0.000000000               0.000000000               0.000115889               0.001538684               0.000023570              -0.000148877               0.000562515               0.000413638               0.000000000               0.000000000               0.000000000               0.000000000               0.000090352               0.001605697               0.000013022              -0.000166830               0.000590837               0.000424007               0.000000000               0.000000000               0.000000000               0.000000000               0.000065056               0.001667997               0.000005033              -0.000184103               0.000617361               0.000433258               0.000000000               0.000000000               0.000000000               0.000000000               0.000045713               0.001728661              -0.000000584              -0.000198940               0.000642528               0.000443588               0.000000000               0.000000000               0.000000000               0.000000000               0.000036586               0.001761511              -0.000002305              -0.000206468               0.000655987               0.000449519               0.000000000               0.000000000               0.000000000               0.000000000               0.000284496               0.000457153               0.000268663               0.000049541               0.000135869               0.000185410               0.000000000               0.000000000               0.000000000               0.000000000               0.000207903               0.000540595               0.000220930               0.000010389               0.000176734               0.000187123               0.000000000               0.000000000               0.000000000               0.000000000               0.000162872               0.000683745               0.000162270              -0.000024391               0.000236043               0.000211652               0.000000000               0.000000000               0.000000000               0.000000000               0.000159056               0.000779961               0.000125684              -0.000037849               0.000272601               0.000234752               0.000000000               0.000000000               0.000000000               0.000000000               0.000168217               0.000877574               0.000103468              -0.000046615               0.000308060               0.000261445               0.000000000               0.000000000               0.000000000               0.000000000               0.000187326               0.000979466               0.000088192              -0.000052186               0.000343881               0.000291695               0.000000000               0.000000000               0.000000000               0.000000000               0.000214947               0.001081691               0.000078361              -0.000054606               0.000378762               0.000324156               0.000000000               0.000000000               0.000000000               0.000000000               0.000237935               0.001178120               0.000067718              -0.000058039               0.000412049               0.000354010               0.000000000               0.000000000               0.000000000               0.000000000               0.000242508               0.001269108               0.000057797              -0.000067698               0.000445598               0.000377900               0.000000000               0.000000000               0.000000000               0.000000000               0.000228391               0.001353509               0.000051129              -0.000083542               0.000479012               0.000395471               0.000000000               0.000000000               0.000000000               0.000000000               0.000205912               0.001428888               0.000044837              -0.000101394               0.000510089               0.000408695               0.000000000               0.000000000               0.000000000               0.000000000               0.000180793               0.001497950               0.000035457              -0.000119446               0.000539127               0.000419681               0.000000000               0.000000000               0.000000000               0.000000000               0.000155195               0.001568154               0.000024857              -0.000137821               0.000568653               0.000430832               0.000000000               0.000000000               0.000000000               0.000000000               0.000131673               0.001639252               0.000014697              -0.000155529               0.000598255               0.000442726               0.000000000               0.000000000               0.000000000               0.000000000               0.000111992               0.001715376               0.000006204              -0.000172425               0.000629261               0.000456837               0.000000000               0.000000000               0.000000000               0.000000000               0.000096227               0.001792272               0.000000960              -0.000187949               0.000660068               0.000472119               0.000000000               0.000000000               0.000000000               0.000000000               0.000082469               0.001823625              -0.000003162              -0.000197027               0.000673545               0.000476518               0.000000000               0.000000000               0.000000000               0.000000000               0.000263467               0.000360719               0.000230878               0.000053709               0.000102335               0.000156045               0.000000000               0.000000000               0.000000000               0.000000000               0.000211179               0.000465420               0.000210135               0.000021014               0.000148134               0.000169148               0.000000000               0.000000000               0.000000000               0.000000000               0.000172956               0.000630005               0.000175507              -0.000013892               0.000214630               0.000200738               0.000000000               0.000000000               0.000000000               0.000000000               0.000174354               0.000748970               0.000145433              -0.000028239               0.000259067               0.000230828               0.000000000               0.000000000               0.000000000               0.000000000               0.000187520               0.000862593               0.000123807              -0.000037504               0.000300030               0.000262526               0.000000000               0.000000000               0.000000000               0.000000000               0.000206921               0.000976903               0.000106848              -0.000044517               0.000340470               0.000295953               0.000000000               0.000000000               0.000000000               0.000000000               0.000229551               0.001089746               0.000092369              -0.000050136               0.000379957               0.000329821               0.000000000               0.000000000               0.000000000               0.000000000               0.000251670               0.001185681               0.000076250              -0.000053834               0.000413168               0.000359334               0.000000000               0.000000000               0.000000000               0.000000000               0.000264738               0.001268764               0.000061471              -0.000059319               0.000442690               0.000383371               0.000000000               0.000000000               0.000000000               0.000000000               0.000263284               0.001351921               0.000051780              -0.000070258               0.000474055               0.000403797               0.000000000               0.000000000               0.000000000               0.000000000               0.000250478               0.001432741               0.000044975              -0.000085163               0.000505963               0.000420800               0.000000000               0.000000000               0.000000000               0.000000000               0.000232024               0.001503513               0.000036437              -0.000100930               0.000534809               0.000433879               0.000000000               0.000000000               0.000000000               0.000000000               0.000212209               0.001570775               0.000028855              -0.000116768               0.000562509               0.000445741               0.000000000               0.000000000               0.000000000               0.000000000               0.000193794               0.001643520               0.000021715              -0.000132767               0.000592090               0.000459323               0.000000000               0.000000000               0.000000000               0.000000000               0.000178276               0.001723292               0.000013415              -0.000148558               0.000623944               0.000475387               0.000000000               0.000000000               0.000000000               0.000000000               0.000160923               0.001798999               0.000004867              -0.000164528               0.000654503               0.000489975               0.000000000               0.000000000               0.000000000               0.000000000               0.000142852               0.001828138              -0.000002413              -0.000174947               0.000667689               0.000492742               0.000000000               0.000000000               0.000000000               0.000000000               0.000234663               0.000270334               0.000188678               0.000054206               0.000072042               0.000126248               0.000000000               0.000000000               0.000000000               0.000000000               0.000210599               0.000389241               0.000191321               0.000030319               0.000119639               0.000149958               0.000000000               0.000000000               0.000000000               0.000000000               0.000190677               0.000568509               0.000180139               0.000000440               0.000189354               0.000189794               0.000000000               0.000000000               0.000000000               0.000000000               0.000199485               0.000708349               0.000159789              -0.000013737               0.000240693               0.000226956               0.000000000               0.000000000               0.000000000               0.000000000               0.000212990               0.000835654               0.000139442              -0.000024585               0.000286744               0.000262158               0.000000000               0.000000000               0.000000000               0.000000000               0.000229464               0.000962892               0.000120630              -0.000034313               0.000332398               0.000298086               0.000000000               0.000000000               0.000000000               0.000000000               0.000247184               0.001080702               0.000103139              -0.000042394               0.000374362               0.000331968               0.000000000               0.000000000               0.000000000               0.000000000               0.000265017               0.001175319               0.000083543              -0.000047534               0.000407613               0.000360080               0.000000000               0.000000000               0.000000000               0.000000000               0.000280346               0.001256672               0.000064483              -0.000051954               0.000436205               0.000384250               0.000000000               0.000000000               0.000000000               0.000000000               0.000290617               0.001342586               0.000052160              -0.000058842               0.000467138               0.000408296               0.000000000               0.000000000               0.000000000               0.000000000               0.000291050               0.001429707               0.000044424              -0.000069570               0.000499754               0.000430185               0.000000000               0.000000000               0.000000000               0.000000000               0.000284870               0.001509292               0.000038222              -0.000081835               0.000530371               0.000448536               0.000000000               0.000000000               0.000000000               0.000000000               0.000276021               0.001584671               0.000033296              -0.000094576               0.000559743               0.000465168               0.000000000               0.000000000               0.000000000               0.000000000               0.000263131               0.001657207               0.000028336              -0.000108476               0.000588556               0.000480079               0.000000000               0.000000000               0.000000000               0.000000000               0.000247166               0.001727830               0.000019774              -0.000123291               0.000617035               0.000493743               0.000000000               0.000000000               0.000000000               0.000000000               0.000230296               0.001800619               0.000009507              -0.000138716               0.000646439               0.000507723               0.000000000               0.000000000               0.000000000               0.000000000               0.000212784               0.001831691               0.000001474              -0.000149167               0.000660280               0.000511113               0.000000000               0.000000000               0.000000000               0.000000000               0.000199305               0.000196705               0.000143198               0.000050151               0.000048851               0.000099002               0.000000000               0.000000000               0.000000000               0.000000000               0.000207844               0.000318047               0.000164630               0.000038185               0.000093286               0.000131471               0.000000000               0.000000000               0.000000000               0.000000000               0.000214169               0.000503265               0.000174074               0.000017405               0.000161952               0.000179356               0.000000000               0.000000000               0.000000000               0.000000000               0.000228620               0.000657727               0.000161096               0.000003516               0.000218068               0.000221584               0.000000000               0.000000000               0.000000000               0.000000000               0.000241912               0.000798176               0.000142249              -0.000009055               0.000269074               0.000260019               0.000000000               0.000000000               0.000000000               0.000000000               0.000256569               0.000930995               0.000124702              -0.000020161               0.000317049               0.000296888               0.000000000               0.000000000               0.000000000               0.000000000               0.000269220               0.001046722               0.000106823              -0.000029883               0.000358865               0.000328982               0.000000000               0.000000000               0.000000000               0.000000000               0.000280703               0.001143977               0.000086197              -0.000037733               0.000393899               0.000356166               0.000000000               0.000000000               0.000000000               0.000000000               0.000297826               0.001237660               0.000066585              -0.000043023               0.000426890               0.000383867               0.000000000               0.000000000               0.000000000               0.000000000               0.000316590               0.001333844               0.000052625              -0.000048009               0.000460613               0.000412604               0.000000000               0.000000000               0.000000000               0.000000000               0.000328662               0.001427702               0.000043951              -0.000055214               0.000494301               0.000439086               0.000000000               0.000000000               0.000000000               0.000000000               0.000335077               0.001518014               0.000039255              -0.000064098               0.000527366               0.000463268               0.000000000               0.000000000               0.000000000               0.000000000               0.000336141               0.001599098               0.000034591              -0.000073834               0.000557639               0.000483805               0.000000000               0.000000000               0.000000000               0.000000000               0.000329318               0.001666430               0.000028520              -0.000084809               0.000583741               0.000498932               0.000000000               0.000000000               0.000000000               0.000000000               0.000318144               0.001728844               0.000021265              -0.000096801               0.000608543               0.000511741               0.000000000               0.000000000               0.000000000               0.000000000               0.000308488               0.001798666               0.000012637              -0.000109150               0.000635933               0.000526783               0.000000000               0.000000000               0.000000000               0.000000000               0.000295300               0.001829994               0.000004926              -0.000118011               0.000649329               0.000531318               0.000000000               0.000000000               0.000000000               0.000000000               0.000161348               0.000138555               0.000100468               0.000043186               0.000031789               0.000074975               0.000000000               0.000000000               0.000000000               0.000000000               0.000206502               0.000255505               0.000131491               0.000045500               0.000070001               0.000115501               0.000000000               0.000000000               0.000000000               0.000000000               0.000238701               0.000438813               0.000152460               0.000034661               0.000134716               0.000169377               0.000000000               0.000000000               0.000000000               0.000000000               0.000257522               0.000601492               0.000144406               0.000021384               0.000193367               0.000214751               0.000000000               0.000000000               0.000000000               0.000000000               0.000273122               0.000748985               0.000129729               0.000008797               0.000246727               0.000255524               0.000000000               0.000000000               0.000000000               0.000000000               0.000286479               0.000882372               0.000114427              -0.000002867               0.000295077               0.000292210               0.000000000               0.000000000               0.000000000               0.000000000               0.000293155               0.001000763               0.000097248              -0.000015162               0.000338639               0.000323476               0.000000000               0.000000000               0.000000000               0.000000000               0.000302544               0.001110472               0.000080376              -0.000025355               0.000378605               0.000353250               0.000000000               0.000000000               0.000000000               0.000000000               0.000321012               0.001219719               0.000065285              -0.000032085               0.000417264               0.000385179               0.000000000               0.000000000               0.000000000               0.000000000               0.000342361               0.001323114               0.000051489              -0.000037004               0.000453368               0.000416364               0.000000000               0.000000000               0.000000000               0.000000000               0.000360596               0.001420692               0.000041101              -0.000042363               0.000487680               0.000445317               0.000000000               0.000000000               0.000000000               0.000000000               0.000374590               0.001514970               0.000035192              -0.000048900               0.000521285               0.000472385               0.000000000               0.000000000               0.000000000               0.000000000               0.000383439               0.001597556               0.000029411              -0.000055905               0.000551148               0.000495243               0.000000000               0.000000000               0.000000000               0.000000000               0.000387353               0.001668523               0.000022994              -0.000063308               0.000577271               0.000513964               0.000000000               0.000000000               0.000000000               0.000000000               0.000389261               0.001736387               0.000018669              -0.000071075               0.000602482               0.000531406               0.000000000               0.000000000               0.000000000               0.000000000               0.000389912               0.001803295               0.000012181              -0.000079195               0.000627490               0.000548296               0.000000000               0.000000000               0.000000000               0.000000000               0.000383910               0.001832172               0.000005520              -0.000085055               0.000639070               0.000554015               0.000000000               0.000000000               0.000000000               0.000000000               0.000131959               0.000097263               0.000063691               0.000037326               0.000019979               0.000057305               0.000000000               0.000000000               0.000000000               0.000000000               0.000207019               0.000208392               0.000092125               0.000051582               0.000052269               0.000103852               0.000000000               0.000000000               0.000000000               0.000000000               0.000259632               0.000383661               0.000113588               0.000049404               0.000111418               0.000160822               0.000000000               0.000000000               0.000000000               0.000000000               0.000284844               0.000547234               0.000110603               0.000038412               0.000169605               0.000208017               0.000000000               0.000000000               0.000000000               0.000000000               0.000301638               0.000698731               0.000100528               0.000025773               0.000224317               0.000250090               0.000000000               0.000000000               0.000000000               0.000000000               0.000310021               0.000834878               0.000087380               0.000011898               0.000274324               0.000286222               0.000000000               0.000000000               0.000000000               0.000000000               0.000318024               0.000959285               0.000074897              -0.000000652               0.000319976               0.000319324               0.000000000               0.000000000               0.000000000               0.000000000               0.000330061               0.001080778               0.000064740              -0.000011324               0.000364031               0.000352706               0.000000000               0.000000000               0.000000000               0.000000000               0.000346552               0.001198661               0.000054102              -0.000019876               0.000406175               0.000386299               0.000000000               0.000000000               0.000000000               0.000000000               0.000364005               0.001303477               0.000041360              -0.000026433               0.000443299               0.000416866               0.000000000               0.000000000               0.000000000               0.000000000               0.000383758               0.001404121               0.000030775              -0.000031606               0.000478571               0.000446965               0.000000000               0.000000000               0.000000000               0.000000000               0.000403167               0.001501483               0.000025217              -0.000036498               0.000512655               0.000476158               0.000000000               0.000000000               0.000000000               0.000000000               0.000419128               0.001588221               0.000020497              -0.000041355               0.000543186               0.000501832               0.000000000               0.000000000               0.000000000               0.000000000               0.000433853               0.001668322               0.000015573              -0.000045845               0.000571384               0.000525538               0.000000000               0.000000000               0.000000000               0.000000000               0.000447567               0.001744064               0.000012443              -0.000050170               0.000598072               0.000547902               0.000000000               0.000000000               0.000000000               0.000000000               0.000458184               0.001811096               0.000007579              -0.000054568               0.000621882               0.000567314               0.000000000               0.000000000               0.000000000               0.000000000               0.000460805               0.001840097               0.000003365              -0.000057210               0.000632429               0.000575220               0.000000000               0.000000000               0.000000000               0.000000000               0.000113845               0.000074000               0.000032199               0.000033442               0.000013519               0.000046961               0.000000000               0.000000000               0.000000000               0.000000000               0.000207481               0.000178424               0.000048154               0.000055502               0.000040974               0.000096475               0.000000000               0.000000000               0.000000000               0.000000000               0.000275411               0.000345559               0.000060583               0.000060084               0.000095157               0.000155241               0.000000000               0.000000000               0.000000000               0.000000000               0.000303871               0.000508758               0.000060623               0.000050357               0.000152799               0.000203155               0.000000000               0.000000000               0.000000000               0.000000000               0.000318563               0.000660828               0.000054762               0.000036857               0.000207988               0.000244845               0.000000000               0.000000000               0.000000000               0.000000000               0.000327852               0.000799531               0.000047130               0.000023003               0.000258840               0.000281843               0.000000000               0.000000000               0.000000000               0.000000000               0.000339228               0.000930969               0.000041748               0.000010839               0.000306707               0.000317546               0.000000000               0.000000000               0.000000000               0.000000000               0.000351504               0.001058432               0.000036680              -0.000000490               0.000352970               0.000352481               0.000000000               0.000000000               0.000000000               0.000000000               0.000363662               0.001175905               0.000030071              -0.000010615               0.000395503               0.000384888               0.000000000               0.000000000               0.000000000               0.000000000               0.000378250               0.001282488               0.000022408              -0.000018467               0.000433648               0.000415180               0.000000000               0.000000000               0.000000000               0.000000000               0.000400058               0.001390579               0.000016487              -0.000023801               0.000471455               0.000447655               0.000000000               0.000000000               0.000000000               0.000000000               0.000422637               0.001490597               0.000013076              -0.000027836               0.000506139               0.000478304               0.000000000               0.000000000               0.000000000               0.000000000               0.000442243               0.001579038               0.000010047              -0.000031539               0.000536854               0.000505315               0.000000000               0.000000000               0.000000000               0.000000000               0.000462646               0.001665546               0.000007291              -0.000034701               0.000566743               0.000532042               0.000000000               0.000000000               0.000000000               0.000000000               0.000482349               0.001746005               0.000005291              -0.000037370               0.000594452               0.000557083               0.000000000               0.000000000               0.000000000               0.000000000               0.000499371               0.001815095               0.000002634              -0.000039623               0.000618233               0.000578610               0.000000000               0.000000000               0.000000000               0.000000000               0.000506907               0.001845813               0.000000852              -0.000040636               0.000628810               0.000588174               0.000000000               0.000000000               0.000000000               0.000000000               0.000107151               0.000065776              -0.000000000               0.000031959               0.000011272               0.000043231               0.000000000               0.000000000               0.000000000               0.000000000               0.000207419               0.000166368              -0.000000000               0.000056986               0.000036460               0.000093446               0.000000000               0.000000000               0.000000000               0.000000000               0.000281655               0.000331076              -0.000000000               0.000064235               0.000088946               0.000153181               0.000000000               0.000000000               0.000000000               0.000000000               0.000309965               0.000495799              -0.000000000               0.000054261               0.000147178               0.000201439               0.000000000               0.000000000               0.000000000               0.000000000               0.000323149               0.000645976              -0.000000000               0.000040433               0.000201846               0.000242279               0.000000000               0.000000000               0.000000000               0.000000000               0.000336570               0.000785931              -0.000000000               0.000027972               0.000252651               0.000280622               0.000000000               0.000000000               0.000000000               0.000000000               0.000347622               0.000921854               0.000000000               0.000015127               0.000302239               0.000317366               0.000000000               0.000000000               0.000000000               0.000000000               0.000357945               0.001049291              -0.000000000               0.000003068               0.000348737               0.000351806               0.000000000               0.000000000               0.000000000               0.000000000               0.000369314               0.001165480              -0.000000000              -0.000007192               0.000390887               0.000383695               0.000000000               0.000000000               0.000000000               0.000000000               0.000384899               0.001275492               0.000000000              -0.000015099               0.000430193               0.000415094               0.000000000               0.000000000               0.000000000               0.000000000               0.000406861               0.001386020               0.000000000              -0.000020680               0.000468895               0.000448216               0.000000000               0.000000000               0.000000000               0.000000000               0.000428867               0.001485032              -0.000000000              -0.000024804               0.000503273               0.000478470               0.000000000               0.000000000               0.000000000               0.000000000               0.000449563               0.001574590               0.000000000              -0.000028238               0.000534271               0.000506033               0.000000000               0.000000000               0.000000000               0.000000000               0.000472013               0.001664207              -0.000000000              -0.000031021               0.000565071               0.000534050               0.000000000               0.000000000               0.000000000               0.000000000               0.000493339               0.001746285               0.000000000              -0.000033284               0.000593184               0.000559900               0.000000000               0.000000000               0.000000000               0.000000000               0.000512377               0.001816604              -0.000000000              -0.000034934               0.000617173               0.000582239               0.000000000               0.000000000               0.000000000               0.000000000               0.000521102               0.001848181               0.000000000              -0.000035609               0.000627924               0.000592315               0.000000000               0.000000000               0.000000000               0.000000000               0.000115334               0.001277694               0.000000000              -0.000116461               0.000464714               0.000348253               0.000000000               0.000000000               0.000000000               0.000000000               0.000138645               0.001082640              -0.000000000              -0.000083338               0.000388656               0.000305318               0.000000000               0.000000000               0.000000000               0.000000000               0.000205525               0.000934317              -0.000000000              -0.000039718               0.000324675               0.000284957               0.000000000               0.000000000               0.000000000               0.000000000               0.000235184               0.000855803               0.000000000              -0.000018781               0.000291525               0.000272744               0.000000000               0.000000000               0.000000000               0.000000000               0.000249921               0.000809123               0.000000000              -0.000007420               0.000272178               0.000264758               0.000000000               0.000000000               0.000000000               0.000000000               0.000256516               0.000784035               0.000000000              -0.000001811               0.000261946               0.000260135               0.000000000               0.000000000               0.000000000               0.000000000               0.000257716               0.000770686               0.000000000               0.000000308               0.000256790               0.000257098               0.000000000               0.000000000               0.000000000               0.000000000               0.000257197               0.000760616               0.000000000               0.000001372               0.000253079               0.000254451               0.000000000               0.000000000               0.000000000               0.000000000               0.000258667               0.000748971              -0.000000000               0.000003379               0.000248528               0.000251907               0.000000000               0.000000000               0.000000000               0.000000000               0.000253290               0.000737660              -0.000000000               0.000002776               0.000244959               0.000247735               0.000000000               0.000000000               0.000000000               0.000000000               0.000234738               0.000735174              -0.000000000              -0.000003870               0.000246345               0.000242476               0.000000000               0.000000000               0.000000000               0.000000000               0.000209140               0.000740344              -0.000000000              -0.000014116               0.000251484               0.000237369               0.000000000               0.000000000               0.000000000               0.000000000               0.000178801               0.000753239               0.000000000              -0.000027104               0.000260112               0.000233008               0.000000000               0.000000000               0.000000000               0.000000000               0.000140110               0.000773093               0.000000000              -0.000044095               0.000272394               0.000228298               0.000000000               0.000000000               0.000000000               0.000000000               0.000096547               0.000799002               0.000000000              -0.000063670               0.000287555               0.000223885               0.000000000               0.000000000               0.000000000               0.000000000               0.000050106               0.000831192               0.000000000              -0.000085109               0.000305431               0.000220322               0.000000000               0.000000000               0.000000000               0.000000000               0.000029857               0.000859589               0.000000000              -0.000096252               0.000318611               0.000222359               0.000000000               0.000000000               0.000000000               0.000000000               0.000121486               0.001256575              -0.000100925              -0.000111514               0.000456026               0.000344511               0.000000000               0.000000000               0.000000000               0.000000000               0.000142444               0.001069683              -0.000068794              -0.000080293               0.000383322               0.000303028               0.000000000               0.000000000               0.000000000               0.000000000               0.000206581               0.000925548              -0.000034237              -0.000038225               0.000321255               0.000283029               0.000000000               0.000000000               0.000000000               0.000000000               0.000233346               0.000850484              -0.000018510              -0.000018806               0.000289760               0.000270955               0.000000000               0.000000000               0.000000000               0.000000000               0.000245544               0.000807592              -0.000010572              -0.000008870               0.000272151               0.000263281               0.000000000               0.000000000               0.000000000               0.000000000               0.000251706               0.000785681              -0.000006085              -0.000003820               0.000263165               0.000259344               0.000000000               0.000000000               0.000000000               0.000000000               0.000251466               0.000773878              -0.000006527              -0.000002435               0.000258768               0.000256333               0.000000000               0.000000000               0.000000000               0.000000000               0.000248679               0.000765838              -0.000012132              -0.000002475               0.000256102               0.000253627               0.000000000               0.000000000               0.000000000               0.000000000               0.000246977               0.000755722              -0.000019393              -0.000001849               0.000252521               0.000250672               0.000000000               0.000000000               0.000000000               0.000000000               0.000241891               0.000747765              -0.000020895              -0.000002761               0.000250173               0.000247412               0.000000000               0.000000000               0.000000000               0.000000000               0.000225325               0.000746790              -0.000019829              -0.000008852               0.000251878               0.000243026               0.000000000               0.000000000               0.000000000               0.000000000               0.000198851               0.000751150              -0.000019733              -0.000019325               0.000256822               0.000237498               0.000000000               0.000000000               0.000000000               0.000000000               0.000167965               0.000762873              -0.000017634              -0.000032372               0.000265079               0.000232707               0.000000000               0.000000000               0.000000000               0.000000000               0.000130675               0.000780693              -0.000014902              -0.000048583               0.000276423               0.000227840               0.000000000               0.000000000               0.000000000               0.000000000               0.000088835               0.000803417              -0.000011749              -0.000067114               0.000290174               0.000223061               0.000000000               0.000000000               0.000000000               0.000000000               0.000045574               0.000831041              -0.000006920              -0.000086790               0.000305941               0.000219151               0.000000000               0.000000000               0.000000000               0.000000000               0.000026981               0.000854814              -0.000004817              -0.000096734               0.000317180               0.000220446               0.000000000               0.000000000               0.000000000               0.000000000               0.000146301               0.001201204              -0.000189721              -0.000095288               0.000432160               0.000336872               0.000000000               0.000000000               0.000000000               0.000000000               0.000155124               0.001031706              -0.000129267              -0.000070792               0.000367496               0.000296704               0.000000000               0.000000000               0.000000000               0.000000000               0.000206201               0.000904306              -0.000065367              -0.000035713               0.000313337               0.000277624               0.000000000               0.000000000               0.000000000               0.000000000               0.000227901               0.000838166              -0.000036333              -0.000019308               0.000285822               0.000266514               0.000000000               0.000000000               0.000000000               0.000000000               0.000236875               0.000803478              -0.000020848              -0.000011606               0.000271692               0.000260086               0.000000000               0.000000000               0.000000000               0.000000000               0.000237467               0.000788436              -0.000013176              -0.000009504               0.000265978               0.000256473               0.000000000               0.000000000               0.000000000               0.000000000               0.000233298               0.000782873              -0.000013879              -0.000010372               0.000264413               0.000254040               0.000000000               0.000000000               0.000000000               0.000000000               0.000230082               0.000780232              -0.000023789              -0.000011248               0.000263824               0.000252576               0.000000000               0.000000000               0.000000000               0.000000000               0.000223957               0.000774503              -0.000035544              -0.000012829               0.000262441               0.000249613               0.000000000               0.000000000               0.000000000               0.000000000               0.000212304               0.000773131              -0.000036814              -0.000017027               0.000263384               0.000246356               0.000000000               0.000000000               0.000000000               0.000000000               0.000194451               0.000777475              -0.000034536              -0.000024265               0.000267244               0.000242979               0.000000000               0.000000000               0.000000000               0.000000000               0.000171208               0.000784996              -0.000032489              -0.000033922               0.000272970               0.000239048               0.000000000               0.000000000               0.000000000               0.000000000               0.000143802               0.000796844              -0.000027145              -0.000045680               0.000280838               0.000235159               0.000000000               0.000000000               0.000000000               0.000000000               0.000110852               0.000811599              -0.000021385              -0.000059880               0.000290490               0.000230610               0.000000000               0.000000000               0.000000000               0.000000000               0.000075146               0.000829760              -0.000015109              -0.000075540               0.000301764               0.000226224               0.000000000               0.000000000               0.000000000               0.000000000               0.000038648               0.000851323              -0.000007741              -0.000091922               0.000314412               0.000222490               0.000000000               0.000000000               0.000000000               0.000000000               0.000023331               0.000869900              -0.000005515              -0.000099988               0.000323293               0.000223305               0.000000000               0.000000000               0.000000000               0.000000000               0.000181327               0.001121042              -0.000259921              -0.000072133               0.000397721               0.000325588               0.000000000               0.000000000               0.000000000               0.000000000               0.000171206               0.000971446              -0.000177952              -0.000057228               0.000342888               0.000285660               0.000000000               0.000000000               0.000000000               0.000000000               0.000203096               0.000872800              -0.000091791              -0.000032939               0.000301910               0.000268971               0.000000000               0.000000000               0.000000000               0.000000000               0.000217639               0.000821949              -0.000052189              -0.000021129               0.000281023               0.000259894               0.000000000               0.000000000               0.000000000               0.000000000               0.000222972               0.000798410              -0.000031685              -0.000016187               0.000271530               0.000255343               0.000000000               0.000000000               0.000000000               0.000000000               0.000219461               0.000793304              -0.000021449              -0.000016865               0.000270054               0.000253189               0.000000000               0.000000000               0.000000000               0.000000000               0.000212252               0.000795255              -0.000022454              -0.000019812               0.000271686               0.000251874               0.000000000               0.000000000               0.000000000               0.000000000               0.000205964               0.000797321              -0.000035546              -0.000022429               0.000273247               0.000250819               0.000000000               0.000000000               0.000000000               0.000000000               0.000196160               0.000801491              -0.000048301              -0.000026626               0.000276037               0.000249410               0.000000000               0.000000000               0.000000000               0.000000000               0.000181496               0.000812983              -0.000046992              -0.000033562               0.000282179               0.000248617               0.000000000               0.000000000               0.000000000               0.000000000               0.000164014               0.000828061              -0.000042537              -0.000042002               0.000290018               0.000248016               0.000000000               0.000000000               0.000000000               0.000000000               0.000141045               0.000843996              -0.000039711              -0.000052608               0.000298865               0.000246258               0.000000000               0.000000000               0.000000000               0.000000000               0.000113611               0.000860561              -0.000033636              -0.000064966               0.000308506               0.000243540               0.000000000               0.000000000               0.000000000               0.000000000               0.000085082               0.000878866              -0.000026730              -0.000077952               0.000318936               0.000240984               0.000000000               0.000000000               0.000000000               0.000000000               0.000056853               0.000899705              -0.000018962              -0.000091143               0.000330280               0.000239137               0.000000000               0.000000000               0.000000000               0.000000000               0.000029066               0.000923626              -0.000009740              -0.000104553               0.000342723               0.000238170               0.000000000               0.000000000               0.000000000               0.000000000               0.000019355               0.000943923              -0.000007318              -0.000110732               0.000351548               0.000240816               0.000000000               0.000000000               0.000000000               0.000000000               0.000214235               0.001018077              -0.000312674              -0.000046922               0.000354996               0.000308074               0.000000000               0.000000000               0.000000000               0.000000000               0.000184787               0.000897942              -0.000213250              -0.000042948               0.000313627               0.000270679               0.000000000               0.000000000               0.000000000               0.000000000               0.000198152               0.000834922              -0.000110456              -0.000030058               0.000288324               0.000258266               0.000000000               0.000000000               0.000000000               0.000000000               0.000203471               0.000804821              -0.000065548              -0.000024301               0.000276371               0.000252070               0.000000000               0.000000000               0.000000000               0.000000000               0.000204253               0.000797375              -0.000042529              -0.000023077               0.000273481               0.000250404               0.000000000               0.000000000               0.000000000               0.000000000               0.000200095               0.000802113              -0.000031448              -0.000025228               0.000275778               0.000250549               0.000000000               0.000000000               0.000000000               0.000000000               0.000192650               0.000809860              -0.000033694              -0.000028988               0.000279613               0.000250625               0.000000000               0.000000000               0.000000000               0.000000000               0.000187790               0.000820930              -0.000046566              -0.000032195               0.000284372               0.000252177               0.000000000               0.000000000               0.000000000               0.000000000               0.000179598               0.000839205              -0.000056414              -0.000037551               0.000292249               0.000254698               0.000000000               0.000000000               0.000000000               0.000000000               0.000164500               0.000868279              -0.000053738              -0.000046847               0.000305039               0.000258192               0.000000000               0.000000000               0.000000000               0.000000000               0.000142795               0.000898764              -0.000049071              -0.000058797               0.000319184               0.000260387               0.000000000               0.000000000               0.000000000               0.000000000               0.000116207               0.000930053              -0.000046030              -0.000072679               0.000334241               0.000261562               0.000000000               0.000000000               0.000000000               0.000000000               0.000089906               0.000962054              -0.000039721              -0.000086542               0.000349529               0.000262987               0.000000000               0.000000000               0.000000000               0.000000000               0.000064132               0.000994581              -0.000032158              -0.000100273               0.000364948               0.000264675               0.000000000               0.000000000               0.000000000               0.000000000               0.000041619               0.001028066              -0.000023339              -0.000112901               0.000380319               0.000267418               0.000000000               0.000000000               0.000000000               0.000000000               0.000022416               0.001062254              -0.000012006              -0.000124375               0.000395539               0.000271164               0.000000000               0.000000000               0.000000000               0.000000000               0.000017723               0.001087548              -0.000008908              -0.000129297               0.000405612               0.000276314               0.000000000               0.000000000               0.000000000               0.000000000               0.000248544               0.000901277              -0.000341660              -0.000019456               0.000306908               0.000287452               0.000000000               0.000000000               0.000000000               0.000000000               0.000195868               0.000820863              -0.000232980              -0.000029158               0.000283337               0.000254180               0.000000000               0.000000000               0.000000000               0.000000000               0.000187999               0.000799614              -0.000123487              -0.000029452               0.000276353               0.000246901               0.000000000               0.000000000               0.000000000               0.000000000               0.000187404               0.000792439              -0.000076541              -0.000028778               0.000273737               0.000244958               0.000000000               0.000000000               0.000000000               0.000000000               0.000184313               0.000802176              -0.000053516              -0.000031154               0.000277774               0.000246620               0.000000000               0.000000000               0.000000000               0.000000000               0.000179350               0.000818525              -0.000043955              -0.000035059               0.000284525               0.000249466               0.000000000               0.000000000               0.000000000               0.000000000               0.000178584               0.000837945              -0.000045737              -0.000037774               0.000291904               0.000254130               0.000000000               0.000000000               0.000000000               0.000000000               0.000179420               0.000862377              -0.000056716              -0.000040515               0.000300961               0.000260447               0.000000000               0.000000000               0.000000000               0.000000000               0.000173356               0.000900521              -0.000061949              -0.000047557               0.000316023               0.000268466               0.000000000               0.000000000               0.000000000               0.000000000               0.000159845               0.000950781              -0.000055372              -0.000058905               0.000336559               0.000277654               0.000000000               0.000000000               0.000000000               0.000000000               0.000139496               0.001003246              -0.000050197              -0.000073094               0.000358777               0.000285682               0.000000000               0.000000000               0.000000000               0.000000000               0.000113375               0.001053740              -0.000046227              -0.000089202               0.000380977               0.000291775               0.000000000               0.000000000               0.000000000               0.000000000               0.000085568               0.001103713              -0.000039789              -0.000105876               0.000403192               0.000297317               0.000000000               0.000000000               0.000000000               0.000000000               0.000058972               0.001151519              -0.000031783              -0.000121825               0.000424444               0.000302619               0.000000000               0.000000000               0.000000000               0.000000000               0.000039005               0.001198846              -0.000022523              -0.000135229               0.000444688               0.000309459               0.000000000               0.000000000               0.000000000               0.000000000               0.000021408               0.001243504              -0.000011423              -0.000147410               0.000463634               0.000316224               0.000000000               0.000000000               0.000000000               0.000000000               0.000017169               0.001273095              -0.000008723              -0.000152698               0.000475260               0.000322562               0.000000000               0.000000000               0.000000000               0.000000000               0.000274071               0.000782376              -0.000346192               0.000004979               0.000259129               0.000264108               0.000000000               0.000000000               0.000000000               0.000000000               0.000203414               0.000744386              -0.000239425              -0.000016768               0.000253715               0.000236947               0.000000000               0.000000000               0.000000000               0.000000000               0.000175889               0.000768668              -0.000132058              -0.000030125               0.000266262               0.000236137               0.000000000               0.000000000               0.000000000               0.000000000               0.000169755               0.000786868              -0.000086276              -0.000034700               0.000273854               0.000239153               0.000000000               0.000000000               0.000000000               0.000000000               0.000166263               0.000815607              -0.000064857              -0.000039602               0.000285067               0.000245465               0.000000000               0.000000000               0.000000000               0.000000000               0.000165423               0.000849051              -0.000055448              -0.000044098               0.000297713               0.000253616               0.000000000               0.000000000               0.000000000               0.000000000               0.000170135               0.000888310              -0.000055878              -0.000047238               0.000311846               0.000264608               0.000000000               0.000000000               0.000000000               0.000000000               0.000178136               0.000939553              -0.000061512              -0.000050643               0.000330062               0.000279419               0.000000000               0.000000000               0.000000000               0.000000000               0.000178748               0.001004674              -0.000060267              -0.000058554               0.000354406               0.000295852               0.000000000               0.000000000               0.000000000               0.000000000               0.000165469               0.001074722              -0.000051145              -0.000072289               0.000382333               0.000310044               0.000000000               0.000000000               0.000000000               0.000000000               0.000143407               0.001141930              -0.000046412              -0.000088963               0.000410294               0.000321331               0.000000000               0.000000000               0.000000000               0.000000000               0.000117942               0.001204137              -0.000042776              -0.000106289               0.000436804               0.000330516               0.000000000               0.000000000               0.000000000               0.000000000               0.000092686               0.001264573              -0.000036021              -0.000123314               0.000462625               0.000339311               0.000000000               0.000000000               0.000000000               0.000000000               0.000067268               0.001321935              -0.000028212              -0.000140016               0.000487313               0.000347297               0.000000000               0.000000000               0.000000000               0.000000000               0.000045043               0.001375666              -0.000018836              -0.000155067               0.000510240               0.000355173               0.000000000               0.000000000               0.000000000               0.000000000               0.000023406               0.001423470              -0.000009514              -0.000169156               0.000530870               0.000361714               0.000000000               0.000000000               0.000000000               0.000000000               0.000016831               0.001453506              -0.000008294              -0.000175376               0.000542956               0.000367580               0.000000000               0.000000000               0.000000000               0.000000000               0.000283908               0.000664458              -0.000332592               0.000023408               0.000213681               0.000237089               0.000000000               0.000000000               0.000000000               0.000000000               0.000204695               0.000674083              -0.000235981              -0.000007500               0.000227192               0.000219692               0.000000000               0.000000000               0.000000000               0.000000000               0.000165683               0.000743260              -0.000137394              -0.000030776               0.000258010               0.000227233               0.000000000               0.000000000               0.000000000               0.000000000               0.000157896               0.000789629              -0.000096256              -0.000039493               0.000276371               0.000236878               0.000000000               0.000000000               0.000000000               0.000000000               0.000156170               0.000841772              -0.000075752              -0.000046658               0.000296141               0.000249483               0.000000000               0.000000000               0.000000000               0.000000000               0.000162686               0.000901027              -0.000064699              -0.000051621               0.000317546               0.000265925               0.000000000               0.000000000               0.000000000               0.000000000               0.000178900               0.000970808              -0.000060089              -0.000054263               0.000341687               0.000287424               0.000000000               0.000000000               0.000000000               0.000000000               0.000192727               0.001049405              -0.000060581              -0.000058903               0.000369432               0.000310529               0.000000000               0.000000000               0.000000000               0.000000000               0.000191139               0.001133171              -0.000057321              -0.000069969               0.000401043               0.000331074               0.000000000               0.000000000               0.000000000               0.000000000               0.000174379               0.001216303              -0.000048804              -0.000086645               0.000434312               0.000347667               0.000000000               0.000000000               0.000000000               0.000000000               0.000150220               0.001289547              -0.000044772              -0.000104861               0.000464798               0.000359938               0.000000000               0.000000000               0.000000000               0.000000000               0.000123542               0.001356679              -0.000040115              -0.000123256               0.000493307               0.000370051               0.000000000               0.000000000               0.000000000               0.000000000               0.000099297               0.001421732              -0.000030414              -0.000140480               0.000520732               0.000380253               0.000000000               0.000000000               0.000000000               0.000000000               0.000075093               0.001484273              -0.000021173              -0.000157374               0.000547211               0.000389837               0.000000000               0.000000000               0.000000000               0.000000000               0.000049532               0.001541029              -0.000013033              -0.000174054               0.000571689               0.000397635               0.000000000               0.000000000               0.000000000               0.000000000               0.000024585               0.001590313              -0.000005718              -0.000189569               0.000593289               0.000403720               0.000000000               0.000000000               0.000000000               0.000000000               0.000015279               0.001621388              -0.000005276              -0.000196943               0.000606105               0.000409162               0.000000000               0.000000000               0.000000000               0.000000000               0.000289686               0.000558310              -0.000304083               0.000038843               0.000173154               0.000211996               0.000000000               0.000000000               0.000000000               0.000000000               0.000205377               0.000613648              -0.000228230               0.000000310               0.000204444               0.000204754               0.000000000               0.000000000               0.000000000               0.000000000               0.000160552               0.000724674              -0.000146472              -0.000030377               0.000251681               0.000221304               0.000000000               0.000000000               0.000000000               0.000000000               0.000153960               0.000797491              -0.000107764              -0.000041951               0.000279812               0.000237860               0.000000000               0.000000000               0.000000000               0.000000000               0.000157484               0.000874213              -0.000085604              -0.000050220               0.000308141               0.000257921               0.000000000               0.000000000               0.000000000               0.000000000               0.000172439               0.000959639              -0.000071139              -0.000055290               0.000338307               0.000283016               0.000000000               0.000000000               0.000000000               0.000000000               0.000196805               0.001049568              -0.000063482              -0.000057394               0.000368984               0.000311590               0.000000000               0.000000000               0.000000000               0.000000000               0.000214507               0.001140090              -0.000059959              -0.000062071               0.000400717               0.000338646               0.000000000               0.000000000               0.000000000               0.000000000               0.000212588               0.001236336              -0.000054817              -0.000074821               0.000437048               0.000362227               0.000000000               0.000000000               0.000000000               0.000000000               0.000193649               0.001324903              -0.000047787              -0.000092994               0.000472628               0.000379634               0.000000000               0.000000000               0.000000000               0.000000000               0.000168405               0.001398099              -0.000042692              -0.000111610               0.000503232               0.000391621               0.000000000               0.000000000               0.000000000               0.000000000               0.000142087               0.001468062              -0.000035101              -0.000130225               0.000532757               0.000402533               0.000000000               0.000000000               0.000000000               0.000000000               0.000115889               0.001538684              -0.000023570              -0.000148877               0.000562515               0.000413638               0.000000000               0.000000000               0.000000000               0.000000000               0.000090352               0.001605697              -0.000013022              -0.000166830               0.000590837               0.000424007               0.000000000               0.000000000               0.000000000               0.000000000               0.000065056               0.001667997              -0.000005033              -0.000184103               0.000617361               0.000433258               0.000000000               0.000000000               0.000000000               0.000000000               0.000045713               0.001728661               0.000000584              -0.000198940               0.000642528               0.000443588               0.000000000               0.000000000               0.000000000               0.000000000               0.000036586               0.001761511               0.000002305              -0.000206468               0.000655987               0.000449519               0.000000000               0.000000000               0.000000000               0.000000000               0.000284496               0.000457153              -0.000268663               0.000049541               0.000135869               0.000185410               0.000000000               0.000000000               0.000000000               0.000000000               0.000207903               0.000540595              -0.000220930               0.000010389               0.000176734               0.000187123               0.000000000               0.000000000               0.000000000               0.000000000               0.000162872               0.000683745              -0.000162270              -0.000024391               0.000236043               0.000211652               0.000000000               0.000000000               0.000000000               0.000000000               0.000159056               0.000779961              -0.000125684              -0.000037849               0.000272601               0.000234752               0.000000000               0.000000000               0.000000000               0.000000000               0.000168217               0.000877574              -0.000103468              -0.000046615               0.000308060               0.000261445               0.000000000               0.000000000               0.000000000               0.000000000               0.000187326               0.000979466              -0.000088192              -0.000052186               0.000343881               0.000291695               0.000000000               0.000000000               0.000000000               0.000000000               0.000214947               0.001081691              -0.000078361              -0.000054606               0.000378762               0.000324156               0.000000000               0.000000000               0.000000000               0.000000000               0.000237935               0.001178120              -0.000067718              -0.000058039               0.000412049               0.000354010               0.000000000               0.000000000               0.000000000               0.000000000               0.000242508               0.001269108              -0.000057797              -0.000067698               0.000445598               0.000377900               0.000000000               0.000000000               0.000000000               0.000000000               0.000228391               0.001353509              -0.000051129              -0.000083542               0.000479012               0.000395471               0.000000000               0.000000000               0.000000000               0.000000000               0.000205912               0.001428888              -0.000044837              -0.000101394               0.000510089               0.000408695               0.000000000               0.000000000               0.000000000               0.000000000               0.000180793               0.001497950              -0.000035457              -0.000119446               0.000539127               0.000419681               0.000000000               0.000000000               0.000000000               0.000000000               0.000155195               0.001568154              -0.000024857              -0.000137821               0.000568653               0.000430832               0.000000000               0.000000000               0.000000000               0.000000000               0.000131673               0.001639252              -0.000014697              -0.000155529               0.000598255               0.000442726               0.000000000               0.000000000               0.000000000               0.000000000               0.000111992               0.001715376              -0.000006204              -0.000172425               0.000629261               0.000456837               0.000000000               0.000000000               0.000000000               0.000000000               0.000096227               0.001792272              -0.000000960              -0.000187949               0.000660068               0.000472119               0.000000000               0.000000000               0.000000000               0.000000000               0.000082469               0.001823625               0.000003162              -0.000197027               0.000673545               0.000476518               0.000000000               0.000000000               0.000000000               0.000000000               0.000263467               0.000360719              -0.000230878               0.000053709               0.000102335               0.000156045               0.000000000               0.000000000               0.000000000               0.000000000               0.000211179               0.000465420              -0.000210135               0.000021014               0.000148134               0.000169148               0.000000000               0.000000000               0.000000000               0.000000000               0.000172956               0.000630005              -0.000175507              -0.000013892               0.000214630               0.000200738               0.000000000               0.000000000               0.000000000               0.000000000               0.000174354               0.000748970              -0.000145433              -0.000028239               0.000259067               0.000230828               0.000000000               0.000000000               0.000000000               0.000000000               0.000187520               0.000862593              -0.000123807              -0.000037504               0.000300030               0.000262526               0.000000000               0.000000000               0.000000000               0.000000000               0.000206921               0.000976903              -0.000106848              -0.000044517               0.000340470               0.000295953               0.000000000               0.000000000               0.000000000               0.000000000               0.000229551               0.001089746              -0.000092369              -0.000050136               0.000379957               0.000329821               0.000000000               0.000000000               0.000000000               0.000000000               0.000251670               0.001185681              -0.000076250              -0.000053834               0.000413168               0.000359334               0.000000000               0.000000000               0.000000000               0.000000000               0.000264738               0.001268764              -0.000061471              -0.000059319               0.000442690               0.000383371               0.000000000               0.000000000               0.000000000               0.000000000               0.000263284               0.001351921              -0.000051780              -0.000070258               0.000474055               0.000403797               0.000000000               0.000000000               0.000000000               0.000000000               0.000250478               0.001432741              -0.000044975              -0.000085163               0.000505963               0.000420800               0.000000000               0.000000000               0.000000000               0.000000000               0.000232024               0.001503513              -0.000036437              -0.000100930               0.000534809               0.000433879               0.000000000               0.000000000               0.000000000               0.000000000               0.000212209               0.001570775              -0.000028855              -0.000116768               0.000562509               0.000445741               0.000000000               0.000000000               0.000000000               0.000000000               0.000193794               0.001643520              -0.000021715              -0.000132767               0.000592090               0.000459323               0.000000000               0.000000000               0.000000000               0.000000000               0.000178276               0.001723292              -0.000013415              -0.000148558               0.000623944               0.000475387               0.000000000               0.000000000               0.000000000               0.000000000               0.000160923               0.001798999              -0.000004867              -0.000164528               0.000654503               0.000489975               0.000000000               0.000000000               0.000000000               0.000000000               0.000142852               0.001828138               0.000002413              -0.000174947               0.000667689               0.000492742               0.000000000               0.000000000               0.000000000               0.000000000               0.000234663               0.000270334              -0.000188678               0.000054206               0.000072042               0.000126248               0.000000000               0.000000000               0.000000000               0.000000000               0.000210599               0.000389241              -0.000191321               0.000030319               0.000119639               0.000149958               0.000000000               0.000000000               0.000000000               0.000000000               0.000190677               0.000568509              -0.000180139               0.000000440               0.000189354               0.000189794               0.000000000               0.000000000               0.000000000               0.000000000               0.000199485               0.000708349              -0.000159789              -0.000013737               0.000240693               0.000226956               0.000000000               0.000000000               0.000000000               0.000000000               0.000212990               0.000835654              -0.000139442              -0.000024585               0.000286744               0.000262158               0.000000000               0.000000000               0.000000000               0.000000000               0.000229464               0.000962892              -0.000120630              -0.000034313               0.000332398               0.000298086               0.000000000               0.000000000               0.000000000               0.000000000               0.000247184               0.001080702              -0.000103139              -0.000042394               0.000374362               0.000331968               0.000000000               0.000000000               0.000000000               0.000000000               0.000265017               0.001175319              -0.000083543              -0.000047534               0.000407613               0.000360080               0.000000000               0.000000000               0.000000000               0.000000000               0.000280346               0.001256672              -0.000064483              -0.000051954               0.000436205               0.000384250               0.000000000               0.000000000               0.000000000               0.000000000               0.000290617               0.001342586              -0.000052160              -0.000058842               0.000467138               0.000408296               0.000000000               0.000000000               0.000000000               0.000000000               0.000291050               0.001429707              -0.000044424              -0.000069570               0.000499754               0.000430185               0.000000000               0.000000000               0.000000000               0.000000000               0.000284870               0.001509292              -0.000038222              -0.000081835               0.000530371               0.000448536               0.000000000               0.000000000               0.000000000               0.000000000               0.000276021               0.001584671              -0.000033296              -0.000094576               0.000559743               0.000465168               0.000000000               0.000000000               0.000000000               0.000000000               0.000263131               0.001657207              -0.000028336              -0.000108476               0.000588556               0.000480079               0.000000000               0.000000000               0.000000000               0.000000000               0.000247166               0.001727830              -0.000019774              -0.000123291               0.000617035               0.000493743               0.000000000               0.000000000               0.000000000               0.000000000               0.000230296               0.001800619              -0.000009507              -0.000138716               0.000646439               0.000507723               0.000000000               0.000000000               0.000000000               0.000000000               0.000212784               0.001831691              -0.000001474              -0.000149167               0.000660280               0.000511113               0.000000000               0.000000000               0.000000000               0.000000000               0.000199305               0.000196705              -0.000143198               0.000050151               0.000048851               0.000099002               0.000000000               0.000000000               0.000000000               0.000000000               0.000207844               0.000318047              -0.000164630               0.000038185               0.000093286               0.000131471               0.000000000               0.000000000               0.000000000               0.000000000               0.000214169               0.000503265              -0.000174074               0.000017405               0.000161952               0.000179356               0.000000000               0.000000000               0.000000000               0.000000000               0.000228620               0.000657727              -0.000161096               0.000003516               0.000218068               0.000221584               0.000000000               0.000000000               0.000000000               0.000000000               0.000241912               0.000798176              -0.000142249              -0.000009055               0.000269074               0.000260019               0.000000000               0.000000000               0.000000000               0.000000000               0.000256569               0.000930995              -0.000124702              -0.000020161               0.000317049               0.000296888               0.000000000               0.000000000               0.000000000               0.000000000               0.000269220               0.001046722              -0.000106823              -0.000029883               0.000358865               0.000328982               0.000000000               0.000000000               0.000000000               0.000000000               0.000280703               0.001143977              -0.000086197              -0.000037733               0.000393899               0.000356166               0.000000000               0.000000000               0.000000000               0.000000000               0.000297826               0.001237660              -0.000066585              -0.000043023               0.000426890               0.000383867               0.000000000               0.000000000               0.000000000               0.000000000               0.000316590               0.001333844              -0.000052625              -0.000048009               0.000460613               0.000412604               0.000000000               0.000000000               0.000000000               0.000000000               0.000328662               0.001427702              -0.000043951              -0.000055214               0.000494301               0.000439086               0.000000000               0.000000000               0.000000000               0.000000000               0.000335077               0.001518014              -0.000039255              -0.000064098               0.000527366               0.000463268               0.000000000               0.000000000               0.000000000               0.000000000               0.000336141               0.001599098              -0.000034591              -0.000073834               0.000557639               0.000483805               0.000000000               0.000000000               0.000000000               0.000000000               0.000329318               0.001666430              -0.000028520              -0.000084809               0.000583741               0.000498932               0.000000000               0.000000000               0.000000000               0.000000000               0.000318144               0.001728844              -0.000021265              -0.000096801               0.000608543               0.000511741               0.000000000               0.000000000               0.000000000               0.000000000               0.000308488               0.001798666              -0.000012637              -0.000109150               0.000635933               0.000526783               0.000000000               0.000000000               0.000000000               0.000000000               0.000295300               0.001829994              -0.000004926              -0.000118011               0.000649329               0.000531318               0.000000000               0.000000000               0.000000000               0.000000000               0.000161348               0.000138555              -0.000100468               0.000043186               0.000031789               0.000074975               0.000000000               0.000000000               0.000000000               0.000000000               0.000206502               0.000255505              -0.000131491               0.000045500               0.000070001               0.000115501               0.000000000               0.000000000               0.000000000               0.000000000               0.000238701               0.000438813              -0.000152460               0.000034661               0.000134716               0.000169377               0.000000000               0.000000000               0.000000000               0.000000000               0.000257522               0.000601492              -0.000144406               0.000021384               0.000193367               0.000214751               0.000000000               0.000000000               0.000000000               0.000000000               0.000273122               0.000748985              -0.000129729               0.000008797               0.000246727               0.000255524               0.000000000               0.000000000               0.000000000               0.000000000               0.000286479               0.000882372              -0.000114427              -0.000002867               0.000295077               0.000292210               0.000000000               0.000000000               0.000000000               0.000000000               0.000293155               0.001000763              -0.000097248              -0.000015162               0.000338639               0.000323476               0.000000000               0.000000000               0.000000000               0.000000000               0.000302544               0.001110472              -0.000080376              -0.000025355               0.000378605               0.000353250               0.000000000               0.000000000               0.000000000               0.000000000               0.000321012               0.001219719              -0.000065285              -0.000032085               0.000417264               0.000385179               0.000000000               0.000000000               0.000000000               0.000000000               0.000342361               0.001323114              -0.000051489              -0.000037004               0.000453368               0.000416364               0.000000000               0.000000000               0.000000000               0.000000000               0.000360596               0.001420692              -0.000041101              -0.000042363               0.000487680               0.000445317               0.000000000               0.000000000               0.000000000               0.000000000               0.000374590               0.001514970              -0.000035192              -0.000048900               0.000521285               0.000472385               0.000000000               0.000000000               0.000000000               0.000000000               0.000383439               0.001597556              -0.000029411              -0.000055905               0.000551148               0.000495243               0.000000000               0.000000000               0.000000000               0.000000000               0.000387353               0.001668523              -0.000022994              -0.000063308               0.000577271               0.000513964               0.000000000               0.000000000               0.000000000               0.000000000               0.000389261               0.001736387              -0.000018669              -0.000071075               0.000602482               0.000531406               0.000000000               0.000000000               0.000000000               0.000000000               0.000389912               0.001803295              -0.000012181              -0.000079195               0.000627490               0.000548296               0.000000000               0.000000000               0.000000000               0.000000000               0.000383910               0.001832172              -0.000005520              -0.000085055               0.000639070               0.000554015               0.000000000               0.000000000               0.000000000               0.000000000               0.000131959               0.000097263              -0.000063691               0.000037326               0.000019979               0.000057305               0.000000000               0.000000000               0.000000000               0.000000000               0.000207019               0.000208392              -0.000092125               0.000051582               0.000052269               0.000103852               0.000000000               0.000000000               0.000000000               0.000000000               0.000259632               0.000383661              -0.000113588               0.000049404               0.000111418               0.000160822               0.000000000               0.000000000               0.000000000               0.000000000               0.000284844               0.000547234              -0.000110603               0.000038412               0.000169605               0.000208017               0.000000000               0.000000000               0.000000000               0.000000000               0.000301638               0.000698731              -0.000100528               0.000025773               0.000224317               0.000250090               0.000000000               0.000000000               0.000000000               0.000000000               0.000310021               0.000834878              -0.000087380               0.000011898               0.000274324               0.000286222               0.000000000               0.000000000               0.000000000               0.000000000               0.000318024               0.000959285              -0.000074897              -0.000000652               0.000319976               0.000319324               0.000000000               0.000000000               0.000000000               0.000000000               0.000330061               0.001080778              -0.000064740              -0.000011324               0.000364031               0.000352706               0.000000000               0.000000000               0.000000000               0.000000000               0.000346552               0.001198661              -0.000054102              -0.000019876               0.000406175               0.000386299               0.000000000               0.000000000               0.000000000               0.000000000               0.000364005               0.001303477              -0.000041360              -0.000026433               0.000443299               0.000416866               0.000000000               0.000000000               0.000000000               0.000000000               0.000383758               0.001404121              -0.000030775              -0.000031606               0.000478571               0.000446965               0.000000000               0.000000000               0.000000000               0.000000000               0.000403167               0.001501483              -0.000025217              -0.000036498               0.000512655               0.000476158               0.000000000               0.000000000               0.000000000               0.000000000               0.000419128               0.001588221              -0.000020497              -0.000041355               0.000543186               0.000501832               0.000000000               0.000000000               0.000000000               0.000000000               0.000433853               0.001668322              -0.000015573              -0.000045845               0.000571384               0.000525538               0.000000000               0.000000000               0.000000000               0.000000000               0.000447567               0.001744064              -0.000012443              -0.000050170               0.000598072               0.000547902               0.000000000               0.000000000               0.000000000               0.000000000               0.000458184               0.001811096              -0.000007579              -0.000054568               0.000621882               0.000567314               0.000000000               0.000000000               0.000000000               0.000000000               0.000460805               0.001840097              -0.000003365              -0.000057210               0.000632429               0.000575220               0.000000000               0.000000000               0.000000000               0.000000000               0.000113845               0.000074000              -0.000032199               0.000033442               0.000013519               0.000046961               0.000000000               0.000000000               0.000000000               0.000000000               0.000207481               0.000178424              -0.000048154               0.000055502               0.000040974               0.000096475               0.000000000               0.000000000               0.000000000               0.000000000               0.000275411               0.000345559              -0.000060583               0.000060084               0.000095157               0.000155241               0.000000000               0.000000000               0.000000000               0.000000000               0.000303871               0.000508758              -0.000060623               0.000050357               0.000152799               0.000203155               0.000000000               0.000000000               0.000000000               0.000000000               0.000318563               0.000660828              -0.000054762               0.000036857               0.000207988               0.000244845               0.000000000               0.000000000               0.000000000               0.000000000               0.000327852               0.000799531              -0.000047130               0.000023003               0.000258840               0.000281843               0.000000000               0.000000000               0.000000000               0.000000000               0.000339228               0.000930969              -0.000041748               0.000010839               0.000306707               0.000317546               0.000000000               0.000000000               0.000000000               0.000000000               0.000351504               0.001058432              -0.000036680              -0.000000490               0.000352970               0.000352481               0.000000000               0.000000000               0.000000000               0.000000000               0.000363662               0.001175905              -0.000030071              -0.000010615               0.000395503               0.000384888               0.000000000               0.000000000               0.000000000               0.000000000               0.000378250               0.001282488              -0.000022408              -0.000018467               0.000433648               0.000415180               0.000000000               0.000000000               0.000000000               0.000000000               0.000400058               0.001390579              -0.000016487              -0.000023801               0.000471455               0.000447655               0.000000000               0.000000000               0.000000000               0.000000000               0.000422637               0.001490597              -0.000013076              -0.000027836               0.000506139               0.000478304               0.000000000               0.000000000               0.000000000               0.000000000               0.000442243               0.001579038              -0.000010047              -0.000031539               0.000536854               0.000505315               0.000000000               0.000000000               0.000000000               0.000000000               0.000462646               0.001665546              -0.000007291              -0.000034701               0.000566743               0.000532042               0.000000000               0.000000000               0.000000000               0.000000000               0.000482349               0.001746005              -0.000005291              -0.000037370               0.000594452               0.000557083               0.000000000               0.000000000               0.000000000               0.000000000               0.000499371               0.001815095              -0.000002634              -0.000039623               0.000618233               0.000578610               0.000000000               0.000000000               0.000000000               0.000000000               0.000506907               0.001845813              -0.000000852              -0.000040636               0.000628810               0.000588174               0.000000000               0.000000000               0.000000000               0.000000000               0.000000000               0.000000000               0.000000000               0.000000000               0.000000000               0.000000000               0.000000000               0.000000000               0.000000000               0.000000000               0.000000000               0.000000000               0.000000000               0.000000000               0.000000000               0.000000000               0.000000000               0.000000000               0.000000000               0.000000000               0.000000000               0.000000000               0.000000000               0.000000000               0.000000000               0.000000000               0.000000000               0.000000000               0.000000000               0.000000000               0.000000000               0.000000000               0.000000000               0.000000000               0.000000000               0.000000000               0.000000000               0.000000000               0.000000000               0.000000000               0.000000000               0.000000000               0.000000000               0.000000000               0.000000000               0.000000000               0.000000000               0.000000000               0.000000000               0.000000000               0.000000000               0.000000000               0.000000000               0.000000000               0.000000000               0.000000000               0.000000000               0.000000000               0.000000000               0.000000000               0.000000000               0.000000000               0.000000000               0.000000000               0.000000000               0.000000000               0.000000000               0.000000000               0.000000000               0.000000000               0.000000000               0.000000000               0.000000000               0.000000000               0.000000000               0.000000000               0.000000000               0.000000000               0.000000000               0.000000000               0.000000000               0.000000000               0.000000000               0.000000000               0.000000000               0.000000000               0.000000000               0.000000000               0.000000000               0.000000000               0.000000000               0.000000000               0.000000000               0.000000000               0.000000000               0.000000000               0.000000000               0.000000000               0.000000000               0.000000000               0.000000000               0.000000000               0.000000000               0.000000000               0.000000000               0.000000000               0.000000000               0.000000000               0.000000000               0.000000000               0.000000000               0.000000000               0.000000000               0.000000000               0.000000000               0.000000000               0.000000000               0.000000000               0.000000000               0.000000000               0.000000000               0.000000000               0.000000000               0.000000000               0.000000000               0.000000000               0.000000000               0.000000000               0.000000000               0.000000000               0.000000000               0.000000000               0.000000000               0.000000000               0.000000000               0.000000000               0.000000000               0.000000000               0.000000000               0.000000000               0.000000000               0.000000000               0.000000000               0.000000000               0.000000000               0.000000000               0.000000000               0.000000000               0.000000000               0.000000000               0.000000000               0.000000000               0.000000000               0.000000000               0.000000000               0.000000000               0.000000000               0.000000000               0.000000000               0.000000000               0.000000000               0.000000000               0.000000000               0.000000000               0.000000000               0.000000000               0.000000000               0.000000000               0.000000000               0.000000000               0.000000000               0.000000000               0.000000000               0.000000000               0.000000000               0.000000000               0.000000000               0.000000000               0.000000000               0.000000000               0.000000000               0.000000000               0.000000000               0.000000000               0.000000000               0.000000000               0.000000000               0.000000000               0.000000000               0.000000000               0.000000000               0.000000000               0.000000000               0.000000000               0.000000000               0.000000000               0.000000000               0.000000000               0.000000000               0.000000000               0.000000000               0.000000000               0.000000000               0.000000000               0.000000000               0.000000000               0.000000000               0.000000000               0.000000000               0.000000000               0.000000000               0.000000000               0.000000000               0.000000000               0.000000000               0.000000000               0.000000000               0.000000000               0.000000000               0.000000000               0.000000000               0.000000000               0.000000000               0.000000000               0.000000000               0.000000000               0.000000000               0.000000000               0.000000000               0.000000000               0.000000000               0.000000000               0.000000000               0.000000000               0.000000000               0.000000000               0.000000000               0.000000000               0.000000000               0.000000000               0.000000000               0.000000000               0.000000000               0.000000000               0.000000000               0.000000000               0.000000000               0.000000000               0.000000000               0.000000000               0.000000000               0.000000000               0.000000000               0.000000000               0.000000000               0.000000000               0.000000000               0.000000000               0.000000000               0.000000000               0.000000000               0.000000000               0.000000000               0.000000000               0.000000000               0.000000000               0.000000000               0.000000000               0.000000000               0.000000000               0.000000000               0.000000000               0.000000000               0.000000000               0.000000000               0.000000000               0.000000000               0.000000000               0.000000000               0.000000000               0.000000000               0.000000000               0.000000000               0.000000000               0.000000000               0.000000000               0.000000000               0.000000000               0.000000000               0.000000000               0.000000000               0.000000000               0.000000000               0.000000000               0.000000000               0.000000000               0.000000000               0.000000000               0.000000000               0.000000000               0.000000000               0.000000000               0.000000000               0.000000000               0.000000000               0.000000000               0.000000000               0.000000000               0.000000000               0.000000000               0.000000000               0.000000000               0.000000000               0.000000000               0.000000000               0.000000000               0.000000000               0.000000000               0.000000000               0.000000000               0.000000000               0.000000000               0.000000000               0.000000000               0.000000000               0.000000000               0.000000000               0.000000000               0.000000000               0.000000000               0.000000000               0.000000000               0.000000000               0.000000000               0.000000000               0.000000000               0.000000000               0.000000000               0.000000000               0.000000000               0.000121486               0.001256575               0.000100925              -0.000111514               0.000456026               0.000344511               0.000000000               0.000000000               0.000000000               0.000000000               0.000142444               0.001069683               0.000068794              -0.000080293               0.000383322               0.000303028               0.000000000               0.000000000               0.000000000               0.000000000               0.000206581               0.000925548               0.000034237              -0.000038225               0.000321255               0.000283029               0.000000000               0.000000000               0.000000000               0.000000000               0.000233346               0.000850484               0.000018510              -0.000018806               0.000289760               0.000270955               0.000000000               0.000000000               0.000000000               0.000000000               0.000245544               0.000807592               0.000010572              -0.000008870               0.000272151               0.000263281               0.000000000               0.000000000               0.000000000               0.000000000               0.000251706               0.000785681               0.000006085              -0.000003820               0.000263165               0.000259344               0.000000000               0.000000000               0.000000000               0.000000000               0.000251466               0.000773878               0.000006527              -0.000002435               0.000258768               0.000256333               0.000000000               0.000000000               0.000000000               0.000000000               0.000248679               0.000765838               0.000012132              -0.000002475               0.000256102               0.000253627               0.000000000               0.000000000               0.000000000               0.000000000               0.000246977               0.000755722               0.000019393              -0.000001849               0.000252521               0.000250672               0.000000000               0.000000000               0.000000000               0.000000000               0.000241891               0.000747765               0.000020895              -0.000002761               0.000250173               0.000247412               0.000000000               0.000000000               0.000000000               0.000000000               0.000225325               0.000746790               0.000019829              -0.000008852               0.000251878               0.000243026               0.000000000               0.000000000               0.000000000               0.000000000               0.000198851               0.000751150               0.000019733              -0.000019325               0.000256822               0.000237498               0.000000000               0.000000000               0.000000000               0.000000000               0.000167965               0.000762873               0.000017634              -0.000032372               0.000265079               0.000232707               0.000000000               0.000000000               0.000000000               0.000000000               0.000130675               0.000780693               0.000014902              -0.000048583               0.000276423               0.000227840               0.000000000               0.000000000               0.000000000               0.000000000               0.000088835               0.000803417               0.000011749              -0.000067114               0.000290174               0.000223061               0.000000000               0.000000000               0.000000000               0.000000000               0.000045574               0.000831041               0.000006920              -0.000086790               0.000305941               0.000219151               0.000000000               0.000000000               0.000000000               0.000000000               0.000026981               0.000854814               0.000004817              -0.000096734               0.000317180               0.000220446               0.000000000               0.000000000               0.000000000               0.000000000               0.000146301               0.001201204               0.000189721              -0.000095288               0.000432160               0.000336872               0.000000000               0.000000000               0.000000000               0.000000000               0.000155124               0.001031706               0.000129267              -0.000070792               0.000367496               0.000296704               0.000000000               0.000000000               0.000000000               0.000000000               0.000206201               0.000904306               0.000065367              -0.000035713               0.000313337               0.000277624               0.000000000               0.000000000               0.000000000               0.000000000               0.000227901               0.000838166               0.000036333              -0.000019308               0.000285822               0.000266514               0.000000000               0.000000000               0.000000000               0.000000000               0.000236875               0.000803478               0.000020848              -0.000011606               0.000271692               0.000260086               0.000000000               0.000000000               0.000000000               0.000000000               0.000237467               0.000788436               0.000013176              -0.000009504               0.000265978               0.000256473               0.000000000               0.000000000               0.000000000               0.000000000               0.000233298               0.000782873               0.000013879              -0.000010372               0.000264413               0.000254040               0.000000000               0.000000000               0.000000000               0.000000000               0.000230082               0.000780232               0.000023789              -0.000011248               0.000263824               0.000252576               0.000000000               0.000000000               0.000000000               0.000000000               0.000223957               0.000774503               0.000035544              -0.000012829               0.000262441               0.000249613               0.000000000               0.000000000               0.000000000               0.000000000               0.000212304               0.000773131               0.000036814              -0.000017027               0.000263384               0.000246356               0.000000000               0.000000000               0.000000000               0.000000000               0.000194451               0.000777475               0.000034536              -0.000024265               0.000267244               0.000242979               0.000000000               0.000000000               0.000000000               0.000000000               0.000171208               0.000784996               0.000032489              -0.000033922               0.000272970               0.000239048               0.000000000               0.000000000               0.000000000               0.000000000               0.000143802               0.000796844               0.000027145              -0.000045680               0.000280838               0.000235159               0.000000000               0.000000000               0.000000000               0.000000000               0.000110852               0.000811599               0.000021385              -0.000059880               0.000290490               0.000230610               0.000000000               0.000000000               0.000000000               0.000000000               0.000075146               0.000829760               0.000015109              -0.000075540               0.000301764               0.000226224               0.000000000               0.000000000               0.000000000               0.000000000               0.000038648               0.000851323               0.000007741              -0.000091922               0.000314412               0.000222490               0.000000000               0.000000000               0.000000000               0.000000000               0.000023331               0.000869900               0.000005515              -0.000099988               0.000323293               0.000223305               0.000000000               0.000000000               0.000000000               0.000000000               0.000181327               0.001121042               0.000259921              -0.000072133               0.000397721               0.000325588               0.000000000               0.000000000               0.000000000               0.000000000               0.000171206               0.000971446               0.000177952              -0.000057228               0.000342888               0.000285660               0.000000000               0.000000000               0.000000000               0.000000000               0.000203096               0.000872800               0.000091791              -0.000032939               0.000301910               0.000268971               0.000000000               0.000000000               0.000000000               0.000000000               0.000217639               0.000821949               0.000052189              -0.000021129               0.000281023               0.000259894               0.000000000               0.000000000               0.000000000               0.000000000               0.000222972               0.000798410               0.000031685              -0.000016187               0.000271530               0.000255343               0.000000000               0.000000000               0.000000000               0.000000000               0.000219461               0.000793304               0.000021449              -0.000016865               0.000270054               0.000253189               0.000000000               0.000000000               0.000000000               0.000000000               0.000212252               0.000795255               0.000022454              -0.000019812               0.000271686               0.000251874               0.000000000               0.000000000               0.000000000               0.000000000               0.000205964               0.000797321               0.000035546              -0.000022429               0.000273247               0.000250819               0.000000000               0.000000000               0.000000000               0.000000000               0.000196160               0.000801491               0.000048301              -0.000026626               0.000276037               0.000249410               0.000000000               0.000000000               0.000000000               0.000000000               0.000181496               0.000812983               0.000046992              -0.000033562               0.000282179               0.000248617               0.000000000               0.000000000               0.000000000               0.000000000               0.000164014               0.000828061               0.000042537              -0.000042002               0.000290018               0.000248016               0.000000000               0.000000000               0.000000000               0.000000000               0.000141045               0.000843996               0.000039711              -0.000052608               0.000298865               0.000246258               0.000000000               0.000000000               0.000000000               0.000000000               0.000113611               0.000860561               0.000033636              -0.000064966               0.000308506               0.000243540               0.000000000               0.000000000               0.000000000               0.000000000               0.000085082               0.000878866               0.000026730              -0.000077952               0.000318936               0.000240984               0.000000000               0.000000000               0.000000000               0.000000000               0.000056853               0.000899705               0.000018962              -0.000091143               0.000330280               0.000239137               0.000000000               0.000000000               0.000000000               0.000000000               0.000029066               0.000923626               0.000009740              -0.000104553               0.000342723               0.000238170               0.000000000               0.000000000               0.000000000               0.000000000               0.000019355               0.000943923               0.000007318              -0.000110732               0.000351548               0.000240816               0.000000000               0.000000000               0.000000000               0.000000000               0.000214235               0.001018077               0.000312674              -0.000046922               0.000354996               0.000308074               0.000000000               0.000000000               0.000000000               0.000000000               0.000184787               0.000897942               0.000213250              -0.000042948               0.000313627               0.000270679               0.000000000               0.000000000               0.000000000               0.000000000               0.000198152               0.000834922               0.000110456              -0.000030058               0.000288324               0.000258266               0.000000000               0.000000000               0.000000000               0.000000000               0.000203471               0.000804821               0.000065548              -0.000024301               0.000276371               0.000252070               0.000000000               0.000000000               0.000000000               0.000000000               0.000204253               0.000797375               0.000042529              -0.000023077               0.000273481               0.000250404               0.000000000               0.000000000               0.000000000               0.000000000               0.000200095               0.000802113               0.000031448              -0.000025228               0.000275778               0.000250549               0.000000000               0.000000000               0.000000000               0.000000000               0.000192650               0.000809860               0.000033694              -0.000028988               0.000279613               0.000250625               0.000000000               0.000000000               0.000000000               0.000000000               0.000187790               0.000820930               0.000046566              -0.000032195               0.000284372               0.000252177               0.000000000               0.000000000               0.000000000               0.000000000               0.000179598               0.000839205               0.000056414              -0.000037551               0.000292249               0.000254698               0.000000000               0.000000000               0.000000000               0.000000000               0.000164500               0.000868279               0.000053738              -0.000046847               0.000305039               0.000258192               0.000000000               0.000000000               0.000000000               0.000000000               0.000142795               0.000898764               0.000049071              -0.000058797               0.000319184               0.000260387               0.000000000               0.000000000               0.000000000               0.000000000               0.000116207               0.000930053               0.000046030              -0.000072679               0.000334241               0.000261562               0.000000000               0.000000000               0.000000000               0.000000000               0.000089906               0.000962054               0.000039721              -0.000086542               0.000349529               0.000262987               0.000000000               0.000000000               0.000000000               0.000000000               0.000064132               0.000994581               0.000032158              -0.000100273               0.000364948               0.000264675               0.000000000               0.000000000               0.000000000               0.000000000               0.000041619               0.001028066               0.000023339              -0.000112901               0.000380319               0.000267418               0.000000000               0.000000000               0.000000000               0.000000000               0.000022416               0.001062254               0.000012006              -0.000124375               0.000395539               0.000271164               0.000000000               0.000000000               0.000000000               0.000000000               0.000017723               0.001087548               0.000008908              -0.000129297               0.000405612               0.000276314               0.000000000               0.000000000               0.000000000               0.000000000               0.000248544               0.000901277               0.000341660              -0.000019456               0.000306908               0.000287452               0.000000000               0.000000000               0.000000000               0.000000000               0.000195868               0.000820863               0.000232980              -0.000029158               0.000283337               0.000254180               0.000000000               0.000000000               0.000000000               0.000000000               0.000187999               0.000799614               0.000123487              -0.000029452               0.000276353               0.000246901               0.000000000               0.000000000               0.000000000               0.000000000               0.000187404               0.000792439               0.000076541              -0.000028778               0.000273737               0.000244958               0.000000000               0.000000000               0.000000000               0.000000000               0.000184313               0.000802176               0.000053516              -0.000031154               0.000277774               0.000246620               0.000000000               0.000000000               0.000000000               0.000000000               0.000179350               0.000818525               0.000043955              -0.000035059               0.000284525               0.000249466               0.000000000               0.000000000               0.000000000               0.000000000               0.000178584               0.000837945               0.000045737              -0.000037774               0.000291904               0.000254130               0.000000000               0.000000000               0.000000000               0.000000000               0.000179420               0.000862377               0.000056716              -0.000040515               0.000300961               0.000260447               0.000000000               0.000000000               0.000000000               0.000000000               0.000173356               0.000900521               0.000061949              -0.000047557               0.000316023               0.000268466               0.000000000               0.000000000               0.000000000               0.000000000               0.000159845               0.000950781               0.000055372              -0.000058905               0.000336559               0.000277654               0.000000000               0.000000000               0.000000000               0.000000000               0.000139496               0.001003246               0.000050197              -0.000073094               0.000358777               0.000285682               0.000000000               0.000000000               0.000000000               0.000000000               0.000113375               0.001053740               0.000046227              -0.000089202               0.000380977               0.000291775               0.000000000               0.000000000               0.000000000               0.000000000               0.000085568               0.001103713               0.000039789              -0.000105876               0.000403192               0.000297317               0.000000000               0.000000000               0.000000000               0.000000000               0.000058972               0.001151519               0.000031783              -0.000121825               0.000424444               0.000302619               0.000000000               0.000000000               0.000000000               0.000000000               0.000039005               0.001198846               0.000022523              -0.000135229               0.000444688               0.000309459               0.000000000               0.000000000               0.000000000               0.000000000               0.000021408               0.001243504               0.000011423              -0.000147410               0.000463634               0.000316224               0.000000000               0.000000000               0.000000000               0.000000000               0.000017169               0.001273095               0.000008723              -0.000152698               0.000475260               0.000322562               0.000000000               0.000000000               0.000000000               0.000000000               0.000274071               0.000782376               0.000346192               0.000004979               0.000259129               0.000264108               0.000000000               0.000000000               0.000000000               0.000000000               0.000203414               0.000744386               0.000239425              -0.000016768               0.000253715               0.000236947               0.000000000               0.000000000               0.000000000               0.000000000               0.000175889               0.000768668               0.000132058              -0.000030125               0.000266262               0.000236137               0.000000000               0.000000000               0.000000000               0.000000000               0.000169755               0.000786868               0.000086276              -0.000034700               0.000273854               0.000239153               0.000000000               0.000000000               0.000000000               0.000000000               0.000166263               0.000815607               0.000064857              -0.000039602               0.000285067               0.000245465               0.000000000               0.000000000               0.000000000               0.000000000               0.000165423               0.000849051               0.000055448              -0.000044098               0.000297713               0.000253616               0.000000000               0.000000000               0.000000000               0.000000000               0.000170135               0.000888310               0.000055878              -0.000047238               0.000311846               0.000264608               0.000000000               0.000000000               0.000000000               0.000000000               0.000178136               0.000939553               0.000061512              -0.000050643               0.000330062               0.000279419               0.000000000               0.000000000               0.000000000               0.000000000               0.000178748               0.001004674               0.000060267              -0.000058554               0.000354406               0.000295852               0.000000000               0.000000000               0.000000000               0.000000000               0.000165469               0.001074722               0.000051145              -0.000072289               0.000382333               0.000310044               0.000000000               0.000000000               0.000000000               0.000000000               0.000143407               0.001141930               0.000046412              -0.000088963               0.000410294               0.000321331               0.000000000               0.000000000               0.000000000               0.000000000               0.000117942               0.001204137               0.000042776              -0.000106289               0.000436804               0.000330516               0.000000000               0.000000000               0.000000000               0.000000000               0.000092686               0.001264573               0.000036021              -0.000123314               0.000462625               0.000339311               0.000000000               0.000000000               0.000000000               0.000000000               0.000067268               0.001321935               0.000028212              -0.000140016               0.000487313               0.000347297               0.000000000               0.000000000               0.000000000               0.000000000               0.000045043               0.001375666               0.000018836              -0.000155067               0.000510240               0.000355173               0.000000000               0.000000000               0.000000000               0.000000000               0.000023406               0.001423470               0.000009514              -0.000169156               0.000530870               0.000361714               0.000000000               0.000000000               0.000000000               0.000000000               0.000016831               0.001453506               0.000008294              -0.000175376               0.000542956               0.000367580               0.000000000               0.000000000               0.000000000               0.000000000               0.000283908               0.000664458               0.000332592               0.000023408               0.000213681               0.000237089               0.000000000               0.000000000               0.000000000               0.000000000               0.000204695               0.000674083               0.000235981              -0.000007500               0.000227192               0.000219692               0.000000000               0.000000000               0.000000000               0.000000000               0.000165683               0.000743260               0.000137394              -0.000030776               0.000258010               0.000227233               0.000000000               0.000000000               0.000000000               0.000000000               0.000157896               0.000789629               0.000096256              -0.000039493               0.000276371               0.000236878               0.000000000               0.000000000               0.000000000               0.000000000               0.000156170               0.000841772               0.000075752              -0.000046658               0.000296141               0.000249483               0.000000000               0.000000000               0.000000000               0.000000000               0.000162686               0.000901027               0.000064699              -0.000051621               0.000317546               0.000265925               0.000000000               0.000000000               0.000000000               0.000000000               0.000178900               0.000970808               0.000060089              -0.000054263               0.000341687               0.000287424               0.000000000               0.000000000               0.000000000               0.000000000               0.000192727               0.001049405               0.000060581              -0.000058903               0.000369432               0.000310529               0.000000000               0.000000000               0.000000000               0.000000000               0.000191139               0.001133171               0.000057321              -0.000069969               0.000401043               0.000331074               0.000000000               0.000000000               0.000000000               0.000000000               0.000174379               0.001216303               0.000048804              -0.000086645               0.000434312               0.000347667               0.000000000               0.000000000               0.000000000               0.000000000               0.000150220               0.001289547               0.000044772              -0.000104861               0.000464798               0.000359938               0.000000000               0.000000000               0.000000000               0.000000000               0.000123542               0.001356679               0.000040115              -0.000123256               0.000493307               0.000370051               0.000000000               0.000000000               0.000000000               0.000000000               0.000099297               0.001421732               0.000030414              -0.000140480               0.000520732               0.000380253               0.000000000               0.000000000               0.000000000               0.000000000               0.000075093               0.001484273               0.000021173              -0.000157374               0.000547211               0.000389837               0.000000000               0.000000000               0.000000000               0.000000000               0.000049532               0.001541029               0.000013033              -0.000174054               0.000571689               0.000397635               0.000000000               0.000000000               0.000000000               0.000000000               0.000024585               0.001590313               0.000005718              -0.000189569               0.000593289               0.000403720               0.000000000               0.000000000               0.000000000               0.000000000               0.000015279               0.001621388               0.000005276              -0.000196943               0.000606105               0.000409162               0.000000000               0.000000000               0.000000000               0.000000000               0.000289686               0.000558310               0.000304083               0.000038843               0.000173154               0.000211996               0.000000000               0.000000000               0.000000000               0.000000000               0.000205377               0.000613648               0.000228230               0.000000310               0.000204444               0.000204754               0.000000000               0.000000000               0.000000000               0.000000000               0.000160552               0.000724674               0.000146472              -0.000030377               0.000251681               0.000221304               0.000000000               0.000000000               0.000000000               0.000000000               0.000153960               0.000797491               0.000107764              -0.000041951               0.000279812               0.000237860               0.000000000               0.000000000               0.000000000               0.000000000               0.000157484               0.000874213               0.000085604              -0.000050220               0.000308141               0.000257921               0.000000000               0.000000000               0.000000000               0.000000000               0.000172439               0.000959639               0.000071139              -0.000055290               0.000338307               0.000283016               0.000000000               0.000000000               0.000000000               0.000000000               0.000196805               0.001049568               0.000063482              -0.000057394               0.000368984               0.000311590               0.000000000               0.000000000               0.000000000               0.000000000               0.000214507               0.001140090               0.000059959              -0.000062071               0.000400717               0.000338646               0.000000000               0.000000000               0.000000000               0.000000000               0.000212588               0.001236336               0.000054817              -0.000074821               0.000437048               0.000362227               0.000000000               0.000000000               0.000000000               0.000000000               0.000193649               0.001324903               0.000047787              -0.000092994               0.000472628               0.000379634               0.000000000               0.000000000               0.000000000               0.000000000               0.000168405               0.001398099               0.000042692              -0.000111610               0.000503232               0.000391621               0.000000000               0.000000000               0.000000000               0.000000000               0.000142087               0.001468062               0.000035101              -0.000130225               0.000532757               0.000402533               0.000000000               0.000000000               0.000000000               0.000000000               0.000115889               0.001538684               0.000023570              -0.000148877               0.000562515               0.000413638               0.000000000               0.000000000               0.000000000               0.000000000               0.000090352               0.001605697               0.000013022              -0.000166830               0.000590837               0.000424007               0.000000000               0.000000000               0.000000000               0.000000000               0.000065056               0.001667997               0.000005033              -0.000184103               0.000617361               0.000433258               0.000000000               0.000000000               0.000000000               0.000000000               0.000045713               0.001728661              -0.000000584              -0.000198940               0.000642528               0.000443588               0.000000000               0.000000000               0.000000000               0.000000000               0.000036586               0.001761511              -0.000002305              -0.000206468               0.000655987               0.000449519               0.000000000               0.000000000               0.000000000               0.000000000               0.000284496               0.000457153               0.000268663               0.000049541               0.000135869               0.000185410               0.000000000               0.000000000               0.000000000               0.000000000               0.000207903               0.000540595               0.000220930               0.000010389               0.000176734               0.000187123               0.000000000               0.000000000               0.000000000               0.000000000               0.000162872               0.000683745               0.000162270              -0.000024391               0.000236043               0.000211652               0.000000000               0.000000000               0.000000000               0.000000000               0.000159056               0.000779961               0.000125684              -0.000037849               0.000272601               0.000234752               0.000000000               0.000000000               0.000000000               0.000000000               0.000168217               0.000877574               0.000103468              -0.000046615               0.000308060               0.000261445               0.000000000               0.000000000               0.000000000               0.000000000               0.000187326               0.000979466               0.000088192              -0.000052186               0.000343881               0.000291695               0.000000000               0.000000000               0.000000000               0.000000000               0.000214947               0.001081691               0.000078361              -0.000054606               0.000378762               0.000324156               0.000000000               0.000000000               0.000000000               0.000000000               0.000237935               0.001178120               0.000067718              -0.000058039               0.000412049               0.000354010               0.000000000               0.000000000               0.000000000               0.000000000               0.000242508               0.001269108               0.000057797              -0.000067698               0.000445598               0.000377900               0.000000000               0.000000000               0.000000000               0.000000000               0.000228391               0.001353509               0.000051129              -0.000083542               0.000479012               0.000395471               0.000000000               0.000000000               0.000000000               0.000000000               0.000205912               0.001428888               0.000044837              -0.000101394               0.000510089               0.000408695               0.000000000               0.000000000               0.000000000               0.000000000               0.000180793               0.001497950               0.000035457              -0.000119446               0.000539127               0.000419681               0.000000000               0.000000000               0.000000000               0.000000000               0.000155195               0.001568154               0.000024857              -0.000137821               0.000568653               0.000430832               0.000000000               0.000000000               0.000000000               0.000000000               0.000131673               0.001639252               0.000014697              -0.000155529               0.000598255               0.000442726               0.000000000               0.000000000               0.000000000               0.000000000               0.000111992               0.001715376               0.000006204              -0.000172425               0.000629261               0.000456837               0.000000000               0.000000000               0.000000000               0.000000000               0.000096227               0.001792272               0.000000960              -0.000187949               0.000660068               0.000472119               0.000000000               0.000000000               0.000000000               0.000000000               0.000082469               0.001823625              -0.000003162              -0.000197027               0.000673545               0.000476518               0.000000000               0.000000000               0.000000000               0.000000000               0.000263467               0.000360719               0.000230878               0.000053709               0.000102335               0.000156045               0.000000000               0.000000000               0.000000000               0.000000000               0.000211179               0.000465420               0.000210135               0.000021014               0.000148134               0.000169148               0.000000000               0.000000000               0.000000000               0.000000000               0.000172956               0.000630005               0.000175507              -0.000013892               0.000214630               0.000200738               0.000000000               0.000000000               0.000000000               0.000000000               0.000174354               0.000748970               0.000145433              -0.000028239               0.000259067               0.000230828               0.000000000               0.000000000               0.000000000               0.000000000               0.000187520               0.000862593               0.000123807              -0.000037504               0.000300030               0.000262526               0.000000000               0.000000000               0.000000000               0.000000000               0.000206921               0.000976903               0.000106848              -0.000044517               0.000340470               0.000295953               0.000000000               0.000000000               0.000000000               0.000000000               0.000229551               0.001089746               0.000092369              -0.000050136               0.000379957               0.000329821               0.000000000               0.000000000               0.000000000               0.000000000               0.000251670               0.001185681               0.000076250              -0.000053834               0.000413168               0.000359334               0.000000000               0.000000000               0.000000000               0.000000000               0.000264738               0.001268764               0.000061471              -0.000059319               0.000442690               0.000383371               0.000000000               0.000000000               0.000000000               0.000000000               0.000263284               0.001351921               0.000051780              -0.000070258               0.000474055               0.000403797               0.000000000               0.000000000               0.000000000               0.000000000               0.000250478               0.001432741               0.000044975              -0.000085163               0.000505963               0.000420800               0.000000000               0.000000000               0.000000000               0.000000000               0.000232024               0.001503513               0.000036437              -0.000100930               0.000534809               0.000433879               0.000000000               0.000000000               0.000000000               0.000000000               0.000212209               0.001570775               0.000028855              -0.000116768               0.000562509               0.000445741               0.000000000               0.000000000               0.000000000               0.000000000               0.000193794               0.001643520               0.000021715              -0.000132767               0.000592090               0.000459323               0.000000000               0.000000000               0.000000000               0.000000000               0.000178276               0.001723292               0.000013415              -0.000148558               0.000623944               0.000475387               0.000000000               0.000000000               0.000000000               0.000000000               0.000160923               0.001798999               0.000004867              -0.000164528               0.000654503               0.000489975               0.000000000               0.000000000               0.000000000               0.000000000               0.000142852               0.001828138              -0.000002413              -0.000174947               0.000667689               0.000492742               0.000000000               0.000000000               0.000000000               0.000000000               0.000234663               0.000270334               0.000188678               0.000054206               0.000072042               0.000126248               0.000000000               0.000000000               0.000000000               0.000000000               0.000210599               0.000389241               0.000191321               0.000030319               0.000119639               0.000149958               0.000000000               0.000000000               0.000000000               0.000000000               0.000190677               0.000568509               0.000180139               0.000000440               0.000189354               0.000189794               0.000000000               0.000000000               0.000000000               0.000000000               0.000199485               0.000708349               0.000159789              -0.000013737               0.000240693               0.000226956               0.000000000               0.000000000               0.000000000               0.000000000               0.000212990               0.000835654               0.000139442              -0.000024585               0.000286744               0.000262158               0.000000000               0.000000000               0.000000000               0.000000000               0.000229464               0.000962892               0.000120630              -0.000034313               0.000332398               0.000298086               0.000000000               0.000000000               0.000000000               0.000000000               0.000247184               0.001080702               0.000103139              -0.000042394               0.000374362               0.000331968               0.000000000               0.000000000               0.000000000               0.000000000               0.000265017               0.001175319               0.000083543              -0.000047534               0.000407613               0.000360080               0.000000000               0.000000000               0.000000000               0.000000000               0.000280346               0.001256672               0.000064483              -0.000051954               0.000436205               0.000384250               0.000000000               0.000000000               0.000000000               0.000000000               0.000290617               0.001342586               0.000052160              -0.000058842               0.000467138               0.000408296               0.000000000               0.000000000               0.000000000               0.000000000               0.000291050               0.001429707               0.000044424              -0.000069570               0.000499754               0.000430185               0.000000000               0.000000000               0.000000000               0.000000000               0.000284870               0.001509292               0.000038222              -0.000081835               0.000530371               0.000448536               0.000000000               0.000000000               0.000000000               0.000000000               0.000276021               0.001584671               0.000033296              -0.000094576               0.000559743               0.000465168               0.000000000               0.000000000               0.000000000               0.000000000               0.000263131               0.001657207               0.000028336              -0.000108476               0.000588556               0.000480079               0.000000000               0.000000000               0.000000000               0.000000000               0.000247166               0.001727830               0.000019774              -0.000123291               0.000617035               0.000493743               0.000000000               0.000000000               0.000000000               0.000000000               0.000230296               0.001800619               0.000009507              -0.000138716               0.000646439               0.000507723               0.000000000               0.000000000               0.000000000               0.000000000               0.000212784               0.001831691               0.000001474              -0.000149167               0.000660280               0.000511113               0.000000000               0.000000000               0.000000000               0.000000000               0.000199305               0.000196705               0.000143198               0.000050151               0.000048851               0.000099002               0.000000000               0.000000000               0.000000000               0.000000000               0.000207844               0.000318047               0.000164630               0.000038185               0.000093286               0.000131471               0.000000000               0.000000000               0.000000000               0.000000000               0.000214169               0.000503265               0.000174074               0.000017405               0.000161952               0.000179356               0.000000000               0.000000000               0.000000000               0.000000000               0.000228620               0.000657727               0.000161096               0.000003516               0.000218068               0.000221584               0.000000000               0.000000000               0.000000000               0.000000000               0.000241912               0.000798176               0.000142249              -0.000009055               0.000269074               0.000260019               0.000000000               0.000000000               0.000000000               0.000000000               0.000256569               0.000930995               0.000124702              -0.000020161               0.000317049               0.000296888               0.000000000               0.000000000               0.000000000               0.000000000               0.000269220               0.001046722               0.000106823              -0.000029883               0.000358865               0.000328982               0.000000000               0.000000000               0.000000000               0.000000000               0.000280703               0.001143977               0.000086197              -0.000037733               0.000393899               0.000356166               0.000000000               0.000000000               0.000000000               0.000000000               0.000297826               0.001237660               0.000066585              -0.000043023               0.000426890               0.000383867               0.000000000               0.000000000               0.000000000               0.000000000               0.000316590               0.001333844               0.000052625              -0.000048009               0.000460613               0.000412604               0.000000000               0.000000000               0.000000000               0.000000000               0.000328662               0.001427702               0.000043951              -0.000055214               0.000494301               0.000439086               0.000000000               0.000000000               0.000000000               0.000000000               0.000335077               0.001518014               0.000039255              -0.000064098               0.000527366               0.000463268               0.000000000               0.000000000               0.000000000               0.000000000               0.000336141               0.001599098               0.000034591              -0.000073834               0.000557639               0.000483805               0.000000000               0.000000000               0.000000000               0.000000000               0.000329318               0.001666430               0.000028520              -0.000084809               0.000583741               0.000498932               0.000000000               0.000000000               0.000000000               0.000000000               0.000318144               0.001728844               0.000021265              -0.000096801               0.000608543               0.000511741               0.000000000               0.000000000               0.000000000               0.000000000               0.000308488               0.001798666               0.000012637              -0.000109150               0.000635933               0.000526783               0.000000000               0.000000000               0.000000000               0.000000000               0.000295300               0.001829994               0.000004926              -0.000118011               0.000649329               0.000531318               0.000000000               0.000000000               0.000000000               0.000000000               0.000161348               0.000138555               0.000100468               0.000043186               0.000031789               0.000074975               0.000000000               0.000000000               0.000000000               0.000000000               0.000206502               0.000255505               0.000131491               0.000045500               0.000070001               0.000115501               0.000000000               0.000000000               0.000000000               0.000000000               0.000238701               0.000438813               0.000152460               0.000034661               0.000134716               0.000169377               0.000000000               0.000000000               0.000000000               0.000000000               0.000257522               0.000601492               0.000144406               0.000021384               0.000193367               0.000214751               0.000000000               0.000000000               0.000000000               0.000000000               0.000273122               0.000748985               0.000129729               0.000008797               0.000246727               0.000255524               0.000000000               0.000000000               0.000000000               0.000000000               0.000286479               0.000882372               0.000114427              -0.000002867               0.000295077               0.000292210               0.000000000               0.000000000               0.000000000               0.000000000               0.000293155               0.001000763               0.000097248              -0.000015162               0.000338639               0.000323476               0.000000000               0.000000000               0.000000000               0.000000000               0.000302544               0.001110472               0.000080376              -0.000025355               0.000378605               0.000353250               0.000000000               0.000000000               0.000000000               0.000000000               0.000321012               0.001219719               0.000065285              -0.000032085               0.000417264               0.000385179               0.000000000               0.000000000               0.000000000               0.000000000               0.000342361               0.001323114               0.000051489              -0.000037004               0.000453368               0.000416364               0.000000000               0.000000000               0.000000000               0.000000000               0.000360596               0.001420692               0.000041101              -0.000042363               0.000487680               0.000445317               0.000000000               0.000000000               0.000000000               0.000000000               0.000374590               0.001514970               0.000035192              -0.000048900               0.000521285               0.000472385               0.000000000               0.000000000               0.000000000               0.000000000               0.000383439               0.001597556               0.000029411              -0.000055905               0.000551148               0.000495243               0.000000000               0.000000000               0.000000000               0.000000000               0.000387353               0.001668523               0.000022994              -0.000063308               0.000577271               0.000513964               0.000000000               0.000000000               0.000000000               0.000000000               0.000389261               0.001736387               0.000018669              -0.000071075               0.000602482               0.000531406               0.000000000               0.000000000               0.000000000               0.000000000               0.000389912               0.001803295               0.000012181              -0.000079195               0.000627490               0.000548296               0.000000000               0.000000000               0.000000000               0.000000000               0.000383910               0.001832172               0.000005520              -0.000085055               0.000639070               0.000554015               0.000000000               0.000000000               0.000000000               0.000000000               0.000131959               0.000097263               0.000063691               0.000037326               0.000019979               0.000057305               0.000000000               0.000000000               0.000000000               0.000000000               0.000207019               0.000208392               0.000092125               0.000051582               0.000052269               0.000103852               0.000000000               0.000000000               0.000000000               0.000000000               0.000259632               0.000383661               0.000113588               0.000049404               0.000111418               0.000160822               0.000000000               0.000000000               0.000000000               0.000000000               0.000284844               0.000547234               0.000110603               0.000038412               0.000169605               0.000208017               0.000000000               0.000000000               0.000000000               0.000000000               0.000301638               0.000698731               0.000100528               0.000025773               0.000224317               0.000250090               0.000000000               0.000000000               0.000000000               0.000000000               0.000310021               0.000834878               0.000087380               0.000011898               0.000274324               0.000286222               0.000000000               0.000000000               0.000000000               0.000000000               0.000318024               0.000959285               0.000074897              -0.000000652               0.000319976               0.000319324               0.000000000               0.000000000               0.000000000               0.000000000               0.000330061               0.001080778               0.000064740              -0.000011324               0.000364031               0.000352706               0.000000000               0.000000000               0.000000000               0.000000000               0.000346552               0.001198661               0.000054102              -0.000019876               0.000406175               0.000386299               0.000000000               0.000000000               0.000000000               0.000000000               0.000364005               0.001303477               0.000041360              -0.000026433               0.000443299               0.000416866               0.000000000               0.000000000               0.000000000               0.000000000               0.000383758               0.001404121               0.000030775              -0.000031606               0.000478571               0.000446965               0.000000000               0.000000000               0.000000000               0.000000000               0.000403167               0.001501483               0.000025217              -0.000036498               0.000512655               0.000476158               0.000000000               0.000000000               0.000000000               0.000000000               0.000419128               0.001588221               0.000020497              -0.000041355               0.000543186               0.000501832               0.000000000               0.000000000               0.000000000               0.000000000               0.000433853               0.001668322               0.000015573              -0.000045845               0.000571384               0.000525538               0.000000000               0.000000000               0.000000000               0.000000000               0.000447567               0.001744064               0.000012443              -0.000050170               0.000598072               0.000547902               0.000000000               0.000000000               0.000000000               0.000000000               0.000458184               0.001811096               0.000007579              -0.000054568               0.000621882               0.000567314               0.000000000               0.000000000               0.000000000               0.000000000               0.000460805               0.001840097               0.000003365              -0.000057210               0.000632429               0.000575220               0.000000000               0.000000000               0.000000000               0.000000000               0.000113845               0.000074000               0.000032199               0.000033442               0.000013519               0.000046961               0.000000000               0.000000000               0.000000000               0.000000000               0.000207481               0.000178424               0.000048154               0.000055502               0.000040974               0.000096475               0.000000000               0.000000000               0.000000000               0.000000000               0.000275411               0.000345559               0.000060583               0.000060084               0.000095157               0.000155241               0.000000000               0.000000000               0.000000000               0.000000000               0.000303871               0.000508758               0.000060623               0.000050357               0.000152799               0.000203155               0.000000000               0.000000000               0.000000000               0.000000000               0.000318563               0.000660828               0.000054762               0.000036857               0.000207988               0.000244845               0.000000000               0.000000000               0.000000000               0.000000000               0.000327852               0.000799531               0.000047130               0.000023003               0.000258840               0.000281843               0.000000000               0.000000000               0.000000000               0.000000000               0.000339228               0.000930969               0.000041748               0.000010839               0.000306707               0.000317546               0.000000000               0.000000000               0.000000000               0.000000000               0.000351504               0.001058432               0.000036680              -0.000000490               0.000352970               0.000352481               0.000000000               0.000000000               0.000000000               0.000000000               0.000363662               0.001175905               0.000030071              -0.000010615               0.000395503               0.000384888               0.000000000               0.000000000               0.000000000               0.000000000               0.000378250               0.001282488               0.000022408              -0.000018467               0.000433648               0.000415180               0.000000000               0.000000000               0.000000000               0.000000000               0.000400058               0.001390579               0.000016487              -0.000023801               0.000471455               0.000447655               0.000000000               0.000000000               0.000000000               0.000000000               0.000422637               0.001490597               0.000013076              -0.000027836               0.000506139               0.000478304               0.000000000               0.000000000               0.000000000               0.000000000               0.000442243               0.001579038               0.000010047              -0.000031539               0.000536854               0.000505315               0.000000000               0.000000000               0.000000000               0.000000000               0.000462646               0.001665546               0.000007291              -0.000034701               0.000566743               0.000532042               0.000000000               0.000000000               0.000000000               0.000000000               0.000482349               0.001746005               0.000005291              -0.000037370               0.000594452               0.000557083               0.000000000               0.000000000               0.000000000               0.000000000               0.000499371               0.001815095               0.000002634              -0.000039623               0.000618233               0.000578610               0.000000000               0.000000000               0.000000000               0.000000000               0.000506907               0.001845813               0.000000852              -0.000040636               0.000628810               0.000588174               0.000000000               0.000000000               0.000000000               0.000000000               0.000000000               0.000000000               0.000000000               0.000000000               0.000000000               0.000000000               0.000000000               0.000000000               0.000000000               0.000000000               0.000000000               0.000000000               0.000000000               0.000000000               0.000000000               0.000000000               0.000000000               0.000000000               0.000000000               0.000000000               0.000000000               0.000000000               0.000000000               0.000000000               0.000000000               0.000000000               0.000000000               0.000000000               0.000000000               0.000000000               0.000000000               0.000000000               0.000000000               0.000000000               0.000000000               0.000000000               0.000000000               0.000000000               0.000000000               0.000000000               0.000000000               0.000000000               0.000000000               0.000000000               0.000000000               0.000000000               0.000000000               0.000000000               0.000000000               0.000000000               0.000000000               0.000000000               0.000000000               0.000000000               0.000000000               0.000000000               0.000000000               0.000000000               0.000000000               0.000000000               0.000000000               0.000000000               0.000000000               0.000000000               0.000000000               0.000000000               0.000000000               0.000000000               0.000000000               0.000000000               0.000000000               0.000000000               0.000000000               0.000000000               0.000000000               0.000000000               0.000000000               0.000000000               0.000000000               0.000000000               0.000000000               0.000000000               0.000000000               0.000000000               0.000000000               0.000000000               0.000000000               0.000000000               0.000000000               0.000000000               0.000000000               0.000000000               0.000000000               0.000000000               0.000000000               0.000000000               0.000000000               0.000000000               0.000000000               0.000000000               0.000000000               0.000000000               0.000000000               0.000000000               0.000000000               0.000000000               0.000000000               0.000000000               0.000000000               0.000000000               0.000000000               0.000000000               0.000000000               0.000000000               0.000000000               0.000000000               0.000000000               0.000000000               0.000000000               0.000000000               0.000000000               0.000000000               0.000000000               0.000000000               0.000000000               0.000000000               0.000000000               0.000000000               0.000000000               0.000000000               0.000000000               0.000000000               0.000000000               0.000000000               0.000000000               0.000000000               0.000000000               0.000000000               0.000000000               0.000000000               0.000000000               0.000000000               0.000000000               0.000000000               0.000000000               0.000000000               0.000000000               0.000000000               0.000000000               0.000000000               0.000000000               0.000000000               0.000000000               0.000000000               0.000000000               0.000000000               0.000000000               0.000000000               0.000000000               0.000000000               0.000000000               0.000000000               0.000000000               0.000000000               0.000000000               0.000000000               0.000000000               0.000000000               0.000000000               0.000000000 </DataArray>
</PointData>
</Piece>
</UnstructuredGrid> </VTKFile>
