<?xml version="1.0"?>
<VTKFile type="UnstructuredGrid" version="0.1">
<UnstructuredGrid>
<Piece NumberOfPoints="      1156" NumberOfCells="      1024">
<Points>
<DataArray type="Float64"                                    Name="coordinates"                                                      NumberOfComponents=" 3" format="ascii">
              0.133000000               0.000000000               0.000000000               0.155937500               0.000000000               0.000000000               0.178875000               0.000000000               0.000000000               0.201812500               0.000000000               0.000000000               0.224750000               0.000000000               0.000000000               0.247687500               0.000000000               0.000000000               0.270625000               0.000000000               0.000000000               0.293562500               0.000000000               0.000000000               0.316500000               0.000000000               0.000000000               0.339437500               0.000000000               0.000000000               0.362375000               0.000000000               0.000000000               0.385312500               0.000000000               0.000000000               0.408250000               0.000000000               0.000000000               0.431187500               0.000000000               0.000000000               0.454125000               0.000000000               0.000000000               0.477062500               0.000000000               0.000000000               0.500000000               0.000000000               0.000000000               0.132359569               0.013036280               0.000000000               0.155337096               0.016127762               0.000000000               0.178314623               0.019219245               0.000000000               0.201292150               0.022310727               0.000000000               0.224269676               0.025402210               0.000000000               0.247247203               0.028493692               0.000000000               0.270224730               0.031585175               0.000000000               0.293202257               0.034676657               0.000000000               0.316179784               0.037768140               0.000000000               0.339157311               0.040859622               0.000000000               0.362134838               0.043951105               0.000000000               0.385112365               0.047042587               0.000000000               0.408089892               0.050134070               0.000000000               0.431067419               0.053225552               0.000000000               0.454044946               0.056317035               0.000000000               0.477022473               0.059408517               0.000000000               0.500000000               0.062500000               0.000000000               0.130444442               0.025947013               0.000000000               0.153541665               0.032137825               0.000000000               0.176638887               0.038328636               0.000000000               0.199736109               0.044519448               0.000000000               0.222833332               0.050710260               0.000000000               0.245930554               0.056901071               0.000000000               0.269027776               0.063091883               0.000000000               0.292124999               0.069282695               0.000000000               0.315222221               0.075473506               0.000000000               0.338319444               0.081664318               0.000000000               0.361416666               0.087855130               0.000000000               0.384513888               0.094045942               0.000000000               0.407611111               0.100236753               0.000000000               0.430708333               0.106427565               0.000000000               0.453805555               0.112618377               0.000000000               0.476902778               0.118809188               0.000000000               0.500000000               0.125000000               0.000000000               0.127273065               0.038607862               0.000000000               0.150568498               0.047913621               0.000000000               0.173863932               0.057219379               0.000000000               0.197159365               0.066525138               0.000000000               0.220454798               0.075830897               0.000000000               0.243750232               0.085136655               0.000000000               0.267045665               0.094442414               0.000000000               0.290341099               0.103748172               0.000000000               0.313636532               0.113053931               0.000000000               0.336931966               0.122359690               0.000000000               0.360227399               0.131665448               0.000000000               0.383522833               0.140971207               0.000000000               0.406818266               0.150276966               0.000000000               0.430113700               0.159582724               0.000000000               0.453409133               0.168888483               0.000000000               0.476704567               0.178194241               0.000000000               0.500000000               0.187500000               0.000000000               0.122875978               0.050896897               0.000000000               0.146446229               0.063340840               0.000000000               0.170016481               0.075784784               0.000000000               0.193586732               0.088228728               0.000000000               0.217156983               0.100672672               0.000000000               0.240727235               0.113116616               0.000000000               0.264297486               0.125560560               0.000000000               0.287867738               0.138004504               0.000000000               0.311437989               0.150448448               0.000000000               0.335008240               0.162892392               0.000000000               0.358578492               0.175336336               0.000000000               0.382148743               0.187780280               0.000000000               0.405718994               0.200224224               0.000000000               0.429289246               0.212668168               0.000000000               0.452859497               0.225112112               0.000000000               0.476429749               0.237556056               0.000000000               0.500000000               0.250000000               0.000000000               0.117295528               0.062695766               0.000000000               0.141214558               0.078308531               0.000000000               0.165133587               0.093921295               0.000000000               0.189052617               0.109534060               0.000000000               0.212971646               0.125146824               0.000000000               0.236890676               0.140759589               0.000000000               0.260809705               0.156372354               0.000000000               0.284728735               0.171985118               0.000000000               0.308647764               0.187597883               0.000000000               0.332566794               0.203210648               0.000000000               0.356485823               0.218823412               0.000000000               0.380404853               0.234436177               0.000000000               0.404323882               0.250048941               0.000000000               0.428242912               0.265661706               0.000000000               0.452161941               0.281274471               0.000000000               0.476080971               0.296887235               0.000000000               0.500000000               0.312500000               0.000000000               0.110585458               0.073890841               0.000000000               0.134923867               0.092710163               0.000000000               0.159262276               0.111529486               0.000000000               0.183600685               0.130348808               0.000000000               0.207939094               0.149168131               0.000000000               0.232277503               0.167987453               0.000000000               0.256615912               0.186806776               0.000000000               0.280954320               0.205626098               0.000000000               0.305292729               0.224445420               0.000000000               0.329631138               0.243264743               0.000000000               0.353969547               0.262084065               0.000000000               0.378307956               0.280903388               0.000000000               0.402646365               0.299722710               0.000000000               0.426984773               0.318542033               0.000000000               0.451323182               0.337361355               0.000000000               0.475661591               0.356180678               0.000000000               0.500000000               0.375000000               0.000000000               0.102810390               0.084374307               0.000000000               0.127634741               0.106444663               0.000000000               0.152459092               0.128515018               0.000000000               0.177283442               0.150585374               0.000000000               0.202107793               0.172655730               0.000000000               0.226932143               0.194726086               0.000000000               0.251756494               0.216796442               0.000000000               0.276580845               0.238866798               0.000000000               0.301405195               0.260937153               0.000000000               0.326229546               0.283007509               0.000000000               0.351053896               0.305077865               0.000000000               0.375878247               0.327148221               0.000000000               0.400702598               0.349218577               0.000000000               0.425526948               0.371288933               0.000000000               0.450351299               0.393359288               0.000000000               0.475175649               0.415429644               0.000000000               0.500000000               0.437500000               0.000000000               0.094045202               0.094045202               0.000000000               0.119417377               0.119417377               0.000000000               0.144789552               0.144789552               0.000000000               0.170161727               0.170161727               0.000000000               0.195533901               0.195533901               0.000000000               0.220906076               0.220906076               0.000000000               0.246278251               0.246278251               0.000000000               0.271650426               0.271650426               0.000000000               0.297022601               0.297022601               0.000000000               0.322394776               0.322394776               0.000000000               0.347766951               0.347766951               0.000000000               0.373139126               0.373139126               0.000000000               0.398511300               0.398511300               0.000000000               0.423883475               0.423883475               0.000000000               0.449255650               0.449255650               0.000000000               0.474627825               0.474627825               0.000000000               0.500000000               0.500000000               0.000000000               0.084374307               0.102810390               0.000000000               0.106444663               0.127634741               0.000000000               0.128515018               0.152459092               0.000000000               0.150585374               0.177283442               0.000000000               0.172655730               0.202107793               0.000000000               0.194726086               0.226932143               0.000000000               0.216796442               0.251756494               0.000000000               0.238866798               0.276580845               0.000000000               0.260937153               0.301405195               0.000000000               0.283007509               0.326229546               0.000000000               0.305077865               0.351053896               0.000000000               0.327148221               0.375878247               0.000000000               0.349218577               0.400702598               0.000000000               0.371288933               0.425526948               0.000000000               0.393359288               0.450351299               0.000000000               0.415429644               0.475175649               0.000000000               0.437500000               0.500000000               0.000000000               0.073890841               0.110585458               0.000000000               0.092710163               0.134923867               0.000000000               0.111529486               0.159262276               0.000000000               0.130348808               0.183600685               0.000000000               0.149168131               0.207939094               0.000000000               0.167987453               0.232277503               0.000000000               0.186806776               0.256615912               0.000000000               0.205626098               0.280954320               0.000000000               0.224445420               0.305292729               0.000000000               0.243264743               0.329631138               0.000000000               0.262084065               0.353969547               0.000000000               0.280903388               0.378307956               0.000000000               0.299722710               0.402646365               0.000000000               0.318542033               0.426984773               0.000000000               0.337361355               0.451323182               0.000000000               0.356180678               0.475661591               0.000000000               0.375000000               0.500000000               0.000000000               0.062695766               0.117295528               0.000000000               0.078308531               0.141214558               0.000000000               0.093921295               0.165133587               0.000000000               0.109534060               0.189052617               0.000000000               0.125146824               0.212971646               0.000000000               0.140759589               0.236890676               0.000000000               0.156372354               0.260809705               0.000000000               0.171985118               0.284728735               0.000000000               0.187597883               0.308647764               0.000000000               0.203210648               0.332566794               0.000000000               0.218823412               0.356485823               0.000000000               0.234436177               0.380404853               0.000000000               0.250048941               0.404323882               0.000000000               0.265661706               0.428242912               0.000000000               0.281274471               0.452161941               0.000000000               0.296887235               0.476080971               0.000000000               0.312500000               0.500000000               0.000000000               0.050896897               0.122875978               0.000000000               0.063340840               0.146446229               0.000000000               0.075784784               0.170016481               0.000000000               0.088228728               0.193586732               0.000000000               0.100672672               0.217156983               0.000000000               0.113116616               0.240727235               0.000000000               0.125560560               0.264297486               0.000000000               0.138004504               0.287867738               0.000000000               0.150448448               0.311437989               0.000000000               0.162892392               0.335008240               0.000000000               0.175336336               0.358578492               0.000000000               0.187780280               0.382148743               0.000000000               0.200224224               0.405718994               0.000000000               0.212668168               0.429289246               0.000000000               0.225112112               0.452859497               0.000000000               0.237556056               0.476429749               0.000000000               0.250000000               0.500000000               0.000000000               0.038607862               0.127273065               0.000000000               0.047913621               0.150568498               0.000000000               0.057219379               0.173863932               0.000000000               0.066525138               0.197159365               0.000000000               0.075830897               0.220454798               0.000000000               0.085136655               0.243750232               0.000000000               0.094442414               0.267045665               0.000000000               0.103748172               0.290341099               0.000000000               0.113053931               0.313636532               0.000000000               0.122359690               0.336931966               0.000000000               0.131665448               0.360227399               0.000000000               0.140971207               0.383522833               0.000000000               0.150276966               0.406818266               0.000000000               0.159582724               0.430113700               0.000000000               0.168888483               0.453409133               0.000000000               0.178194241               0.476704567               0.000000000               0.187500000               0.500000000               0.000000000               0.025947013               0.130444442               0.000000000               0.032137825               0.153541665               0.000000000               0.038328636               0.176638887               0.000000000               0.044519448               0.199736109               0.000000000               0.050710260               0.222833332               0.000000000               0.056901071               0.245930554               0.000000000               0.063091883               0.269027776               0.000000000               0.069282695               0.292124999               0.000000000               0.075473506               0.315222221               0.000000000               0.081664318               0.338319444               0.000000000               0.087855130               0.361416666               0.000000000               0.094045942               0.384513888               0.000000000               0.100236753               0.407611111               0.000000000               0.106427565               0.430708333               0.000000000               0.112618377               0.453805555               0.000000000               0.118809188               0.476902778               0.000000000               0.125000000               0.500000000               0.000000000               0.013036280               0.132359569               0.000000000               0.016127762               0.155337096               0.000000000               0.019219245               0.178314623               0.000000000               0.022310727               0.201292150               0.000000000               0.025402210               0.224269676               0.000000000               0.028493692               0.247247203               0.000000000               0.031585175               0.270224730               0.000000000               0.034676657               0.293202257               0.000000000               0.037768140               0.316179784               0.000000000               0.040859622               0.339157311               0.000000000               0.043951105               0.362134838               0.000000000               0.047042587               0.385112365               0.000000000               0.050134070               0.408089892               0.000000000               0.053225552               0.431067419               0.000000000               0.056317035               0.454044946               0.000000000               0.059408517               0.477022473               0.000000000               0.062500000               0.500000000               0.000000000               0.000000000               0.133000000               0.000000000               0.000000000               0.155937500               0.000000000               0.000000000               0.178875000               0.000000000               0.000000000               0.201812500               0.000000000               0.000000000               0.224750000               0.000000000               0.000000000               0.247687500               0.000000000               0.000000000               0.270625000               0.000000000               0.000000000               0.293562500               0.000000000               0.000000000               0.316500000               0.000000000               0.000000000               0.339437500               0.000000000               0.000000000               0.362375000               0.000000000               0.000000000               0.385312500               0.000000000               0.000000000               0.408250000               0.000000000               0.000000000               0.431187500               0.000000000               0.000000000               0.454125000               0.000000000               0.000000000               0.477062500               0.000000000               0.000000000               0.500000000               0.000000000               0.133000000               0.000000000               0.000000000               0.155937500               0.000000000               0.000000000               0.178875000               0.000000000               0.000000000               0.201812500               0.000000000               0.000000000               0.224750000               0.000000000               0.000000000               0.247687500               0.000000000               0.000000000               0.270625000               0.000000000               0.000000000               0.293562500               0.000000000               0.000000000               0.316500000               0.000000000               0.000000000               0.339437500               0.000000000               0.000000000               0.362375000               0.000000000               0.000000000               0.385312500               0.000000000               0.000000000               0.408250000               0.000000000               0.000000000               0.431187500               0.000000000               0.000000000               0.454125000               0.000000000               0.000000000               0.477062500               0.000000000               0.000000000               0.500000000               0.000000000               0.000000000               0.132359569              -0.013036280               0.000000000               0.155337096              -0.016127762               0.000000000               0.178314623              -0.019219245               0.000000000               0.201292150              -0.022310727               0.000000000               0.224269676              -0.025402210               0.000000000               0.247247203              -0.028493692               0.000000000               0.270224730              -0.031585175               0.000000000               0.293202257              -0.034676657               0.000000000               0.316179784              -0.037768140               0.000000000               0.339157311              -0.040859622               0.000000000               0.362134838              -0.043951105               0.000000000               0.385112365              -0.047042587               0.000000000               0.408089892              -0.050134070               0.000000000               0.431067419              -0.053225552               0.000000000               0.454044946              -0.056317035               0.000000000               0.477022473              -0.059408517               0.000000000               0.500000000              -0.062500000               0.000000000               0.130444442              -0.025947013               0.000000000               0.153541665              -0.032137825               0.000000000               0.176638887              -0.038328636               0.000000000               0.199736109              -0.044519448               0.000000000               0.222833332              -0.050710260               0.000000000               0.245930554              -0.056901071               0.000000000               0.269027776              -0.063091883               0.000000000               0.292124999              -0.069282695               0.000000000               0.315222221              -0.075473506               0.000000000               0.338319444              -0.081664318               0.000000000               0.361416666              -0.087855130               0.000000000               0.384513888              -0.094045942               0.000000000               0.407611111              -0.100236753               0.000000000               0.430708333              -0.106427565               0.000000000               0.453805555              -0.112618377               0.000000000               0.476902778              -0.118809188               0.000000000               0.500000000              -0.125000000               0.000000000               0.127273065              -0.038607862               0.000000000               0.150568498              -0.047913621               0.000000000               0.173863932              -0.057219379               0.000000000               0.197159365              -0.066525138               0.000000000               0.220454798              -0.075830897               0.000000000               0.243750232              -0.085136655               0.000000000               0.267045665              -0.094442414               0.000000000               0.290341099              -0.103748172               0.000000000               0.313636532              -0.113053931               0.000000000               0.336931966              -0.122359690               0.000000000               0.360227399              -0.131665448               0.000000000               0.383522833              -0.140971207               0.000000000               0.406818266              -0.150276966               0.000000000               0.430113700              -0.159582724               0.000000000               0.453409133              -0.168888483               0.000000000               0.476704567              -0.178194241               0.000000000               0.500000000              -0.187500000               0.000000000               0.122875978              -0.050896897               0.000000000               0.146446229              -0.063340840               0.000000000               0.170016481              -0.075784784               0.000000000               0.193586732              -0.088228728               0.000000000               0.217156983              -0.100672672               0.000000000               0.240727235              -0.113116616               0.000000000               0.264297486              -0.125560560               0.000000000               0.287867738              -0.138004504               0.000000000               0.311437989              -0.150448448               0.000000000               0.335008240              -0.162892392               0.000000000               0.358578492              -0.175336336               0.000000000               0.382148743              -0.187780280               0.000000000               0.405718994              -0.200224224               0.000000000               0.429289246              -0.212668168               0.000000000               0.452859497              -0.225112112               0.000000000               0.476429749              -0.237556056               0.000000000               0.500000000              -0.250000000               0.000000000               0.117295528              -0.062695766               0.000000000               0.141214558              -0.078308531               0.000000000               0.165133587              -0.093921295               0.000000000               0.189052617              -0.109534060               0.000000000               0.212971646              -0.125146824               0.000000000               0.236890676              -0.140759589               0.000000000               0.260809705              -0.156372354               0.000000000               0.284728735              -0.171985118               0.000000000               0.308647764              -0.187597883               0.000000000               0.332566794              -0.203210648               0.000000000               0.356485823              -0.218823412               0.000000000               0.380404853              -0.234436177               0.000000000               0.404323882              -0.250048941               0.000000000               0.428242912              -0.265661706               0.000000000               0.452161941              -0.281274471               0.000000000               0.476080971              -0.296887235               0.000000000               0.500000000              -0.312500000               0.000000000               0.110585458              -0.073890841               0.000000000               0.134923867              -0.092710163               0.000000000               0.159262276              -0.111529486               0.000000000               0.183600685              -0.130348808               0.000000000               0.207939094              -0.149168131               0.000000000               0.232277503              -0.167987453               0.000000000               0.256615912              -0.186806776               0.000000000               0.280954320              -0.205626098               0.000000000               0.305292729              -0.224445420               0.000000000               0.329631138              -0.243264743               0.000000000               0.353969547              -0.262084065               0.000000000               0.378307956              -0.280903388               0.000000000               0.402646365              -0.299722710               0.000000000               0.426984773              -0.318542033               0.000000000               0.451323182              -0.337361355               0.000000000               0.475661591              -0.356180678               0.000000000               0.500000000              -0.375000000               0.000000000               0.102810390              -0.084374307               0.000000000               0.127634741              -0.106444663               0.000000000               0.152459092              -0.128515018               0.000000000               0.177283442              -0.150585374               0.000000000               0.202107793              -0.172655730               0.000000000               0.226932143              -0.194726086               0.000000000               0.251756494              -0.216796442               0.000000000               0.276580845              -0.238866798               0.000000000               0.301405195              -0.260937153               0.000000000               0.326229546              -0.283007509               0.000000000               0.351053896              -0.305077865               0.000000000               0.375878247              -0.327148221               0.000000000               0.400702598              -0.349218577               0.000000000               0.425526948              -0.371288933               0.000000000               0.450351299              -0.393359288               0.000000000               0.475175649              -0.415429644               0.000000000               0.500000000              -0.437500000               0.000000000               0.094045202              -0.094045202               0.000000000               0.119417377              -0.119417377               0.000000000               0.144789552              -0.144789552               0.000000000               0.170161727              -0.170161727               0.000000000               0.195533901              -0.195533901               0.000000000               0.220906076              -0.220906076               0.000000000               0.246278251              -0.246278251               0.000000000               0.271650426              -0.271650426               0.000000000               0.297022601              -0.297022601               0.000000000               0.322394776              -0.322394776               0.000000000               0.347766951              -0.347766951               0.000000000               0.373139126              -0.373139126               0.000000000               0.398511300              -0.398511300               0.000000000               0.423883475              -0.423883475               0.000000000               0.449255650              -0.449255650               0.000000000               0.474627825              -0.474627825               0.000000000               0.500000000              -0.500000000               0.000000000               0.084374307              -0.102810390               0.000000000               0.106444663              -0.127634741               0.000000000               0.128515018              -0.152459092               0.000000000               0.150585374              -0.177283442               0.000000000               0.172655730              -0.202107793               0.000000000               0.194726086              -0.226932143               0.000000000               0.216796442              -0.251756494               0.000000000               0.238866798              -0.276580845               0.000000000               0.260937153              -0.301405195               0.000000000               0.283007509              -0.326229546               0.000000000               0.305077865              -0.351053896               0.000000000               0.327148221              -0.375878247               0.000000000               0.349218577              -0.400702598               0.000000000               0.371288933              -0.425526948               0.000000000               0.393359288              -0.450351299               0.000000000               0.415429644              -0.475175649               0.000000000               0.437500000              -0.500000000               0.000000000               0.073890841              -0.110585458               0.000000000               0.092710163              -0.134923867               0.000000000               0.111529486              -0.159262276               0.000000000               0.130348808              -0.183600685               0.000000000               0.149168131              -0.207939094               0.000000000               0.167987453              -0.232277503               0.000000000               0.186806776              -0.256615912               0.000000000               0.205626098              -0.280954320               0.000000000               0.224445420              -0.305292729               0.000000000               0.243264743              -0.329631138               0.000000000               0.262084065              -0.353969547               0.000000000               0.280903388              -0.378307956               0.000000000               0.299722710              -0.402646365               0.000000000               0.318542033              -0.426984773               0.000000000               0.337361355              -0.451323182               0.000000000               0.356180678              -0.475661591               0.000000000               0.375000000              -0.500000000               0.000000000               0.062695766              -0.117295528               0.000000000               0.078308531              -0.141214558               0.000000000               0.093921295              -0.165133587               0.000000000               0.109534060              -0.189052617               0.000000000               0.125146824              -0.212971646               0.000000000               0.140759589              -0.236890676               0.000000000               0.156372354              -0.260809705               0.000000000               0.171985118              -0.284728735               0.000000000               0.187597883              -0.308647764               0.000000000               0.203210648              -0.332566794               0.000000000               0.218823412              -0.356485823               0.000000000               0.234436177              -0.380404853               0.000000000               0.250048941              -0.404323882               0.000000000               0.265661706              -0.428242912               0.000000000               0.281274471              -0.452161941               0.000000000               0.296887235              -0.476080971               0.000000000               0.312500000              -0.500000000               0.000000000               0.050896897              -0.122875978               0.000000000               0.063340840              -0.146446229               0.000000000               0.075784784              -0.170016481               0.000000000               0.088228728              -0.193586732               0.000000000               0.100672672              -0.217156983               0.000000000               0.113116616              -0.240727235               0.000000000               0.125560560              -0.264297486               0.000000000               0.138004504              -0.287867738               0.000000000               0.150448448              -0.311437989               0.000000000               0.162892392              -0.335008240               0.000000000               0.175336336              -0.358578492               0.000000000               0.187780280              -0.382148743               0.000000000               0.200224224              -0.405718994               0.000000000               0.212668168              -0.429289246               0.000000000               0.225112112              -0.452859497               0.000000000               0.237556056              -0.476429749               0.000000000               0.250000000              -0.500000000               0.000000000               0.038607862              -0.127273065               0.000000000               0.047913621              -0.150568498               0.000000000               0.057219379              -0.173863932               0.000000000               0.066525138              -0.197159365               0.000000000               0.075830897              -0.220454798               0.000000000               0.085136655              -0.243750232               0.000000000               0.094442414              -0.267045665               0.000000000               0.103748172              -0.290341099               0.000000000               0.113053931              -0.313636532               0.000000000               0.122359690              -0.336931966               0.000000000               0.131665448              -0.360227399               0.000000000               0.140971207              -0.383522833               0.000000000               0.150276966              -0.406818266               0.000000000               0.159582724              -0.430113700               0.000000000               0.168888483              -0.453409133               0.000000000               0.178194241              -0.476704567               0.000000000               0.187500000              -0.500000000               0.000000000               0.025947013              -0.130444442               0.000000000               0.032137825              -0.153541665               0.000000000               0.038328636              -0.176638887               0.000000000               0.044519448              -0.199736109               0.000000000               0.050710260              -0.222833332               0.000000000               0.056901071              -0.245930554               0.000000000               0.063091883              -0.269027776               0.000000000               0.069282695              -0.292124999               0.000000000               0.075473506              -0.315222221               0.000000000               0.081664318              -0.338319444               0.000000000               0.087855130              -0.361416666               0.000000000               0.094045942              -0.384513888               0.000000000               0.100236753              -0.407611111               0.000000000               0.106427565              -0.430708333               0.000000000               0.112618377              -0.453805555               0.000000000               0.118809188              -0.476902778               0.000000000               0.125000000              -0.500000000               0.000000000               0.013036280              -0.132359569               0.000000000               0.016127762              -0.155337096               0.000000000               0.019219245              -0.178314623               0.000000000               0.022310727              -0.201292150               0.000000000               0.025402210              -0.224269676               0.000000000               0.028493692              -0.247247203               0.000000000               0.031585175              -0.270224730               0.000000000               0.034676657              -0.293202257               0.000000000               0.037768140              -0.316179784               0.000000000               0.040859622              -0.339157311               0.000000000               0.043951105              -0.362134838               0.000000000               0.047042587              -0.385112365               0.000000000               0.050134070              -0.408089892               0.000000000               0.053225552              -0.431067419               0.000000000               0.056317035              -0.454044946               0.000000000               0.059408517              -0.477022473               0.000000000               0.062500000              -0.500000000               0.000000000               0.000000000              -0.133000000               0.000000000               0.000000000              -0.155937500               0.000000000               0.000000000              -0.178875000               0.000000000               0.000000000              -0.201812500               0.000000000               0.000000000              -0.224750000               0.000000000               0.000000000              -0.247687500               0.000000000               0.000000000              -0.270625000               0.000000000               0.000000000              -0.293562500               0.000000000               0.000000000              -0.316500000               0.000000000               0.000000000              -0.339437500               0.000000000               0.000000000              -0.362375000               0.000000000               0.000000000              -0.385312500               0.000000000               0.000000000              -0.408250000               0.000000000               0.000000000              -0.431187500               0.000000000               0.000000000              -0.454125000               0.000000000               0.000000000              -0.477062500               0.000000000               0.000000000              -0.500000000               0.000000000              -0.133000000               0.000000000               0.000000000              -0.155937500               0.000000000               0.000000000              -0.178875000               0.000000000               0.000000000              -0.201812500               0.000000000               0.000000000              -0.224750000               0.000000000               0.000000000              -0.247687500               0.000000000               0.000000000              -0.270625000               0.000000000               0.000000000              -0.293562500               0.000000000               0.000000000              -0.316500000               0.000000000               0.000000000              -0.339437500               0.000000000               0.000000000              -0.362375000               0.000000000               0.000000000              -0.385312500               0.000000000               0.000000000              -0.408250000               0.000000000               0.000000000              -0.431187500               0.000000000               0.000000000              -0.454125000               0.000000000               0.000000000              -0.477062500               0.000000000               0.000000000              -0.500000000               0.000000000               0.000000000              -0.132359569              -0.013036280               0.000000000              -0.155337096              -0.016127762               0.000000000              -0.178314623              -0.019219245               0.000000000              -0.201292150              -0.022310727               0.000000000              -0.224269676              -0.025402210               0.000000000              -0.247247203              -0.028493692               0.000000000              -0.270224730              -0.031585175               0.000000000              -0.293202257              -0.034676657               0.000000000              -0.316179784              -0.037768140               0.000000000              -0.339157311              -0.040859622               0.000000000              -0.362134838              -0.043951105               0.000000000              -0.385112365              -0.047042587               0.000000000              -0.408089892              -0.050134070               0.000000000              -0.431067419              -0.053225552               0.000000000              -0.454044946              -0.056317035               0.000000000              -0.477022473              -0.059408517               0.000000000              -0.500000000              -0.062500000               0.000000000              -0.130444442              -0.025947013               0.000000000              -0.153541665              -0.032137825               0.000000000              -0.176638887              -0.038328636               0.000000000              -0.199736109              -0.044519448               0.000000000              -0.222833332              -0.050710260               0.000000000              -0.245930554              -0.056901071               0.000000000              -0.269027776              -0.063091883               0.000000000              -0.292124999              -0.069282695               0.000000000              -0.315222221              -0.075473506               0.000000000              -0.338319444              -0.081664318               0.000000000              -0.361416666              -0.087855130               0.000000000              -0.384513888              -0.094045942               0.000000000              -0.407611111              -0.100236753               0.000000000              -0.430708333              -0.106427565               0.000000000              -0.453805555              -0.112618377               0.000000000              -0.476902778              -0.118809188               0.000000000              -0.500000000              -0.125000000               0.000000000              -0.127273065              -0.038607862               0.000000000              -0.150568498              -0.047913621               0.000000000              -0.173863932              -0.057219379               0.000000000              -0.197159365              -0.066525138               0.000000000              -0.220454798              -0.075830897               0.000000000              -0.243750232              -0.085136655               0.000000000              -0.267045665              -0.094442414               0.000000000              -0.290341099              -0.103748172               0.000000000              -0.313636532              -0.113053931               0.000000000              -0.336931966              -0.122359690               0.000000000              -0.360227399              -0.131665448               0.000000000              -0.383522833              -0.140971207               0.000000000              -0.406818266              -0.150276966               0.000000000              -0.430113700              -0.159582724               0.000000000              -0.453409133              -0.168888483               0.000000000              -0.476704567              -0.178194241               0.000000000              -0.500000000              -0.187500000               0.000000000              -0.122875978              -0.050896897               0.000000000              -0.146446229              -0.063340840               0.000000000              -0.170016481              -0.075784784               0.000000000              -0.193586732              -0.088228728               0.000000000              -0.217156983              -0.100672672               0.000000000              -0.240727235              -0.113116616               0.000000000              -0.264297486              -0.125560560               0.000000000              -0.287867738              -0.138004504               0.000000000              -0.311437989              -0.150448448               0.000000000              -0.335008240              -0.162892392               0.000000000              -0.358578492              -0.175336336               0.000000000              -0.382148743              -0.187780280               0.000000000              -0.405718994              -0.200224224               0.000000000              -0.429289246              -0.212668168               0.000000000              -0.452859497              -0.225112112               0.000000000              -0.476429749              -0.237556056               0.000000000              -0.500000000              -0.250000000               0.000000000              -0.117295528              -0.062695766               0.000000000              -0.141214558              -0.078308531               0.000000000              -0.165133587              -0.093921295               0.000000000              -0.189052617              -0.109534060               0.000000000              -0.212971646              -0.125146824               0.000000000              -0.236890676              -0.140759589               0.000000000              -0.260809705              -0.156372354               0.000000000              -0.284728735              -0.171985118               0.000000000              -0.308647764              -0.187597883               0.000000000              -0.332566794              -0.203210648               0.000000000              -0.356485823              -0.218823412               0.000000000              -0.380404853              -0.234436177               0.000000000              -0.404323882              -0.250048941               0.000000000              -0.428242912              -0.265661706               0.000000000              -0.452161941              -0.281274471               0.000000000              -0.476080971              -0.296887235               0.000000000              -0.500000000              -0.312500000               0.000000000              -0.110585458              -0.073890841               0.000000000              -0.134923867              -0.092710163               0.000000000              -0.159262276              -0.111529486               0.000000000              -0.183600685              -0.130348808               0.000000000              -0.207939094              -0.149168131               0.000000000              -0.232277503              -0.167987453               0.000000000              -0.256615912              -0.186806776               0.000000000              -0.280954320              -0.205626098               0.000000000              -0.305292729              -0.224445420               0.000000000              -0.329631138              -0.243264743               0.000000000              -0.353969547              -0.262084065               0.000000000              -0.378307956              -0.280903388               0.000000000              -0.402646365              -0.299722710               0.000000000              -0.426984773              -0.318542033               0.000000000              -0.451323182              -0.337361355               0.000000000              -0.475661591              -0.356180678               0.000000000              -0.500000000              -0.375000000               0.000000000              -0.102810390              -0.084374307               0.000000000              -0.127634741              -0.106444663               0.000000000              -0.152459092              -0.128515018               0.000000000              -0.177283442              -0.150585374               0.000000000              -0.202107793              -0.172655730               0.000000000              -0.226932143              -0.194726086               0.000000000              -0.251756494              -0.216796442               0.000000000              -0.276580845              -0.238866798               0.000000000              -0.301405195              -0.260937153               0.000000000              -0.326229546              -0.283007509               0.000000000              -0.351053896              -0.305077865               0.000000000              -0.375878247              -0.327148221               0.000000000              -0.400702598              -0.349218577               0.000000000              -0.425526948              -0.371288933               0.000000000              -0.450351299              -0.393359288               0.000000000              -0.475175649              -0.415429644               0.000000000              -0.500000000              -0.437500000               0.000000000              -0.094045202              -0.094045202               0.000000000              -0.119417377              -0.119417377               0.000000000              -0.144789552              -0.144789552               0.000000000              -0.170161727              -0.170161727               0.000000000              -0.195533901              -0.195533901               0.000000000              -0.220906076              -0.220906076               0.000000000              -0.246278251              -0.246278251               0.000000000              -0.271650426              -0.271650426               0.000000000              -0.297022601              -0.297022601               0.000000000              -0.322394776              -0.322394776               0.000000000              -0.347766951              -0.347766951               0.000000000              -0.373139126              -0.373139126               0.000000000              -0.398511300              -0.398511300               0.000000000              -0.423883475              -0.423883475               0.000000000              -0.449255650              -0.449255650               0.000000000              -0.474627825              -0.474627825               0.000000000              -0.500000000              -0.500000000               0.000000000              -0.084374307              -0.102810390               0.000000000              -0.106444663              -0.127634741               0.000000000              -0.128515018              -0.152459092               0.000000000              -0.150585374              -0.177283442               0.000000000              -0.172655730              -0.202107793               0.000000000              -0.194726086              -0.226932143               0.000000000              -0.216796442              -0.251756494               0.000000000              -0.238866798              -0.276580845               0.000000000              -0.260937153              -0.301405195               0.000000000              -0.283007509              -0.326229546               0.000000000              -0.305077865              -0.351053896               0.000000000              -0.327148221              -0.375878247               0.000000000              -0.349218577              -0.400702598               0.000000000              -0.371288933              -0.425526948               0.000000000              -0.393359288              -0.450351299               0.000000000              -0.415429644              -0.475175649               0.000000000              -0.437500000              -0.500000000               0.000000000              -0.073890841              -0.110585458               0.000000000              -0.092710163              -0.134923867               0.000000000              -0.111529486              -0.159262276               0.000000000              -0.130348808              -0.183600685               0.000000000              -0.149168131              -0.207939094               0.000000000              -0.167987453              -0.232277503               0.000000000              -0.186806776              -0.256615912               0.000000000              -0.205626098              -0.280954320               0.000000000              -0.224445420              -0.305292729               0.000000000              -0.243264743              -0.329631138               0.000000000              -0.262084065              -0.353969547               0.000000000              -0.280903388              -0.378307956               0.000000000              -0.299722710              -0.402646365               0.000000000              -0.318542033              -0.426984773               0.000000000              -0.337361355              -0.451323182               0.000000000              -0.356180678              -0.475661591               0.000000000              -0.375000000              -0.500000000               0.000000000              -0.062695766              -0.117295528               0.000000000              -0.078308531              -0.141214558               0.000000000              -0.093921295              -0.165133587               0.000000000              -0.109534060              -0.189052617               0.000000000              -0.125146824              -0.212971646               0.000000000              -0.140759589              -0.236890676               0.000000000              -0.156372354              -0.260809705               0.000000000              -0.171985118              -0.284728735               0.000000000              -0.187597883              -0.308647764               0.000000000              -0.203210648              -0.332566794               0.000000000              -0.218823412              -0.356485823               0.000000000              -0.234436177              -0.380404853               0.000000000              -0.250048941              -0.404323882               0.000000000              -0.265661706              -0.428242912               0.000000000              -0.281274471              -0.452161941               0.000000000              -0.296887235              -0.476080971               0.000000000              -0.312500000              -0.500000000               0.000000000              -0.050896897              -0.122875978               0.000000000              -0.063340840              -0.146446229               0.000000000              -0.075784784              -0.170016481               0.000000000              -0.088228728              -0.193586732               0.000000000              -0.100672672              -0.217156983               0.000000000              -0.113116616              -0.240727235               0.000000000              -0.125560560              -0.264297486               0.000000000              -0.138004504              -0.287867738               0.000000000              -0.150448448              -0.311437989               0.000000000              -0.162892392              -0.335008240               0.000000000              -0.175336336              -0.358578492               0.000000000              -0.187780280              -0.382148743               0.000000000              -0.200224224              -0.405718994               0.000000000              -0.212668168              -0.429289246               0.000000000              -0.225112112              -0.452859497               0.000000000              -0.237556056              -0.476429749               0.000000000              -0.250000000              -0.500000000               0.000000000              -0.038607862              -0.127273065               0.000000000              -0.047913621              -0.150568498               0.000000000              -0.057219379              -0.173863932               0.000000000              -0.066525138              -0.197159365               0.000000000              -0.075830897              -0.220454798               0.000000000              -0.085136655              -0.243750232               0.000000000              -0.094442414              -0.267045665               0.000000000              -0.103748172              -0.290341099               0.000000000              -0.113053931              -0.313636532               0.000000000              -0.122359690              -0.336931966               0.000000000              -0.131665448              -0.360227399               0.000000000              -0.140971207              -0.383522833               0.000000000              -0.150276966              -0.406818266               0.000000000              -0.159582724              -0.430113700               0.000000000              -0.168888483              -0.453409133               0.000000000              -0.178194241              -0.476704567               0.000000000              -0.187500000              -0.500000000               0.000000000              -0.025947013              -0.130444442               0.000000000              -0.032137825              -0.153541665               0.000000000              -0.038328636              -0.176638887               0.000000000              -0.044519448              -0.199736109               0.000000000              -0.050710260              -0.222833332               0.000000000              -0.056901071              -0.245930554               0.000000000              -0.063091883              -0.269027776               0.000000000              -0.069282695              -0.292124999               0.000000000              -0.075473506              -0.315222221               0.000000000              -0.081664318              -0.338319444               0.000000000              -0.087855130              -0.361416666               0.000000000              -0.094045942              -0.384513888               0.000000000              -0.100236753              -0.407611111               0.000000000              -0.106427565              -0.430708333               0.000000000              -0.112618377              -0.453805555               0.000000000              -0.118809188              -0.476902778               0.000000000              -0.125000000              -0.500000000               0.000000000              -0.013036280              -0.132359569               0.000000000              -0.016127762              -0.155337096               0.000000000              -0.019219245              -0.178314623               0.000000000              -0.022310727              -0.201292150               0.000000000              -0.025402210              -0.224269676               0.000000000              -0.028493692              -0.247247203               0.000000000              -0.031585175              -0.270224730               0.000000000              -0.034676657              -0.293202257               0.000000000              -0.037768140              -0.316179784               0.000000000              -0.040859622              -0.339157311               0.000000000              -0.043951105              -0.362134838               0.000000000              -0.047042587              -0.385112365               0.000000000              -0.050134070              -0.408089892               0.000000000              -0.053225552              -0.431067419               0.000000000              -0.056317035              -0.454044946               0.000000000              -0.059408517              -0.477022473               0.000000000              -0.062500000              -0.500000000               0.000000000               0.000000000              -0.133000000               0.000000000               0.000000000              -0.155937500               0.000000000               0.000000000              -0.178875000               0.000000000               0.000000000              -0.201812500               0.000000000               0.000000000              -0.224750000               0.000000000               0.000000000              -0.247687500               0.000000000               0.000000000              -0.270625000               0.000000000               0.000000000              -0.293562500               0.000000000               0.000000000              -0.316500000               0.000000000               0.000000000              -0.339437500               0.000000000               0.000000000              -0.362375000               0.000000000               0.000000000              -0.385312500               0.000000000               0.000000000              -0.408250000               0.000000000               0.000000000              -0.431187500               0.000000000               0.000000000              -0.454125000               0.000000000               0.000000000              -0.477062500               0.000000000               0.000000000              -0.500000000               0.000000000              -0.133000000               0.000000000               0.000000000              -0.155937500               0.000000000               0.000000000              -0.178875000               0.000000000               0.000000000              -0.201812500               0.000000000               0.000000000              -0.224750000               0.000000000               0.000000000              -0.247687500               0.000000000               0.000000000              -0.270625000               0.000000000               0.000000000              -0.293562500               0.000000000               0.000000000              -0.316500000               0.000000000               0.000000000              -0.339437500               0.000000000               0.000000000              -0.362375000               0.000000000               0.000000000              -0.385312500               0.000000000               0.000000000              -0.408250000               0.000000000               0.000000000              -0.431187500               0.000000000               0.000000000              -0.454125000               0.000000000               0.000000000              -0.477062500               0.000000000               0.000000000              -0.500000000               0.000000000               0.000000000              -0.132359569               0.013036280               0.000000000              -0.155337096               0.016127762               0.000000000              -0.178314623               0.019219245               0.000000000              -0.201292150               0.022310727               0.000000000              -0.224269676               0.025402210               0.000000000              -0.247247203               0.028493692               0.000000000              -0.270224730               0.031585175               0.000000000              -0.293202257               0.034676657               0.000000000              -0.316179784               0.037768140               0.000000000              -0.339157311               0.040859622               0.000000000              -0.362134838               0.043951105               0.000000000              -0.385112365               0.047042587               0.000000000              -0.408089892               0.050134070               0.000000000              -0.431067419               0.053225552               0.000000000              -0.454044946               0.056317035               0.000000000              -0.477022473               0.059408517               0.000000000              -0.500000000               0.062500000               0.000000000              -0.130444442               0.025947013               0.000000000              -0.153541665               0.032137825               0.000000000              -0.176638887               0.038328636               0.000000000              -0.199736109               0.044519448               0.000000000              -0.222833332               0.050710260               0.000000000              -0.245930554               0.056901071               0.000000000              -0.269027776               0.063091883               0.000000000              -0.292124999               0.069282695               0.000000000              -0.315222221               0.075473506               0.000000000              -0.338319444               0.081664318               0.000000000              -0.361416666               0.087855130               0.000000000              -0.384513888               0.094045942               0.000000000              -0.407611111               0.100236753               0.000000000              -0.430708333               0.106427565               0.000000000              -0.453805555               0.112618377               0.000000000              -0.476902778               0.118809188               0.000000000              -0.500000000               0.125000000               0.000000000              -0.127273065               0.038607862               0.000000000              -0.150568498               0.047913621               0.000000000              -0.173863932               0.057219379               0.000000000              -0.197159365               0.066525138               0.000000000              -0.220454798               0.075830897               0.000000000              -0.243750232               0.085136655               0.000000000              -0.267045665               0.094442414               0.000000000              -0.290341099               0.103748172               0.000000000              -0.313636532               0.113053931               0.000000000              -0.336931966               0.122359690               0.000000000              -0.360227399               0.131665448               0.000000000              -0.383522833               0.140971207               0.000000000              -0.406818266               0.150276966               0.000000000              -0.430113700               0.159582724               0.000000000              -0.453409133               0.168888483               0.000000000              -0.476704567               0.178194241               0.000000000              -0.500000000               0.187500000               0.000000000              -0.122875978               0.050896897               0.000000000              -0.146446229               0.063340840               0.000000000              -0.170016481               0.075784784               0.000000000              -0.193586732               0.088228728               0.000000000              -0.217156983               0.100672672               0.000000000              -0.240727235               0.113116616               0.000000000              -0.264297486               0.125560560               0.000000000              -0.287867738               0.138004504               0.000000000              -0.311437989               0.150448448               0.000000000              -0.335008240               0.162892392               0.000000000              -0.358578492               0.175336336               0.000000000              -0.382148743               0.187780280               0.000000000              -0.405718994               0.200224224               0.000000000              -0.429289246               0.212668168               0.000000000              -0.452859497               0.225112112               0.000000000              -0.476429749               0.237556056               0.000000000              -0.500000000               0.250000000               0.000000000              -0.117295528               0.062695766               0.000000000              -0.141214558               0.078308531               0.000000000              -0.165133587               0.093921295               0.000000000              -0.189052617               0.109534060               0.000000000              -0.212971646               0.125146824               0.000000000              -0.236890676               0.140759589               0.000000000              -0.260809705               0.156372354               0.000000000              -0.284728735               0.171985118               0.000000000              -0.308647764               0.187597883               0.000000000              -0.332566794               0.203210648               0.000000000              -0.356485823               0.218823412               0.000000000              -0.380404853               0.234436177               0.000000000              -0.404323882               0.250048941               0.000000000              -0.428242912               0.265661706               0.000000000              -0.452161941               0.281274471               0.000000000              -0.476080971               0.296887235               0.000000000              -0.500000000               0.312500000               0.000000000              -0.110585458               0.073890841               0.000000000              -0.134923867               0.092710163               0.000000000              -0.159262276               0.111529486               0.000000000              -0.183600685               0.130348808               0.000000000              -0.207939094               0.149168131               0.000000000              -0.232277503               0.167987453               0.000000000              -0.256615912               0.186806776               0.000000000              -0.280954320               0.205626098               0.000000000              -0.305292729               0.224445420               0.000000000              -0.329631138               0.243264743               0.000000000              -0.353969547               0.262084065               0.000000000              -0.378307956               0.280903388               0.000000000              -0.402646365               0.299722710               0.000000000              -0.426984773               0.318542033               0.000000000              -0.451323182               0.337361355               0.000000000              -0.475661591               0.356180678               0.000000000              -0.500000000               0.375000000               0.000000000              -0.102810390               0.084374307               0.000000000              -0.127634741               0.106444663               0.000000000              -0.152459092               0.128515018               0.000000000              -0.177283442               0.150585374               0.000000000              -0.202107793               0.172655730               0.000000000              -0.226932143               0.194726086               0.000000000              -0.251756494               0.216796442               0.000000000              -0.276580845               0.238866798               0.000000000              -0.301405195               0.260937153               0.000000000              -0.326229546               0.283007509               0.000000000              -0.351053896               0.305077865               0.000000000              -0.375878247               0.327148221               0.000000000              -0.400702598               0.349218577               0.000000000              -0.425526948               0.371288933               0.000000000              -0.450351299               0.393359288               0.000000000              -0.475175649               0.415429644               0.000000000              -0.500000000               0.437500000               0.000000000              -0.094045202               0.094045202               0.000000000              -0.119417377               0.119417377               0.000000000              -0.144789552               0.144789552               0.000000000              -0.170161727               0.170161727               0.000000000              -0.195533901               0.195533901               0.000000000              -0.220906076               0.220906076               0.000000000              -0.246278251               0.246278251               0.000000000              -0.271650426               0.271650426               0.000000000              -0.297022601               0.297022601               0.000000000              -0.322394776               0.322394776               0.000000000              -0.347766951               0.347766951               0.000000000              -0.373139126               0.373139126               0.000000000              -0.398511300               0.398511300               0.000000000              -0.423883475               0.423883475               0.000000000              -0.449255650               0.449255650               0.000000000              -0.474627825               0.474627825               0.000000000              -0.500000000               0.500000000               0.000000000              -0.084374307               0.102810390               0.000000000              -0.106444663               0.127634741               0.000000000              -0.128515018               0.152459092               0.000000000              -0.150585374               0.177283442               0.000000000              -0.172655730               0.202107793               0.000000000              -0.194726086               0.226932143               0.000000000              -0.216796442               0.251756494               0.000000000              -0.238866798               0.276580845               0.000000000              -0.260937153               0.301405195               0.000000000              -0.283007509               0.326229546               0.000000000              -0.305077865               0.351053896               0.000000000              -0.327148221               0.375878247               0.000000000              -0.349218577               0.400702598               0.000000000              -0.371288933               0.425526948               0.000000000              -0.393359288               0.450351299               0.000000000              -0.415429644               0.475175649               0.000000000              -0.437500000               0.500000000               0.000000000              -0.073890841               0.110585458               0.000000000              -0.092710163               0.134923867               0.000000000              -0.111529486               0.159262276               0.000000000              -0.130348808               0.183600685               0.000000000              -0.149168131               0.207939094               0.000000000              -0.167987453               0.232277503               0.000000000              -0.186806776               0.256615912               0.000000000              -0.205626098               0.280954320               0.000000000              -0.224445420               0.305292729               0.000000000              -0.243264743               0.329631138               0.000000000              -0.262084065               0.353969547               0.000000000              -0.280903388               0.378307956               0.000000000              -0.299722710               0.402646365               0.000000000              -0.318542033               0.426984773               0.000000000              -0.337361355               0.451323182               0.000000000              -0.356180678               0.475661591               0.000000000              -0.375000000               0.500000000               0.000000000              -0.062695766               0.117295528               0.000000000              -0.078308531               0.141214558               0.000000000              -0.093921295               0.165133587               0.000000000              -0.109534060               0.189052617               0.000000000              -0.125146824               0.212971646               0.000000000              -0.140759589               0.236890676               0.000000000              -0.156372354               0.260809705               0.000000000              -0.171985118               0.284728735               0.000000000              -0.187597883               0.308647764               0.000000000              -0.203210648               0.332566794               0.000000000              -0.218823412               0.356485823               0.000000000              -0.234436177               0.380404853               0.000000000              -0.250048941               0.404323882               0.000000000              -0.265661706               0.428242912               0.000000000              -0.281274471               0.452161941               0.000000000              -0.296887235               0.476080971               0.000000000              -0.312500000               0.500000000               0.000000000              -0.050896897               0.122875978               0.000000000              -0.063340840               0.146446229               0.000000000              -0.075784784               0.170016481               0.000000000              -0.088228728               0.193586732               0.000000000              -0.100672672               0.217156983               0.000000000              -0.113116616               0.240727235               0.000000000              -0.125560560               0.264297486               0.000000000              -0.138004504               0.287867738               0.000000000              -0.150448448               0.311437989               0.000000000              -0.162892392               0.335008240               0.000000000              -0.175336336               0.358578492               0.000000000              -0.187780280               0.382148743               0.000000000              -0.200224224               0.405718994               0.000000000              -0.212668168               0.429289246               0.000000000              -0.225112112               0.452859497               0.000000000              -0.237556056               0.476429749               0.000000000              -0.250000000               0.500000000               0.000000000              -0.038607862               0.127273065               0.000000000              -0.047913621               0.150568498               0.000000000              -0.057219379               0.173863932               0.000000000              -0.066525138               0.197159365               0.000000000              -0.075830897               0.220454798               0.000000000              -0.085136655               0.243750232               0.000000000              -0.094442414               0.267045665               0.000000000              -0.103748172               0.290341099               0.000000000              -0.113053931               0.313636532               0.000000000              -0.122359690               0.336931966               0.000000000              -0.131665448               0.360227399               0.000000000              -0.140971207               0.383522833               0.000000000              -0.150276966               0.406818266               0.000000000              -0.159582724               0.430113700               0.000000000              -0.168888483               0.453409133               0.000000000              -0.178194241               0.476704567               0.000000000              -0.187500000               0.500000000               0.000000000              -0.025947013               0.130444442               0.000000000              -0.032137825               0.153541665               0.000000000              -0.038328636               0.176638887               0.000000000              -0.044519448               0.199736109               0.000000000              -0.050710260               0.222833332               0.000000000              -0.056901071               0.245930554               0.000000000              -0.063091883               0.269027776               0.000000000              -0.069282695               0.292124999               0.000000000              -0.075473506               0.315222221               0.000000000              -0.081664318               0.338319444               0.000000000              -0.087855130               0.361416666               0.000000000              -0.094045942               0.384513888               0.000000000              -0.100236753               0.407611111               0.000000000              -0.106427565               0.430708333               0.000000000              -0.112618377               0.453805555               0.000000000              -0.118809188               0.476902778               0.000000000              -0.125000000               0.500000000               0.000000000              -0.013036280               0.132359569               0.000000000              -0.016127762               0.155337096               0.000000000              -0.019219245               0.178314623               0.000000000              -0.022310727               0.201292150               0.000000000              -0.025402210               0.224269676               0.000000000              -0.028493692               0.247247203               0.000000000              -0.031585175               0.270224730               0.000000000              -0.034676657               0.293202257               0.000000000              -0.037768140               0.316179784               0.000000000              -0.040859622               0.339157311               0.000000000              -0.043951105               0.362134838               0.000000000              -0.047042587               0.385112365               0.000000000              -0.050134070               0.408089892               0.000000000              -0.053225552               0.431067419               0.000000000              -0.056317035               0.454044946               0.000000000              -0.059408517               0.477022473               0.000000000              -0.062500000               0.500000000               0.000000000               0.000000000               0.133000000               0.000000000               0.000000000               0.155937500               0.000000000               0.000000000               0.178875000               0.000000000               0.000000000               0.201812500               0.000000000               0.000000000               0.224750000               0.000000000               0.000000000               0.247687500               0.000000000               0.000000000               0.270625000               0.000000000               0.000000000               0.293562500               0.000000000               0.000000000               0.316500000               0.000000000               0.000000000               0.339437500               0.000000000               0.000000000               0.362375000               0.000000000               0.000000000               0.385312500               0.000000000               0.000000000               0.408250000               0.000000000               0.000000000               0.431187500               0.000000000               0.000000000               0.454125000               0.000000000               0.000000000               0.477062500               0.000000000               0.000000000               0.500000000               0.000000000 </DataArray>
</Points>
<Cells>
<DataArray type="Int32"                                    Name="connectivity"                                                      NumberOfComponents=" 1" format="ascii">
         0          1         18         17          1          2         19         18          2          3         20         19          3          4         21         20          4          5         22         21          5          6         23         22          6          7         24         23          7          8         25         24          8          9         26         25          9         10         27         26         10         11         28         27         11         12         29         28         12         13         30         29         13         14         31         30         14         15         32         31         15         16         33         32         17         18         35         34         18         19         36         35         19         20         37         36         20         21         38         37         21         22         39         38         22         23         40         39         23         24         41         40         24         25         42         41         25         26         43         42         26         27         44         43         27         28         45         44         28         29         46         45         29         30         47         46         30         31         48         47         31         32         49         48         32         33         50         49         34         35         52         51         35         36         53         52         36         37         54         53         37         38         55         54         38         39         56         55         39         40         57         56         40         41         58         57         41         42         59         58         42         43         60         59         43         44         61         60         44         45         62         61         45         46         63         62         46         47         64         63         47         48         65         64         48         49         66         65         49         50         67         66         51         52         69         68         52         53         70         69         53         54         71         70         54         55         72         71         55         56         73         72         56         57         74         73         57         58         75         74         58         59         76         75         59         60         77         76         60         61         78         77         61         62         79         78         62         63         80         79         63         64         81         80         64         65         82         81         65         66         83         82         66         67         84         83         68         69         86         85         69         70         87         86         70         71         88         87         71         72         89         88         72         73         90         89         73         74         91         90         74         75         92         91         75         76         93         92         76         77         94         93         77         78         95         94         78         79         96         95         79         80         97         96         80         81         98         97         81         82         99         98         82         83        100         99         83         84        101        100         85         86        103        102         86         87        104        103         87         88        105        104         88         89        106        105         89         90        107        106         90         91        108        107         91         92        109        108         92         93        110        109         93         94        111        110         94         95        112        111         95         96        113        112         96         97        114        113         97         98        115        114         98         99        116        115         99        100        117        116        100        101        118        117        102        103        120        119        103        104        121        120        104        105        122        121        105        106        123        122        106        107        124        123        107        108        125        124        108        109        126        125        109        110        127        126        110        111        128        127        111        112        129        128        112        113        130        129        113        114        131        130        114        115        132        131        115        116        133        132        116        117        134        133        117        118        135        134        119        120        137        136        120        121        138        137        121        122        139        138        122        123        140        139        123        124        141        140        124        125        142        141        125        126        143        142        126        127        144        143        127        128        145        144        128        129        146        145        129        130        147        146        130        131        148        147        131        132        149        148        132        133        150        149        133        134        151        150        134        135        152        151        136        137        154        153        137        138        155        154        138        139        156        155        139        140        157        156        140        141        158        157        141        142        159        158        142        143        160        159        143        144        161        160        144        145        162        161        145        146        163        162        146        147        164        163        147        148        165        164        148        149        166        165        149        150        167        166        150        151        168        167        151        152        169        168        153        154        171        170        154        155        172        171        155        156        173        172        156        157        174        173        157        158        175        174        158        159        176        175        159        160        177        176        160        161        178        177        161        162        179        178        162        163        180        179        163        164        181        180        164        165        182        181        165        166        183        182        166        167        184        183        167        168        185        184        168        169        186        185        170        171        188        187        171        172        189        188        172        173        190        189        173        174        191        190        174        175        192        191        175        176        193        192        176        177        194        193        177        178        195        194        178        179        196        195        179        180        197        196        180        181        198        197        181        182        199        198        182        183        200        199        183        184        201        200        184        185        202        201        185        186        203        202        187        188        205        204        188        189        206        205        189        190        207        206        190        191        208        207        191        192        209        208        192        193        210        209        193        194        211        210        194        195        212        211        195        196        213        212        196        197        214        213        197        198        215        214        198        199        216        215        199        200        217        216        200        201        218        217        201        202        219        218        202        203        220        219        204        205        222        221        205        206        223        222        206        207        224        223        207        208        225        224        208        209        226        225        209        210        227        226        210        211        228        227        211        212        229        228        212        213        230        229        213        214        231        230        214        215        232        231        215        216        233        232        216        217        234        233        217        218        235        234        218        219        236        235        219        220        237        236        221        222        239        238        222        223        240        239        223        224        241        240        224        225        242        241        225        226        243        242        226        227        244        243        227        228        245        244        228        229        246        245        229        230        247        246        230        231        248        247        231        232        249        248        232        233        250        249        233        234        251        250        234        235        252        251        235        236        253        252        236        237        254        253        238        239        256        255        239        240        257        256        240        241        258        257        241        242        259        258        242        243        260        259        243        244        261        260        244        245        262        261        245        246        263        262        246        247        264        263        247        248        265        264        248        249        266        265        249        250        267        266        250        251        268        267        251        252        269        268        252        253        270        269        253        254        271        270        255        256        273        272        256        257        274        273        257        258        275        274        258        259        276        275        259        260        277        276        260        261        278        277        261        262        279        278        262        263        280        279        263        264        281        280        264        265        282        281        265        266        283        282        266        267        284        283        267        268        285        284        268        269        286        285        269        270        287        286        270        271        288        287        306        307          1          0        307        308          2          1        308        309          3          2        309        310          4          3        310        311          5          4        311        312          6          5        312        313          7          6        313        314          8          7        314        315          9          8        315        316         10          9        316        317         11         10        317        318         12         11        318        319         13         12        319        320         14         13        320        321         15         14        321        322         16         15        323        324        307        306        324        325        308        307        325        326        309        308        326        327        310        309        327        328        311        310        328        329        312        311        329        330        313        312        330        331        314        313        331        332        315        314        332        333        316        315        333        334        317        316        334        335        318        317        335        336        319        318        336        337        320        319        337        338        321        320        338        339        322        321        340        341        324        323        341        342        325        324        342        343        326        325        343        344        327        326        344        345        328        327        345        346        329        328        346        347        330        329        347        348        331        330        348        349        332        331        349        350        333        332        350        351        334        333        351        352        335        334        352        353        336        335        353        354        337        336        354        355        338        337        355        356        339        338        357        358        341        340        358        359        342        341        359        360        343        342        360        361        344        343        361        362        345        344        362        363        346        345        363        364        347        346        364        365        348        347        365        366        349        348        366        367        350        349        367        368        351        350        368        369        352        351        369        370        353        352        370        371        354        353        371        372        355        354        372        373        356        355        374        375        358        357        375        376        359        358        376        377        360        359        377        378        361        360        378        379        362        361        379        380        363        362        380        381        364        363        381        382        365        364        382        383        366        365        383        384        367        366        384        385        368        367        385        386        369        368        386        387        370        369        387        388        371        370        388        389        372        371        389        390        373        372        391        392        375        374        392        393        376        375        393        394        377        376        394        395        378        377        395        396        379        378        396        397        380        379        397        398        381        380        398        399        382        381        399        400        383        382        400        401        384        383        401        402        385        384        402        403        386        385        403        404        387        386        404        405        388        387        405        406        389        388        406        407        390        389        408        409        392        391        409        410        393        392        410        411        394        393        411        412        395        394        412        413        396        395        413        414        397        396        414        415        398        397        415        416        399        398        416        417        400        399        417        418        401        400        418        419        402        401        419        420        403        402        420        421        404        403        421        422        405        404        422        423        406        405        423        424        407        406        425        426        409        408        426        427        410        409        427        428        411        410        428        429        412        411        429        430        413        412        430        431        414        413        431        432        415        414        432        433        416        415        433        434        417        416        434        435        418        417        435        436        419        418        436        437        420        419        437        438        421        420        438        439        422        421        439        440        423        422        440        441        424        423        442        443        426        425        443        444        427        426        444        445        428        427        445        446        429        428        446        447        430        429        447        448        431        430        448        449        432        431        449        450        433        432        450        451        434        433        451        452        435        434        452        453        436        435        453        454        437        436        454        455        438        437        455        456        439        438        456        457        440        439        457        458        441        440        459        460        443        442        460        461        444        443        461        462        445        444        462        463        446        445        463        464        447        446        464        465        448        447        465        466        449        448        466        467        450        449        467        468        451        450        468        469        452        451        469        470        453        452        470        471        454        453        471        472        455        454        472        473        456        455        473        474        457        456        474        475        458        457        476        477        460        459        477        478        461        460        478        479        462        461        479        480        463        462        480        481        464        463        481        482        465        464        482        483        466        465        483        484        467        466        484        485        468        467        485        486        469        468        486        487        470        469        487        488        471        470        488        489        472        471        489        490        473        472        490        491        474        473        491        492        475        474        493        494        477        476        494        495        478        477        495        496        479        478        496        497        480        479        497        498        481        480        498        499        482        481        499        500        483        482        500        501        484        483        501        502        485        484        502        503        486        485        503        504        487        486        504        505        488        487        505        506        489        488        506        507        490        489        507        508        491        490        508        509        492        491        510        511        494        493        511        512        495        494        512        513        496        495        513        514        497        496        514        515        498        497        515        516        499        498        516        517        500        499        517        518        501        500        518        519        502        501        519        520        503        502        520        521        504        503        521        522        505        504        522        523        506        505        523        524        507        506        524        525        508        507        525        526        509        508        527        528        511        510        528        529        512        511        529        530        513        512        530        531        514        513        531        532        515        514        532        533        516        515        533        534        517        516        534        535        518        517        535        536        519        518        536        537        520        519        537        538        521        520        538        539        522        521        539        540        523        522        540        541        524        523        541        542        525        524        542        543        526        525        544        545        528        527        545        546        529        528        546        547        530        529        547        548        531        530        548        549        532        531        549        550        533        532        550        551        534        533        551        552        535        534        552        553        536        535        553        554        537        536        554        555        538        537        555        556        539        538        556        557        540        539        557        558        541        540        558        559        542        541        559        560        543        542        561        562        545        544        562        563        546        545        563        564        547        546        564        565        548        547        565        566        549        548        566        567        550        549        567        568        551        550        568        569        552        551        569        570        553        552        570        571        554        553        571        572        555        554        572        573        556        555        573        574        557        556        574        575        558        557        575        576        559        558        576        577        560        559        578        579        596        595        579        580        597        596        580        581        598        597        581        582        599        598        582        583        600        599        583        584        601        600        584        585        602        601        585        586        603        602        586        587        604        603        587        588        605        604        588        589        606        605        589        590        607        606        590        591        608        607        591        592        609        608        592        593        610        609        593        594        611        610        595        596        613        612        596        597        614        613        597        598        615        614        598        599        616        615        599        600        617        616        600        601        618        617        601        602        619        618        602        603        620        619        603        604        621        620        604        605        622        621        605        606        623        622        606        607        624        623        607        608        625        624        608        609        626        625        609        610        627        626        610        611        628        627        612        613        630        629        613        614        631        630        614        615        632        631        615        616        633        632        616        617        634        633        617        618        635        634        618        619        636        635        619        620        637        636        620        621        638        637        621        622        639        638        622        623        640        639        623        624        641        640        624        625        642        641        625        626        643        642        626        627        644        643        627        628        645        644        629        630        647        646        630        631        648        647        631        632        649        648        632        633        650        649        633        634        651        650        634        635        652        651        635        636        653        652        636        637        654        653        637        638        655        654        638        639        656        655        639        640        657        656        640        641        658        657        641        642        659        658        642        643        660        659        643        644        661        660        644        645        662        661        646        647        664        663        647        648        665        664        648        649        666        665        649        650        667        666        650        651        668        667        651        652        669        668        652        653        670        669        653        654        671        670        654        655        672        671        655        656        673        672        656        657        674        673        657        658        675        674        658        659        676        675        659        660        677        676        660        661        678        677        661        662        679        678        663        664        681        680        664        665        682        681        665        666        683        682        666        667        684        683        667        668        685        684        668        669        686        685        669        670        687        686        670        671        688        687        671        672        689        688        672        673        690        689        673        674        691        690        674        675        692        691        675        676        693        692        676        677        694        693        677        678        695        694        678        679        696        695        680        681        698        697        681        682        699        698        682        683        700        699        683        684        701        700        684        685        702        701        685        686        703        702        686        687        704        703        687        688        705        704        688        689        706        705        689        690        707        706        690        691        708        707        691        692        709        708        692        693        710        709        693        694        711        710        694        695        712        711        695        696        713        712        697        698        715        714        698        699        716        715        699        700        717        716        700        701        718        717        701        702        719        718        702        703        720        719        703        704        721        720        704        705        722        721        705        706        723        722        706        707        724        723        707        708        725        724        708        709        726        725        709        710        727        726        710        711        728        727        711        712        729        728        712        713        730        729        714        715        732        731        715        716        733        732        716        717        734        733        717        718        735        734        718        719        736        735        719        720        737        736        720        721        738        737        721        722        739        738        722        723        740        739        723        724        741        740        724        725        742        741        725        726        743        742        726        727        744        743        727        728        745        744        728        729        746        745        729        730        747        746        731        732        749        748        732        733        750        749        733        734        751        750        734        735        752        751        735        736        753        752        736        737        754        753        737        738        755        754        738        739        756        755        739        740        757        756        740        741        758        757        741        742        759        758        742        743        760        759        743        744        761        760        744        745        762        761        745        746        763        762        746        747        764        763        748        749        766        765        749        750        767        766        750        751        768        767        751        752        769        768        752        753        770        769        753        754        771        770        754        755        772        771        755        756        773        772        756        757        774        773        757        758        775        774        758        759        776        775        759        760        777        776        760        761        778        777        761        762        779        778        762        763        780        779        763        764        781        780        765        766        783        782        766        767        784        783        767        768        785        784        768        769        786        785        769        770        787        786        770        771        788        787        771        772        789        788        772        773        790        789        773        774        791        790        774        775        792        791        775        776        793        792        776        777        794        793        777        778        795        794        778        779        796        795        779        780        797        796        780        781        798        797        782        783        800        799        783        784        801        800        784        785        802        801        785        786        803        802        786        787        804        803        787        788        805        804        788        789        806        805        789        790        807        806        790        791        808        807        791        792        809        808        792        793        810        809        793        794        811        810        794        795        812        811        795        796        813        812        796        797        814        813        797        798        815        814        799        800        817        816        800        801        818        817        801        802        819        818        802        803        820        819        803        804        821        820        804        805        822        821        805        806        823        822        806        807        824        823        807        808        825        824        808        809        826        825        809        810        827        826        810        811        828        827        811        812        829        828        812        813        830        829        813        814        831        830        814        815        832        831        816        817        834        833        817        818        835        834        818        819        836        835        819        820        837        836        820        821        838        837        821        822        839        838        822        823        840        839        823        824        841        840        824        825        842        841        825        826        843        842        826        827        844        843        827        828        845        844        828        829        846        845        829        830        847        846        830        831        848        847        831        832        849        848        833        834        562        561        834        835        563        562        835        836        564        563        836        837        565        564        837        838        566        565        838        839        567        566        839        840        568        567        840        841        569        568        841        842        570        569        842        843        571        570        843        844        572        571        844        845        573        572        845        846        574        573        846        847        575        574        847        848        576        575        848        849        577        576        884        885        579        578        885        886        580        579        886        887        581        580        887        888        582        581        888        889        583        582        889        890        584        583        890        891        585        584        891        892        586        585        892        893        587        586        893        894        588        587        894        895        589        588        895        896        590        589        896        897        591        590        897        898        592        591        898        899        593        592        899        900        594        593        901        902        885        884        902        903        886        885        903        904        887        886        904        905        888        887        905        906        889        888        906        907        890        889        907        908        891        890        908        909        892        891        909        910        893        892        910        911        894        893        911        912        895        894        912        913        896        895        913        914        897        896        914        915        898        897        915        916        899        898        916        917        900        899        918        919        902        901        919        920        903        902        920        921        904        903        921        922        905        904        922        923        906        905        923        924        907        906        924        925        908        907        925        926        909        908        926        927        910        909        927        928        911        910        928        929        912        911        929        930        913        912        930        931        914        913        931        932        915        914        932        933        916        915        933        934        917        916        935        936        919        918        936        937        920        919        937        938        921        920        938        939        922        921        939        940        923        922        940        941        924        923        941        942        925        924        942        943        926        925        943        944        927        926        944        945        928        927        945        946        929        928        946        947        930        929        947        948        931        930        948        949        932        931        949        950        933        932        950        951        934        933        952        953        936        935        953        954        937        936        954        955        938        937        955        956        939        938        956        957        940        939        957        958        941        940        958        959        942        941        959        960        943        942        960        961        944        943        961        962        945        944        962        963        946        945        963        964        947        946        964        965        948        947        965        966        949        948        966        967        950        949        967        968        951        950        969        970        953        952        970        971        954        953        971        972        955        954        972        973        956        955        973        974        957        956        974        975        958        957        975        976        959        958        976        977        960        959        977        978        961        960        978        979        962        961        979        980        963        962        980        981        964        963        981        982        965        964        982        983        966        965        983        984        967        966        984        985        968        967        986        987        970        969        987        988        971        970        988        989        972        971        989        990        973        972        990        991        974        973        991        992        975        974        992        993        976        975        993        994        977        976        994        995        978        977        995        996        979        978        996        997        980        979        997        998        981        980        998        999        982        981        999       1000        983        982       1000       1001        984        983       1001       1002        985        984       1003       1004        987        986       1004       1005        988        987       1005       1006        989        988       1006       1007        990        989       1007       1008        991        990       1008       1009        992        991       1009       1010        993        992       1010       1011        994        993       1011       1012        995        994       1012       1013        996        995       1013       1014        997        996       1014       1015        998        997       1015       1016        999        998       1016       1017       1000        999       1017       1018       1001       1000       1018       1019       1002       1001       1020       1021       1004       1003       1021       1022       1005       1004       1022       1023       1006       1005       1023       1024       1007       1006       1024       1025       1008       1007       1025       1026       1009       1008       1026       1027       1010       1009       1027       1028       1011       1010       1028       1029       1012       1011       1029       1030       1013       1012       1030       1031       1014       1013       1031       1032       1015       1014       1032       1033       1016       1015       1033       1034       1017       1016       1034       1035       1018       1017       1035       1036       1019       1018       1037       1038       1021       1020       1038       1039       1022       1021       1039       1040       1023       1022       1040       1041       1024       1023       1041       1042       1025       1024       1042       1043       1026       1025       1043       1044       1027       1026       1044       1045       1028       1027       1045       1046       1029       1028       1046       1047       1030       1029       1047       1048       1031       1030       1048       1049       1032       1031       1049       1050       1033       1032       1050       1051       1034       1033       1051       1052       1035       1034       1052       1053       1036       1035       1054       1055       1038       1037       1055       1056       1039       1038       1056       1057       1040       1039       1057       1058       1041       1040       1058       1059       1042       1041       1059       1060       1043       1042       1060       1061       1044       1043       1061       1062       1045       1044       1062       1063       1046       1045       1063       1064       1047       1046       1064       1065       1048       1047       1065       1066       1049       1048       1066       1067       1050       1049       1067       1068       1051       1050       1068       1069       1052       1051       1069       1070       1053       1052       1071       1072       1055       1054       1072       1073       1056       1055       1073       1074       1057       1056       1074       1075       1058       1057       1075       1076       1059       1058       1076       1077       1060       1059       1077       1078       1061       1060       1078       1079       1062       1061       1079       1080       1063       1062       1080       1081       1064       1063       1081       1082       1065       1064       1082       1083       1066       1065       1083       1084       1067       1066       1084       1085       1068       1067       1085       1086       1069       1068       1086       1087       1070       1069       1088       1089       1072       1071       1089       1090       1073       1072       1090       1091       1074       1073       1091       1092       1075       1074       1092       1093       1076       1075       1093       1094       1077       1076       1094       1095       1078       1077       1095       1096       1079       1078       1096       1097       1080       1079       1097       1098       1081       1080       1098       1099       1082       1081       1099       1100       1083       1082       1100       1101       1084       1083       1101       1102       1085       1084       1102       1103       1086       1085       1103       1104       1087       1086       1105       1106       1089       1088       1106       1107       1090       1089       1107       1108       1091       1090       1108       1109       1092       1091       1109       1110       1093       1092       1110       1111       1094       1093       1111       1112       1095       1094       1112       1113       1096       1095       1113       1114       1097       1096       1114       1115       1098       1097       1115       1116       1099       1098       1116       1117       1100       1099       1117       1118       1101       1100       1118       1119       1102       1101       1119       1120       1103       1102       1120       1121       1104       1103       1122       1123       1106       1105       1123       1124       1107       1106       1124       1125       1108       1107       1125       1126       1109       1108       1126       1127       1110       1109       1127       1128       1111       1110       1128       1129       1112       1111       1129       1130       1113       1112       1130       1131       1114       1113       1131       1132       1115       1114       1132       1133       1116       1115       1133       1134       1117       1116       1134       1135       1118       1117       1135       1136       1119       1118       1136       1137       1120       1119       1137       1138       1121       1120        272        273       1123       1122        273        274       1124       1123        274        275       1125       1124        275        276       1126       1125        276        277       1127       1126        277        278       1128       1127        278        279       1129       1128        279        280       1130       1129        280        281       1131       1130        281        282       1132       1131        282        283       1133       1132        283        284       1134       1133        284        285       1135       1134        285        286       1136       1135        286        287       1137       1136        287        288       1138       1137 </DataArray>
<DataArray type="Int32"                                    Name="offsets"                                                      NumberOfComponents=" 1" format="ascii">
         4          8         12         16         20         24         28         32         36         40         44         48         52         56         60         64         68         72         76         80         84         88         92         96        100        104        108        112        116        120        124        128        132        136        140        144        148        152        156        160        164        168        172        176        180        184        188        192        196        200        204        208        212        216        220        224        228        232        236        240        244        248        252        256        260        264        268        272        276        280        284        288        292        296        300        304        308        312        316        320        324        328        332        336        340        344        348        352        356        360        364        368        372        376        380        384        388        392        396        400        404        408        412        416        420        424        428        432        436        440        444        448        452        456        460        464        468        472        476        480        484        488        492        496        500        504        508        512        516        520        524        528        532        536        540        544        548        552        556        560        564        568        572        576        580        584        588        592        596        600        604        608        612        616        620        624        628        632        636        640        644        648        652        656        660        664        668        672        676        680        684        688        692        696        700        704        708        712        716        720        724        728        732        736        740        744        748        752        756        760        764        768        772        776        780        784        788        792        796        800        804        808        812        816        820        824        828        832        836        840        844        848        852        856        860        864        868        872        876        880        884        888        892        896        900        904        908        912        916        920        924        928        932        936        940        944        948        952        956        960        964        968        972        976        980        984        988        992        996       1000       1004       1008       1012       1016       1020       1024       1028       1032       1036       1040       1044       1048       1052       1056       1060       1064       1068       1072       1076       1080       1084       1088       1092       1096       1100       1104       1108       1112       1116       1120       1124       1128       1132       1136       1140       1144       1148       1152       1156       1160       1164       1168       1172       1176       1180       1184       1188       1192       1196       1200       1204       1208       1212       1216       1220       1224       1228       1232       1236       1240       1244       1248       1252       1256       1260       1264       1268       1272       1276       1280       1284       1288       1292       1296       1300       1304       1308       1312       1316       1320       1324       1328       1332       1336       1340       1344       1348       1352       1356       1360       1364       1368       1372       1376       1380       1384       1388       1392       1396       1400       1404       1408       1412       1416       1420       1424       1428       1432       1436       1440       1444       1448       1452       1456       1460       1464       1468       1472       1476       1480       1484       1488       1492       1496       1500       1504       1508       1512       1516       1520       1524       1528       1532       1536       1540       1544       1548       1552       1556       1560       1564       1568       1572       1576       1580       1584       1588       1592       1596       1600       1604       1608       1612       1616       1620       1624       1628       1632       1636       1640       1644       1648       1652       1656       1660       1664       1668       1672       1676       1680       1684       1688       1692       1696       1700       1704       1708       1712       1716       1720       1724       1728       1732       1736       1740       1744       1748       1752       1756       1760       1764       1768       1772       1776       1780       1784       1788       1792       1796       1800       1804       1808       1812       1816       1820       1824       1828       1832       1836       1840       1844       1848       1852       1856       1860       1864       1868       1872       1876       1880       1884       1888       1892       1896       1900       1904       1908       1912       1916       1920       1924       1928       1932       1936       1940       1944       1948       1952       1956       1960       1964       1968       1972       1976       1980       1984       1988       1992       1996       2000       2004       2008       2012       2016       2020       2024       2028       2032       2036       2040       2044       2048       2052       2056       2060       2064       2068       2072       2076       2080       2084       2088       2092       2096       2100       2104       2108       2112       2116       2120       2124       2128       2132       2136       2140       2144       2148       2152       2156       2160       2164       2168       2172       2176       2180       2184       2188       2192       2196       2200       2204       2208       2212       2216       2220       2224       2228       2232       2236       2240       2244       2248       2252       2256       2260       2264       2268       2272       2276       2280       2284       2288       2292       2296       2300       2304       2308       2312       2316       2320       2324       2328       2332       2336       2340       2344       2348       2352       2356       2360       2364       2368       2372       2376       2380       2384       2388       2392       2396       2400       2404       2408       2412       2416       2420       2424       2428       2432       2436       2440       2444       2448       2452       2456       2460       2464       2468       2472       2476       2480       2484       2488       2492       2496       2500       2504       2508       2512       2516       2520       2524       2528       2532       2536       2540       2544       2548       2552       2556       2560       2564       2568       2572       2576       2580       2584       2588       2592       2596       2600       2604       2608       2612       2616       2620       2624       2628       2632       2636       2640       2644       2648       2652       2656       2660       2664       2668       2672       2676       2680       2684       2688       2692       2696       2700       2704       2708       2712       2716       2720       2724       2728       2732       2736       2740       2744       2748       2752       2756       2760       2764       2768       2772       2776       2780       2784       2788       2792       2796       2800       2804       2808       2812       2816       2820       2824       2828       2832       2836       2840       2844       2848       2852       2856       2860       2864       2868       2872       2876       2880       2884       2888       2892       2896       2900       2904       2908       2912       2916       2920       2924       2928       2932       2936       2940       2944       2948       2952       2956       2960       2964       2968       2972       2976       2980       2984       2988       2992       2996       3000       3004       3008       3012       3016       3020       3024       3028       3032       3036       3040       3044       3048       3052       3056       3060       3064       3068       3072       3076       3080       3084       3088       3092       3096       3100       3104       3108       3112       3116       3120       3124       3128       3132       3136       3140       3144       3148       3152       3156       3160       3164       3168       3172       3176       3180       3184       3188       3192       3196       3200       3204       3208       3212       3216       3220       3224       3228       3232       3236       3240       3244       3248       3252       3256       3260       3264       3268       3272       3276       3280       3284       3288       3292       3296       3300       3304       3308       3312       3316       3320       3324       3328       3332       3336       3340       3344       3348       3352       3356       3360       3364       3368       3372       3376       3380       3384       3388       3392       3396       3400       3404       3408       3412       3416       3420       3424       3428       3432       3436       3440       3444       3448       3452       3456       3460       3464       3468       3472       3476       3480       3484       3488       3492       3496       3500       3504       3508       3512       3516       3520       3524       3528       3532       3536       3540       3544       3548       3552       3556       3560       3564       3568       3572       3576       3580       3584       3588       3592       3596       3600       3604       3608       3612       3616       3620       3624       3628       3632       3636       3640       3644       3648       3652       3656       3660       3664       3668       3672       3676       3680       3684       3688       3692       3696       3700       3704       3708       3712       3716       3720       3724       3728       3732       3736       3740       3744       3748       3752       3756       3760       3764       3768       3772       3776       3780       3784       3788       3792       3796       3800       3804       3808       3812       3816       3820       3824       3828       3832       3836       3840       3844       3848       3852       3856       3860       3864       3868       3872       3876       3880       3884       3888       3892       3896       3900       3904       3908       3912       3916       3920       3924       3928       3932       3936       3940       3944       3948       3952       3956       3960       3964       3968       3972       3976       3980       3984       3988       3992       3996       4000       4004       4008       4012       4016       4020       4024       4028       4032       4036       4040       4044       4048       4052       4056       4060       4064       4068       4072       4076       4080       4084       4088       4092       4096 </DataArray>
<DataArray type="UInt8"                                    Name="types"                                                      NumberOfComponents=" 1" format="ascii">
         9          9          9          9          9          9          9          9          9          9          9          9          9          9          9          9          9          9          9          9          9          9          9          9          9          9          9          9          9          9          9          9          9          9          9          9          9          9          9          9          9          9          9          9          9          9          9          9          9          9          9          9          9          9          9          9          9          9          9          9          9          9          9          9          9          9          9          9          9          9          9          9          9          9          9          9          9          9          9          9          9          9          9          9          9          9          9          9          9          9          9          9          9          9          9          9          9          9          9          9          9          9          9          9          9          9          9          9          9          9          9          9          9          9          9          9          9          9          9          9          9          9          9          9          9          9          9          9          9          9          9          9          9          9          9          9          9          9          9          9          9          9          9          9          9          9          9          9          9          9          9          9          9          9          9          9          9          9          9          9          9          9          9          9          9          9          9          9          9          9          9          9          9          9          9          9          9          9          9          9          9          9          9          9          9          9          9          9          9          9          9          9          9          9          9          9          9          9          9          9          9          9          9          9          9          9          9          9          9          9          9          9          9          9          9          9          9          9          9          9          9          9          9          9          9          9          9          9          9          9          9          9          9          9          9          9          9          9          9          9          9          9          9          9          9          9          9          9          9          9          9          9          9          9          9          9          9          9          9          9          9          9          9          9          9          9          9          9          9          9          9          9          9          9          9          9          9          9          9          9          9          9          9          9          9          9          9          9          9          9          9          9          9          9          9          9          9          9          9          9          9          9          9          9          9          9          9          9          9          9          9          9          9          9          9          9          9          9          9          9          9          9          9          9          9          9          9          9          9          9          9          9          9          9          9          9          9          9          9          9          9          9          9          9          9          9          9          9          9          9          9          9          9          9          9          9          9          9          9          9          9          9          9          9          9          9          9          9          9          9          9          9          9          9          9          9          9          9          9          9          9          9          9          9          9          9          9          9          9          9          9          9          9          9          9          9          9          9          9          9          9          9          9          9          9          9          9          9          9          9          9          9          9          9          9          9          9          9          9          9          9          9          9          9          9          9          9          9          9          9          9          9          9          9          9          9          9          9          9          9          9          9          9          9          9          9          9          9          9          9          9          9          9          9          9          9          9          9          9          9          9          9          9          9          9          9          9          9          9          9          9          9          9          9          9          9          9          9          9          9          9          9          9          9          9          9          9          9          9          9          9          9          9          9          9          9          9          9          9          9          9          9          9          9          9          9          9          9          9          9          9          9          9          9          9          9          9          9          9          9          9          9          9          9          9          9          9          9          9          9          9          9          9          9          9          9          9          9          9          9          9          9          9          9          9          9          9          9          9          9          9          9          9          9          9          9          9          9          9          9          9          9          9          9          9          9          9          9          9          9          9          9          9          9          9          9          9          9          9          9          9          9          9          9          9          9          9          9          9          9          9          9          9          9          9          9          9          9          9          9          9          9          9          9          9          9          9          9          9          9          9          9          9          9          9          9          9          9          9          9          9          9          9          9          9          9          9          9          9          9          9          9          9          9          9          9          9          9          9          9          9          9          9          9          9          9          9          9          9          9          9          9          9          9          9          9          9          9          9          9          9          9          9          9          9          9          9          9          9          9          9          9          9          9          9          9          9          9          9          9          9          9          9          9          9          9          9          9          9          9          9          9          9          9          9          9          9          9          9          9          9          9          9          9          9          9          9          9          9          9          9          9          9          9          9          9          9          9          9          9          9          9          9          9          9          9          9          9          9          9          9          9          9          9          9          9          9          9          9          9          9          9          9          9          9          9          9          9          9          9          9          9          9          9          9          9          9          9          9          9          9          9          9          9          9          9          9          9          9          9          9          9          9          9          9          9          9          9          9          9          9          9          9          9          9          9          9          9          9          9          9          9          9          9          9          9          9          9          9          9          9          9          9          9          9          9          9          9          9          9          9          9          9          9          9          9          9          9          9          9          9          9          9          9          9          9          9          9          9          9          9          9          9          9          9          9          9          9          9          9          9          9          9          9          9          9          9          9          9          9          9          9          9          9          9          9          9          9          9          9          9          9          9          9          9          9          9          9          9          9          9          9          9          9          9          9          9          9          9          9          9          9          9          9          9          9          9          9          9          9          9          9          9          9          9          9          9          9          9          9          9          9          9          9          9          9          9          9          9          9          9          9          9          9          9          9          9          9          9          9          9          9          9          9          9          9          9          9          9          9          9          9          9          9          9          9          9          9          9          9          9          9          9          9          9          9          9          9          9          9          9          9          9          9          9          9          9          9          9          9          9          9          9          9          9          9          9          9          9          9          9          9          9          9          9          9          9          9          9          9          9          9          9          9          9          9          9          9          9          9          9          9          9          9          9          9          9          9          9          9          9          9          9          9          9          9          9          9          9          9          9          9          9          9          9          9          9          9          9          9          9          9          9          9 </DataArray>
</Cells>
<CellData>
<DataArray type="Int32"                                    Name="material"                                                      NumberOfComponents=" 1" format="ascii">
         1          1          1          1          1          1          1          1          1          1          1          1          1          1          1          1          1          1          1          1          1          1          1          1          1          1          1          1          1          1          1          1          1          1          1          1          1          1          1          1          1          1          1          1          1          1          1          1          1          1          1          1          1          1          1          1          1          1          1          1          1          1          1          1          1          1          1          1          1          1          1          1          1          1          1          1          1          1          1          1          1          1          1          1          1          1          1          1          1          1          1          1          1          1          1          1          1          1          1          1          1          1          1          1          1          1          1          1          1          1          1          1          1          1          1          1          1          1          1          1          1          1          1          1          1          1          1          1          1          1          1          1          1          1          1          1          1          1          1          1          1          1          1          1          1          1          1          1          1          1          1          1          1          1          1          1          1          1          1          1          1          1          1          1          1          1          1          1          1          1          1          1          1          1          1          1          1          1          1          1          1          1          1          1          1          1          1          1          1          1          1          1          1          1          1          1          1          1          1          1          1          1          1          1          1          1          1          1          1          1          1          1          1          1          1          1          1          1          1          1          1          1          1          1          1          1          1          1          1          1          1          1          1          1          1          1          1          1          1          1          1          1          1          1          1          1          1          1          1          1          1          1          1          1          1          1          1          1          1          1          1          1          1          1          1          1          1          1          1          1          1          1          1          1          1          1          1          1          1          1          1          1          1          1          1          1          1          1          1          1          1          1          1          1          1          1          1          1          1          1          1          1          1          1          1          1          1          1          1          1          1          1          1          1          1          1          1          1          1          1          1          1          1          1          1          1          1          1          1          1          1          1          1          1          1          1          1          1          1          1          1          1          1          1          1          1          1          1          1          1          1          1          1          1          1          1          1          1          1          1          1          1          1          1          1          1          1          1          1          1          1          1          1          1          1          1          1          1          1          1          1          1          1          1          1          1          1          1          1          1          1          1          1          1          1          1          1          1          1          1          1          1          1          1          1          1          1          1          1          1          1          1          1          1          1          1          1          1          1          1          1          1          1          1          1          1          1          1          1          1          1          1          1          1          1          1          1          1          1          1          1          1          1          1          1          1          1          1          1          1          1          1          1          1          1          1          1          1          1          1          1          1          1          1          1          1          1          1          1          1          1          1          1          1          1          1          1          1          1          1          1          1          1          1          1          1          1          1          1          1          1          1          1          1          1          1          1          1          1          1          1          1          1          1          1          1          1          1          1          1          1          1          1          1          1          1          1          1          1          1          1          1          1          1          1          1          1          1          1          1          1          1          1          1          1          1          1          1          1          1          1          1          1          1          1          1          1          1          1          1          1          1          1          1          1          1          1          1          1          1          1          1          1          1          1          1          1          1          1          1          1          1          1          1          1          1          1          1          1          1          1          1          1          1          1          1          1          1          1          1          1          1          1          1          1          1          1          1          1          1          1          1          1          1          1          1          1          1          1          1          1          1          1          1          1          1          1          1          1          1          1          1          1          1          1          1          1          1          1          1          1          1          1          1          1          1          1          1          1          1          1          1          1          1          1          1          1          1          1          1          1          1          1          1          1          1          1          1          1          1          1          1          1          1          1          1          1          1          1          1          1          1          1          1          1          1          1          1          1          1          1          1          1          1          1          1          1          1          1          1          1          1          1          1          1          1          1          1          1          1          1          1          1          1          1          1          1          1          1          1          1          1          1          1          1          1          1          1          1          1          1          1          1          1          1          1          1          1          1          1          1          1          1          1          1          1          1          1          1          1          1          1          1          1          1          1          1          1          1          1          1          1          1          1          1          1          1          1          1          1          1          1          1          1          1          1          1          1          1          1          1          1          1          1          1          1          1          1          1          1          1          1          1          1          1          1          1          1          1          1          1          1          1          1          1          1          1          1          1          1          1          1          1          1          1          1          1          1          1          1          1          1          1          1          1          1          1          1          1          1          1          1          1          1          1          1          1          1          1          1          1          1          1          1          1          1          1          1          1          1          1          1          1          1          1          1          1          1          1          1          1          1          1          1          1          1          1          1          1          1          1          1          1          1          1          1          1          1          1          1          1          1          1          1          1          1          1          1          1          1          1          1          1          1          1          1          1          1          1          1          1          1          1          1          1          1          1          1          1          1          1          1          1          1          1          1          1          1          1          1          1          1          1          1          1          1          1          1          1          1          1          1          1          1          1          1          1          1          1          1          1          1          1          1          1          1          1          1          1          1          1          1          1          1          1          1          1          1          1          1          1          1          1          1          1          1          1          1          1          1          1          1          1          1          1          1          1          1          1          1          1          1          1          1          1          1          1          1          1          1          1          1          1          1          1          1          1          1          1          1          1          1          1          1          1          1          1          1          1          1          1          1          1          1          1          1          1          1          1          1          1          1          1          1          1          1          1          1          1          1          1          1          1          1 </DataArray>
</CellData>
<PointData>
<DataArray type="Float64"                                    Name="u"                                                      NumberOfComponents=" 3" format="ascii">
             -0.000917533               0.000000000               0.999999986              -0.000967128               0.000000000               0.999999986              -0.000988259               0.000000000               0.999999986              -0.001000354               0.000000000               0.999999986              -0.001010187               0.000000000               0.999999986              -0.001020174               0.000000000               0.999999986              -0.001030783              -0.000000000               0.999999986              -0.001041984               0.000000000               0.999999986              -0.001053652              -0.000000000               0.999999986              -0.001065489               0.000000000               0.999999986              -0.001077220              -0.000000000               0.999999986              -0.001088473               0.000000000               0.999999986              -0.001098896              -0.000000000               0.999999986              -0.001107965              -0.000000000               0.999999986              -0.001115355               0.000000000               0.999999986              -0.001120632               0.000000000               0.999999986              -0.001122966               0.000000000               0.999999986              -0.000912382               0.000129655               0.999999986              -0.000957685               0.000102458               0.999999986              -0.000976029               0.000090095               0.999999986              -0.000986286               0.000084845               0.999999986              -0.000994740               0.000083008               0.999999986              -0.001003597               0.000082521               0.999999986              -0.001013341               0.000082409               0.999999986              -0.001023686               0.000082111               0.999999986              -0.001034387               0.000081262               0.999999986              -0.001045141               0.000079531               0.999999986              -0.001055524               0.000076419               0.999999986              -0.001065146               0.000071476               0.999999986              -0.001073585               0.000064377               0.999999986              -0.001080501               0.000054796               0.999999986              -0.001085559               0.000042114               0.999999986              -0.001088236               0.000025569               0.999999986              -0.001088021               0.000003663               0.999999986              -0.000896985               0.000258078               0.999999986              -0.000929719               0.000204560               0.999999986              -0.000940284               0.000181119               0.999999986              -0.000945459               0.000171789               0.999999986              -0.000950419               0.000168942               0.999999986              -0.000956582               0.000168772               0.999999986              -0.000963852               0.000169098               0.999999986              -0.000971696               0.000168869               0.999999986              -0.000979506               0.000167310               0.999999986              -0.000986745               0.000163867               0.999999986              -0.000992981               0.000157746               0.999999986              -0.000997678               0.000148062               0.999999986              -0.001000445               0.000134331               0.999999986              -0.001001065               0.000116161               0.999999986              -0.000999274               0.000092618               0.999999986              -0.000994977               0.000062581               0.999999986              -0.000988216               0.000023984               0.999999986              -0.000871592               0.000384052               0.999999986              -0.000884617               0.000306093               0.999999986              -0.000884023               0.000273993               0.999999986              -0.000882499               0.000262394               0.999999986              -0.000882996               0.000260010               0.999999986              -0.000885585               0.000261040               0.999999986              -0.000889332               0.000262579               0.999999986              -0.000893357               0.000262914               0.999999986              -0.000896735               0.000260876               0.999999986              -0.000898637               0.000255846               0.999999986              -0.000898433               0.000246744               0.999999986              -0.000895698               0.000232735               0.999999986              -0.000890242               0.000213363               0.999999986              -0.000881868               0.000188295               0.999999986              -0.000870782               0.000157179               0.999999986              -0.000857392               0.000119248               0.999999986              -0.000842286               0.000073283               0.999999986              -0.000836837               0.000506425               0.999999986              -0.000824950               0.000407007               0.999999986              -0.000811871               0.000369281               0.999999986              -0.000803732               0.000357486               0.999999986              -0.000800058               0.000356794               0.999999986              -0.000799033               0.000359930               0.999999986              -0.000799021               0.000363029               0.999999986              -0.000798503               0.000364088               0.999999986              -0.000796328               0.000361710               0.999999986              -0.000791580               0.000354985               0.999999986              -0.000783624               0.000343056               0.999999986              -0.000772210               0.000325376               0.999999986              -0.000757363               0.000301635               0.999999986              -0.000739412               0.000272118               0.999999986              -0.000718907               0.000237029               0.999999986              -0.000696521               0.000196295               0.999999986              -0.000673076               0.000150130               0.999999986              -0.000793562               0.000624050               0.999999986              -0.000753791               0.000507461               0.999999986              -0.000729194               0.000467084               0.999999986              -0.000715940               0.000456794               0.999999986              -0.000709213               0.000458624               0.999999986              -0.000705383               0.000464089               0.999999986              -0.000701750               0.000468790               0.999999986              -0.000696364               0.000470400               0.999999986              -0.000687977               0.000467576               0.999999986              -0.000675736               0.000459262               0.999999986              -0.000659158               0.000444909               0.999999986              -0.000638435               0.000424234               0.999999986              -0.000614065               0.000397661               0.999999986              -0.000586713               0.000366015               0.999999986              -0.000557103               0.000329815               0.999999986              -0.000525873               0.000289838               0.999999986              -0.000493810               0.000247078               0.999999986              -0.000742548               0.000735810               0.999999986              -0.000674632               0.000607518               0.999999986              -0.000641289               0.000567065               0.999999986              -0.000625407               0.000559237               0.999999986              -0.000617410               0.000563792               0.999999986              -0.000611518               0.000571385               0.999999986              -0.000604368               0.000577292               0.999999986              -0.000593847               0.000579091               0.999999986              -0.000578648               0.000575566               0.999999986              -0.000558130               0.000565700               0.999999986              -0.000532456               0.000549194               0.999999986              -0.000502246               0.000526400               0.999999986              -0.000468190               0.000498507               0.999999986              -0.000431074               0.000466497               0.999999986              -0.000391756               0.000431347               0.999999986              -0.000351041               0.000393984               0.999999986              -0.000309609               0.000355341               0.999999986              -0.000684802               0.000840569               0.999999986              -0.000591307               0.000706857               0.999999986              -0.000553147               0.000668202               0.999999986              -0.000537561               0.000662980               0.999999986              -0.000529573               0.000669927               0.999999986              -0.000521963               0.000679221               0.999999986              -0.000511124               0.000685914               0.999999986              -0.000494905               0.000687659               0.999999986              -0.000472187               0.000683169               0.999999986              -0.000442851               0.000671554               0.999999986              -0.000407454               0.000653325               0.999999986              -0.000366747               0.000629568               0.999999986              -0.000321816               0.000601725               0.999999986              -0.000273871               0.000571004               0.999999986              -0.000223898               0.000538242               0.999999986              -0.000172680               0.000504259               0.999999986              -0.000120941               0.000469739               0.999999986              -0.000622301               0.000936356               0.999999986              -0.000506689               0.000805389               0.999999986              -0.000469257               0.000768927               0.999999986              -0.000455890               0.000765895               0.999999986              -0.000448513               0.000774703               0.999999986              -0.000439175               0.000785287               0.999999986              -0.000424168               0.000792534               0.999999986              -0.000401520               0.000793913               0.999999986              -0.000370368               0.000788071               0.999999986              -0.000331025               0.000775033               0.999999986              -0.000284348               0.000755912               0.999999986              -0.000231699               0.000732279               0.999999986              -0.000174811               0.000705527               0.999999986              -0.000115135               0.000676816               0.999999986              -0.000053841               0.000646856               0.999999986               0.000008208               0.000616470               0.999999986               0.000070375               0.000586058               0.999999986              -0.000557674               0.001026936               0.999999986              -0.000435626               0.000916052               0.999999986              -0.000395872               0.000876331               0.999999986              -0.000382153               0.000868978               0.999999986              -0.000375660               0.000875163               0.999999986              -0.000368459               0.000886004               0.999999986              -0.000356854               0.000896497               0.999999986              -0.000338833               0.000903580               0.999999986              -0.000313025               0.000905556               0.999999986              -0.000279348               0.000901711               0.999999986              -0.000237924               0.000892489               0.999999986              -0.000189577               0.000878818               0.999999986              -0.000135542               0.000861871               0.999999986              -0.000077248               0.000842681               0.999999986              -0.000016123               0.000821925               0.999999986               0.000046507               0.000800392               0.999999986               0.000109621               0.000778594               0.999999986              -0.000487388               0.001109370               0.999999986              -0.000367249               0.001023039               0.999999986              -0.000325244               0.000986582               0.999999986              -0.000310376               0.000977228               0.999999986              -0.000303839               0.000981930               0.999999986              -0.000297861               0.000993083               0.999999986              -0.000288749               0.001006328               0.999999986              -0.000274662               0.001018505               0.999999986              -0.000253945               0.001027586               0.999999986              -0.000225868               0.001032440               0.999999986              -0.000190256               0.001032686               0.999999986              -0.000147100               0.001028802               0.999999986              -0.000097077               0.001021450               0.999999986              -0.000041336               0.001011579               0.999999986               0.000018729               0.000999718               0.999999986               0.000082018               0.000986620               0.999999986               0.000147190               0.000972935               0.999999986              -0.000412801               0.001181712               0.999999986              -0.000301422               0.001123097               0.999999986              -0.000259137               0.001094404               0.999999986              -0.000242871               0.001086452               0.999999986              -0.000235679               0.001091327               0.999999986              -0.000230082               0.001103493               0.999999986              -0.000222696               0.001119243               0.999999986              -0.000211614               0.001135933               0.999999986              -0.000195369               0.001151495               0.999999986              -0.000172795               0.001164501               0.999999986              -0.000143169               0.001174154               0.999999986              -0.000106105               0.001180194               0.999999986              -0.000061519               0.001182795               0.999999986              -0.000010027               0.001182453               0.999999986               0.000047567               0.001179631               0.999999986               0.000110519               0.001175074               0.999999986               0.000177828               0.001169363               0.999999986              -0.000334646               0.001242663               0.999999986              -0.000238099               0.001212116               0.999999986              -0.000198357               0.001194355               0.999999986              -0.000181613               0.001190578               0.999999986              -0.000173715               0.001197522               0.999999986              -0.000168182               0.001211606               0.999999986              -0.000162017               0.001230126               0.999999986              -0.000153320               0.001250852               0.999999986              -0.000140734               0.001272173               0.999999986              -0.000123183               0.001292560               0.999999986              -0.000099622               0.001311034               0.999999986              -0.000069342               0.001326916               0.999999986              -0.000031853               0.001339784               0.999999986               0.000013282               0.001349727               0.999999986               0.000065978               0.001356805               0.999999986               0.000126039               0.001361354               0.999999986               0.000193543               0.001363987               0.999999986              -0.000253585               0.001291211               0.999999986              -0.000176900               0.001286109               0.999999986              -0.000142942               0.001280581               0.999999986              -0.000127527               0.001282752               0.999999986              -0.000119728               0.001293067               0.999999986              -0.000114458               0.001309985               0.999999986              -0.000109303               0.001331506               0.999999986              -0.000102632               0.001356131               0.999999986              -0.000093266               0.001382443               0.999999986              -0.000080208               0.001409214               0.999999986              -0.000062488               0.001435493               0.999999986              -0.000039423               0.001460381               0.999999986              -0.000010075               0.001483247               0.999999986               0.000026313               0.001503548               0.999999986               0.000070523               0.001521058               0.999999986               0.000123345               0.001535686               0.999999986               0.000185894               0.001547569               0.999999986              -0.000170282               0.001326505               0.999999986              -0.000117228               0.001341631               0.999999986              -0.000092352               0.001347187               0.999999986              -0.000080343               0.001355739               0.999999986              -0.000073897               0.001370007               0.999999986              -0.000069684               0.001389954               0.999999986              -0.000065777               0.001414460               0.999999986              -0.000061163               0.001442402               0.999999986              -0.000054730               0.001472820               0.999999986              -0.000046009               0.001504689               0.999999986              -0.000033988               0.001537158               0.999999986              -0.000018245               0.001569433               0.999999986               0.000001991               0.001600654               0.999999986               0.000027590               0.001630069               0.999999986               0.000059658               0.001657247               0.999999986               0.000099371               0.001681587               0.999999986               0.000148425               0.001702587               0.999999986              -0.000085509               0.001347848               0.999999986              -0.000058448               0.001375958               0.999999986              -0.000045283               0.001389373               0.999999986              -0.000038651               0.001402801               0.999999986              -0.000035029               0.001420295               0.999999986              -0.000032521               0.001442675               0.999999986              -0.000030418               0.001469505               0.999999986              -0.000027997               0.001499978               0.999999986              -0.000024722               0.001533176               0.999999986              -0.000020267               0.001568360               0.999999986              -0.000014139               0.001604738               0.999999986              -0.000005964               0.001641684               0.999999986               0.000004330               0.001678320               0.999999986               0.000017443               0.001713763               0.999999986               0.000034239               0.001747434               0.999999986               0.000055657               0.001778545               0.999999986               0.000082659               0.001806288               0.999999986              -0.000000000               0.001355029               0.999999986               0.000000000               0.001387603               0.999999986               0.000000000               0.001403848               0.999999986               0.000000000               0.001419064               0.999999986              -0.000000000               0.001437844               0.999999986               0.000000000               0.001461207               0.999999986               0.000000000               0.001488863               0.999999986              -0.000000000               0.001520301               0.999999986               0.000000000               0.001554586               0.999999986               0.000000000               0.001590947               0.999999986               0.000000000               0.001628657               0.999999986              -0.000000000               0.001666930               0.999999986              -0.000000000               0.001705279               0.999999986               0.000000000               0.001743056               0.999999986               0.000000000               0.001779057               0.999999986               0.000000000               0.001812433               0.999999986              -0.000000000               0.001842582               0.999999986              -0.000917533               0.000000000               0.999999986              -0.000967128               0.000000000               0.999999986              -0.000988259               0.000000000               0.999999986              -0.001000354               0.000000000               0.999999986              -0.001010187               0.000000000               0.999999986              -0.001020174               0.000000000               0.999999986              -0.001030783              -0.000000000               0.999999986              -0.001041984               0.000000000               0.999999986              -0.001053652              -0.000000000               0.999999986              -0.001065489               0.000000000               0.999999986              -0.001077220              -0.000000000               0.999999986              -0.001088473               0.000000000               0.999999986              -0.001098896              -0.000000000               0.999999986              -0.001107965              -0.000000000               0.999999986              -0.001115355               0.000000000               0.999999986              -0.001120632               0.000000000               0.999999986              -0.001122966               0.000000000               0.999999986              -0.000912382              -0.000129655               0.999999986              -0.000957685              -0.000102458               0.999999986              -0.000976029              -0.000090095               0.999999986              -0.000986286              -0.000084845               0.999999986              -0.000994740              -0.000083008               0.999999986              -0.001003597              -0.000082521               0.999999986              -0.001013341              -0.000082409               0.999999986              -0.001023686              -0.000082111               0.999999986              -0.001034387              -0.000081262               0.999999986              -0.001045141              -0.000079531               0.999999986              -0.001055524              -0.000076419               0.999999986              -0.001065146              -0.000071476               0.999999986              -0.001073585              -0.000064377               0.999999986              -0.001080501              -0.000054796               0.999999986              -0.001085559              -0.000042114               0.999999986              -0.001088236              -0.000025569               0.999999986              -0.001088021              -0.000003663               0.999999986              -0.000896985              -0.000258078               0.999999986              -0.000929719              -0.000204560               0.999999986              -0.000940284              -0.000181119               0.999999986              -0.000945459              -0.000171789               0.999999986              -0.000950419              -0.000168942               0.999999986              -0.000956582              -0.000168772               0.999999986              -0.000963852              -0.000169098               0.999999986              -0.000971696              -0.000168869               0.999999986              -0.000979506              -0.000167310               0.999999986              -0.000986745              -0.000163867               0.999999986              -0.000992981              -0.000157746               0.999999986              -0.000997678              -0.000148062               0.999999986              -0.001000445              -0.000134331               0.999999986              -0.001001065              -0.000116161               0.999999986              -0.000999274              -0.000092618               0.999999986              -0.000994977              -0.000062581               0.999999986              -0.000988216              -0.000023984               0.999999986              -0.000871592              -0.000384052               0.999999986              -0.000884617              -0.000306093               0.999999986              -0.000884023              -0.000273993               0.999999986              -0.000882499              -0.000262394               0.999999986              -0.000882996              -0.000260010               0.999999986              -0.000885585              -0.000261040               0.999999986              -0.000889332              -0.000262579               0.999999986              -0.000893357              -0.000262914               0.999999986              -0.000896735              -0.000260876               0.999999986              -0.000898637              -0.000255846               0.999999986              -0.000898433              -0.000246744               0.999999986              -0.000895698              -0.000232735               0.999999986              -0.000890242              -0.000213363               0.999999986              -0.000881868              -0.000188295               0.999999986              -0.000870782              -0.000157179               0.999999986              -0.000857392              -0.000119248               0.999999986              -0.000842286              -0.000073283               0.999999986              -0.000836837              -0.000506425               0.999999986              -0.000824950              -0.000407007               0.999999986              -0.000811871              -0.000369281               0.999999986              -0.000803732              -0.000357486               0.999999986              -0.000800058              -0.000356794               0.999999986              -0.000799033              -0.000359930               0.999999986              -0.000799021              -0.000363029               0.999999986              -0.000798503              -0.000364088               0.999999986              -0.000796328              -0.000361710               0.999999986              -0.000791580              -0.000354985               0.999999986              -0.000783624              -0.000343056               0.999999986              -0.000772210              -0.000325376               0.999999986              -0.000757363              -0.000301635               0.999999986              -0.000739412              -0.000272118               0.999999986              -0.000718907              -0.000237029               0.999999986              -0.000696521              -0.000196295               0.999999986              -0.000673076              -0.000150130               0.999999986              -0.000793562              -0.000624050               0.999999986              -0.000753791              -0.000507461               0.999999986              -0.000729194              -0.000467084               0.999999986              -0.000715940              -0.000456794               0.999999986              -0.000709213              -0.000458624               0.999999986              -0.000705383              -0.000464089               0.999999986              -0.000701750              -0.000468790               0.999999986              -0.000696364              -0.000470400               0.999999986              -0.000687977              -0.000467576               0.999999986              -0.000675736              -0.000459262               0.999999986              -0.000659158              -0.000444909               0.999999986              -0.000638435              -0.000424234               0.999999986              -0.000614065              -0.000397661               0.999999986              -0.000586713              -0.000366015               0.999999986              -0.000557103              -0.000329815               0.999999986              -0.000525873              -0.000289838               0.999999986              -0.000493810              -0.000247078               0.999999986              -0.000742548              -0.000735810               0.999999986              -0.000674632              -0.000607518               0.999999986              -0.000641289              -0.000567065               0.999999986              -0.000625407              -0.000559237               0.999999986              -0.000617410              -0.000563792               0.999999986              -0.000611518              -0.000571385               0.999999986              -0.000604368              -0.000577292               0.999999986              -0.000593847              -0.000579091               0.999999986              -0.000578648              -0.000575566               0.999999986              -0.000558130              -0.000565700               0.999999986              -0.000532456              -0.000549194               0.999999986              -0.000502246              -0.000526400               0.999999986              -0.000468190              -0.000498507               0.999999986              -0.000431074              -0.000466497               0.999999986              -0.000391756              -0.000431347               0.999999986              -0.000351041              -0.000393984               0.999999986              -0.000309609              -0.000355341               0.999999986              -0.000684802              -0.000840569               0.999999986              -0.000591307              -0.000706857               0.999999986              -0.000553147              -0.000668202               0.999999986              -0.000537561              -0.000662980               0.999999986              -0.000529573              -0.000669927               0.999999986              -0.000521963              -0.000679221               0.999999986              -0.000511124              -0.000685914               0.999999986              -0.000494905              -0.000687659               0.999999986              -0.000472187              -0.000683169               0.999999986              -0.000442851              -0.000671554               0.999999986              -0.000407454              -0.000653325               0.999999986              -0.000366747              -0.000629568               0.999999986              -0.000321816              -0.000601725               0.999999986              -0.000273871              -0.000571004               0.999999986              -0.000223898              -0.000538242               0.999999986              -0.000172680              -0.000504259               0.999999986              -0.000120941              -0.000469739               0.999999986              -0.000622301              -0.000936356               0.999999986              -0.000506689              -0.000805389               0.999999986              -0.000469257              -0.000768927               0.999999986              -0.000455890              -0.000765895               0.999999986              -0.000448513              -0.000774703               0.999999986              -0.000439175              -0.000785287               0.999999986              -0.000424168              -0.000792534               0.999999986              -0.000401520              -0.000793913               0.999999986              -0.000370368              -0.000788071               0.999999986              -0.000331025              -0.000775033               0.999999986              -0.000284348              -0.000755912               0.999999986              -0.000231699              -0.000732279               0.999999986              -0.000174811              -0.000705527               0.999999986              -0.000115135              -0.000676816               0.999999986              -0.000053841              -0.000646856               0.999999986               0.000008208              -0.000616470               0.999999986               0.000070375              -0.000586058               0.999999986              -0.000557674              -0.001026936               0.999999986              -0.000435626              -0.000916052               0.999999986              -0.000395872              -0.000876331               0.999999986              -0.000382153              -0.000868978               0.999999986              -0.000375660              -0.000875163               0.999999986              -0.000368459              -0.000886004               0.999999986              -0.000356854              -0.000896497               0.999999986              -0.000338833              -0.000903580               0.999999986              -0.000313025              -0.000905556               0.999999986              -0.000279348              -0.000901711               0.999999986              -0.000237924              -0.000892489               0.999999986              -0.000189577              -0.000878818               0.999999986              -0.000135542              -0.000861871               0.999999986              -0.000077248              -0.000842681               0.999999986              -0.000016123              -0.000821925               0.999999986               0.000046507              -0.000800392               0.999999986               0.000109621              -0.000778594               0.999999986              -0.000487388              -0.001109370               0.999999986              -0.000367249              -0.001023039               0.999999986              -0.000325244              -0.000986582               0.999999986              -0.000310376              -0.000977228               0.999999986              -0.000303839              -0.000981930               0.999999986              -0.000297861              -0.000993083               0.999999986              -0.000288749              -0.001006328               0.999999986              -0.000274662              -0.001018505               0.999999986              -0.000253945              -0.001027586               0.999999986              -0.000225868              -0.001032440               0.999999986              -0.000190256              -0.001032686               0.999999986              -0.000147100              -0.001028802               0.999999986              -0.000097077              -0.001021450               0.999999986              -0.000041336              -0.001011579               0.999999986               0.000018729              -0.000999718               0.999999986               0.000082018              -0.000986620               0.999999986               0.000147190              -0.000972935               0.999999986              -0.000412801              -0.001181712               0.999999986              -0.000301422              -0.001123097               0.999999986              -0.000259137              -0.001094404               0.999999986              -0.000242871              -0.001086452               0.999999986              -0.000235679              -0.001091327               0.999999986              -0.000230082              -0.001103493               0.999999986              -0.000222696              -0.001119243               0.999999986              -0.000211614              -0.001135933               0.999999986              -0.000195369              -0.001151495               0.999999986              -0.000172795              -0.001164501               0.999999986              -0.000143169              -0.001174154               0.999999986              -0.000106105              -0.001180194               0.999999986              -0.000061519              -0.001182795               0.999999986              -0.000010027              -0.001182453               0.999999986               0.000047567              -0.001179631               0.999999986               0.000110519              -0.001175074               0.999999986               0.000177828              -0.001169363               0.999999986              -0.000334646              -0.001242663               0.999999986              -0.000238099              -0.001212116               0.999999986              -0.000198357              -0.001194355               0.999999986              -0.000181613              -0.001190578               0.999999986              -0.000173715              -0.001197522               0.999999986              -0.000168182              -0.001211606               0.999999986              -0.000162017              -0.001230126               0.999999986              -0.000153320              -0.001250852               0.999999986              -0.000140734              -0.001272173               0.999999986              -0.000123183              -0.001292560               0.999999986              -0.000099622              -0.001311034               0.999999986              -0.000069342              -0.001326916               0.999999986              -0.000031853              -0.001339784               0.999999986               0.000013282              -0.001349727               0.999999986               0.000065978              -0.001356805               0.999999986               0.000126039              -0.001361354               0.999999986               0.000193543              -0.001363987               0.999999986              -0.000253585              -0.001291211               0.999999986              -0.000176900              -0.001286109               0.999999986              -0.000142942              -0.001280581               0.999999986              -0.000127527              -0.001282752               0.999999986              -0.000119728              -0.001293067               0.999999986              -0.000114458              -0.001309985               0.999999986              -0.000109303              -0.001331506               0.999999986              -0.000102632              -0.001356131               0.999999986              -0.000093266              -0.001382443               0.999999986              -0.000080208              -0.001409214               0.999999986              -0.000062488              -0.001435493               0.999999986              -0.000039423              -0.001460381               0.999999986              -0.000010075              -0.001483247               0.999999986               0.000026313              -0.001503548               0.999999986               0.000070523              -0.001521058               0.999999986               0.000123345              -0.001535686               0.999999986               0.000185894              -0.001547569               0.999999986              -0.000170282              -0.001326505               0.999999986              -0.000117228              -0.001341631               0.999999986              -0.000092352              -0.001347187               0.999999986              -0.000080343              -0.001355739               0.999999986              -0.000073897              -0.001370007               0.999999986              -0.000069684              -0.001389954               0.999999986              -0.000065777              -0.001414460               0.999999986              -0.000061163              -0.001442402               0.999999986              -0.000054730              -0.001472820               0.999999986              -0.000046009              -0.001504689               0.999999986              -0.000033988              -0.001537158               0.999999986              -0.000018245              -0.001569433               0.999999986               0.000001991              -0.001600654               0.999999986               0.000027590              -0.001630069               0.999999986               0.000059658              -0.001657247               0.999999986               0.000099371              -0.001681587               0.999999986               0.000148425              -0.001702587               0.999999986              -0.000085509              -0.001347848               0.999999986              -0.000058448              -0.001375958               0.999999986              -0.000045283              -0.001389373               0.999999986              -0.000038651              -0.001402801               0.999999986              -0.000035029              -0.001420295               0.999999986              -0.000032521              -0.001442675               0.999999986              -0.000030418              -0.001469505               0.999999986              -0.000027997              -0.001499978               0.999999986              -0.000024722              -0.001533176               0.999999986              -0.000020267              -0.001568360               0.999999986              -0.000014139              -0.001604738               0.999999986              -0.000005964              -0.001641684               0.999999986               0.000004330              -0.001678320               0.999999986               0.000017443              -0.001713763               0.999999986               0.000034239              -0.001747434               0.999999986               0.000055657              -0.001778545               0.999999986               0.000082659              -0.001806288               0.999999986              -0.000000000              -0.001355029               0.999999986               0.000000000              -0.001387603               0.999999986               0.000000000              -0.001403848               0.999999986              -0.000000000              -0.001419064               0.999999986               0.000000000              -0.001437844               0.999999986              -0.000000000              -0.001461207               0.999999986               0.000000000              -0.001488863               0.999999986               0.000000000              -0.001520301               0.999999986              -0.000000000              -0.001554586               0.999999986              -0.000000000              -0.001590947               0.999999986              -0.000000000              -0.001628657               0.999999986               0.000000000              -0.001666930               0.999999986               0.000000000              -0.001705279               0.999999986              -0.000000000              -0.001743056               0.999999986              -0.000000000              -0.001779057               0.999999986               0.000000000              -0.001812433               0.999999986              -0.000000000              -0.001842582               0.999999986               0.000917533               0.000000000               0.999999986               0.000967128               0.000000000               0.999999986               0.000988259               0.000000000               0.999999986               0.001000354              -0.000000000               0.999999986               0.001010187               0.000000000               0.999999986               0.001020174              -0.000000000               0.999999986               0.001030783               0.000000000               0.999999986               0.001041984              -0.000000000               0.999999986               0.001053652               0.000000000               0.999999986               0.001065489              -0.000000000               0.999999986               0.001077220              -0.000000000               0.999999986               0.001088473              -0.000000000               0.999999986               0.001098896               0.000000000               0.999999986               0.001107965              -0.000000000               0.999999986               0.001115355               0.000000000               0.999999986               0.001120632              -0.000000000               0.999999986               0.001122966              -0.000000000               0.999999986               0.000912382              -0.000129655               0.999999986               0.000957685              -0.000102458               0.999999986               0.000976029              -0.000090095               0.999999986               0.000986286              -0.000084845               0.999999986               0.000994740              -0.000083008               0.999999986               0.001003597              -0.000082521               0.999999986               0.001013341              -0.000082409               0.999999986               0.001023686              -0.000082111               0.999999986               0.001034387              -0.000081262               0.999999986               0.001045141              -0.000079531               0.999999986               0.001055524              -0.000076419               0.999999986               0.001065146              -0.000071476               0.999999986               0.001073585              -0.000064377               0.999999986               0.001080501              -0.000054796               0.999999986               0.001085559              -0.000042114               0.999999986               0.001088236              -0.000025569               0.999999986               0.001088021              -0.000003663               0.999999986               0.000896985              -0.000258078               0.999999986               0.000929719              -0.000204560               0.999999986               0.000940284              -0.000181119               0.999999986               0.000945459              -0.000171789               0.999999986               0.000950419              -0.000168942               0.999999986               0.000956582              -0.000168772               0.999999986               0.000963852              -0.000169098               0.999999986               0.000971696              -0.000168869               0.999999986               0.000979506              -0.000167310               0.999999986               0.000986745              -0.000163867               0.999999986               0.000992981              -0.000157746               0.999999986               0.000997678              -0.000148062               0.999999986               0.001000445              -0.000134331               0.999999986               0.001001065              -0.000116161               0.999999986               0.000999274              -0.000092618               0.999999986               0.000994977              -0.000062581               0.999999986               0.000988216              -0.000023984               0.999999986               0.000871592              -0.000384052               0.999999986               0.000884617              -0.000306093               0.999999986               0.000884023              -0.000273993               0.999999986               0.000882499              -0.000262394               0.999999986               0.000882996              -0.000260010               0.999999986               0.000885585              -0.000261040               0.999999986               0.000889332              -0.000262579               0.999999986               0.000893357              -0.000262914               0.999999986               0.000896735              -0.000260876               0.999999986               0.000898637              -0.000255846               0.999999986               0.000898433              -0.000246744               0.999999986               0.000895698              -0.000232735               0.999999986               0.000890242              -0.000213363               0.999999986               0.000881868              -0.000188295               0.999999986               0.000870782              -0.000157179               0.999999986               0.000857392              -0.000119248               0.999999986               0.000842286              -0.000073283               0.999999986               0.000836837              -0.000506425               0.999999986               0.000824950              -0.000407007               0.999999986               0.000811871              -0.000369281               0.999999986               0.000803732              -0.000357486               0.999999986               0.000800058              -0.000356794               0.999999986               0.000799033              -0.000359930               0.999999986               0.000799021              -0.000363029               0.999999986               0.000798503              -0.000364088               0.999999986               0.000796328              -0.000361710               0.999999986               0.000791580              -0.000354985               0.999999986               0.000783624              -0.000343056               0.999999986               0.000772210              -0.000325376               0.999999986               0.000757363              -0.000301635               0.999999986               0.000739412              -0.000272118               0.999999986               0.000718907              -0.000237029               0.999999986               0.000696521              -0.000196295               0.999999986               0.000673076              -0.000150130               0.999999986               0.000793562              -0.000624050               0.999999986               0.000753791              -0.000507461               0.999999986               0.000729194              -0.000467084               0.999999986               0.000715940              -0.000456794               0.999999986               0.000709213              -0.000458624               0.999999986               0.000705383              -0.000464089               0.999999986               0.000701750              -0.000468790               0.999999986               0.000696364              -0.000470400               0.999999986               0.000687977              -0.000467576               0.999999986               0.000675736              -0.000459262               0.999999986               0.000659158              -0.000444909               0.999999986               0.000638435              -0.000424234               0.999999986               0.000614065              -0.000397661               0.999999986               0.000586713              -0.000366015               0.999999986               0.000557103              -0.000329815               0.999999986               0.000525873              -0.000289838               0.999999986               0.000493810              -0.000247078               0.999999986               0.000742548              -0.000735810               0.999999986               0.000674632              -0.000607518               0.999999986               0.000641289              -0.000567065               0.999999986               0.000625407              -0.000559237               0.999999986               0.000617410              -0.000563792               0.999999986               0.000611518              -0.000571385               0.999999986               0.000604368              -0.000577292               0.999999986               0.000593847              -0.000579091               0.999999986               0.000578648              -0.000575566               0.999999986               0.000558130              -0.000565700               0.999999986               0.000532456              -0.000549194               0.999999986               0.000502246              -0.000526400               0.999999986               0.000468190              -0.000498507               0.999999986               0.000431074              -0.000466497               0.999999986               0.000391756              -0.000431347               0.999999986               0.000351041              -0.000393984               0.999999986               0.000309609              -0.000355341               0.999999986               0.000684802              -0.000840569               0.999999986               0.000591307              -0.000706857               0.999999986               0.000553147              -0.000668202               0.999999986               0.000537561              -0.000662980               0.999999986               0.000529573              -0.000669927               0.999999986               0.000521963              -0.000679221               0.999999986               0.000511124              -0.000685914               0.999999986               0.000494905              -0.000687659               0.999999986               0.000472187              -0.000683169               0.999999986               0.000442851              -0.000671554               0.999999986               0.000407454              -0.000653325               0.999999986               0.000366747              -0.000629568               0.999999986               0.000321816              -0.000601725               0.999999986               0.000273871              -0.000571004               0.999999986               0.000223898              -0.000538242               0.999999986               0.000172680              -0.000504259               0.999999986               0.000120941              -0.000469739               0.999999986               0.000622301              -0.000936356               0.999999986               0.000506689              -0.000805389               0.999999986               0.000469257              -0.000768927               0.999999986               0.000455890              -0.000765895               0.999999986               0.000448513              -0.000774703               0.999999986               0.000439175              -0.000785287               0.999999986               0.000424168              -0.000792534               0.999999986               0.000401520              -0.000793913               0.999999986               0.000370368              -0.000788071               0.999999986               0.000331025              -0.000775033               0.999999986               0.000284348              -0.000755912               0.999999986               0.000231699              -0.000732279               0.999999986               0.000174811              -0.000705527               0.999999986               0.000115135              -0.000676816               0.999999986               0.000053841              -0.000646856               0.999999986              -0.000008208              -0.000616470               0.999999986              -0.000070375              -0.000586058               0.999999986               0.000557674              -0.001026936               0.999999986               0.000435626              -0.000916052               0.999999986               0.000395872              -0.000876331               0.999999986               0.000382153              -0.000868978               0.999999986               0.000375660              -0.000875163               0.999999986               0.000368459              -0.000886004               0.999999986               0.000356854              -0.000896497               0.999999986               0.000338833              -0.000903580               0.999999986               0.000313025              -0.000905556               0.999999986               0.000279348              -0.000901711               0.999999986               0.000237924              -0.000892489               0.999999986               0.000189577              -0.000878818               0.999999986               0.000135542              -0.000861871               0.999999986               0.000077248              -0.000842681               0.999999986               0.000016123              -0.000821925               0.999999986              -0.000046507              -0.000800392               0.999999986              -0.000109621              -0.000778594               0.999999986               0.000487388              -0.001109370               0.999999986               0.000367249              -0.001023039               0.999999986               0.000325244              -0.000986582               0.999999986               0.000310376              -0.000977228               0.999999986               0.000303839              -0.000981930               0.999999986               0.000297861              -0.000993083               0.999999986               0.000288749              -0.001006328               0.999999986               0.000274662              -0.001018505               0.999999986               0.000253945              -0.001027586               0.999999986               0.000225868              -0.001032440               0.999999986               0.000190256              -0.001032686               0.999999986               0.000147100              -0.001028802               0.999999986               0.000097077              -0.001021450               0.999999986               0.000041336              -0.001011579               0.999999986              -0.000018729              -0.000999718               0.999999986              -0.000082018              -0.000986620               0.999999986              -0.000147190              -0.000972935               0.999999986               0.000412801              -0.001181712               0.999999986               0.000301422              -0.001123097               0.999999986               0.000259137              -0.001094404               0.999999986               0.000242871              -0.001086452               0.999999986               0.000235679              -0.001091327               0.999999986               0.000230082              -0.001103493               0.999999986               0.000222696              -0.001119243               0.999999986               0.000211614              -0.001135933               0.999999986               0.000195369              -0.001151495               0.999999986               0.000172795              -0.001164501               0.999999986               0.000143169              -0.001174154               0.999999986               0.000106105              -0.001180194               0.999999986               0.000061519              -0.001182795               0.999999986               0.000010027              -0.001182453               0.999999986              -0.000047567              -0.001179631               0.999999986              -0.000110519              -0.001175074               0.999999986              -0.000177828              -0.001169363               0.999999986               0.000334646              -0.001242663               0.999999986               0.000238099              -0.001212116               0.999999986               0.000198357              -0.001194355               0.999999986               0.000181613              -0.001190578               0.999999986               0.000173715              -0.001197522               0.999999986               0.000168182              -0.001211606               0.999999986               0.000162017              -0.001230126               0.999999986               0.000153320              -0.001250852               0.999999986               0.000140734              -0.001272173               0.999999986               0.000123183              -0.001292560               0.999999986               0.000099622              -0.001311034               0.999999986               0.000069342              -0.001326916               0.999999986               0.000031853              -0.001339784               0.999999986              -0.000013282              -0.001349727               0.999999986              -0.000065978              -0.001356805               0.999999986              -0.000126039              -0.001361354               0.999999986              -0.000193543              -0.001363987               0.999999986               0.000253585              -0.001291211               0.999999986               0.000176900              -0.001286109               0.999999986               0.000142942              -0.001280581               0.999999986               0.000127527              -0.001282752               0.999999986               0.000119728              -0.001293067               0.999999986               0.000114458              -0.001309985               0.999999986               0.000109303              -0.001331506               0.999999986               0.000102632              -0.001356131               0.999999986               0.000093266              -0.001382443               0.999999986               0.000080208              -0.001409214               0.999999986               0.000062488              -0.001435493               0.999999986               0.000039423              -0.001460381               0.999999986               0.000010075              -0.001483247               0.999999986              -0.000026313              -0.001503548               0.999999986              -0.000070523              -0.001521058               0.999999986              -0.000123345              -0.001535686               0.999999986              -0.000185894              -0.001547569               0.999999986               0.000170282              -0.001326505               0.999999986               0.000117228              -0.001341631               0.999999986               0.000092352              -0.001347187               0.999999986               0.000080343              -0.001355739               0.999999986               0.000073897              -0.001370007               0.999999986               0.000069684              -0.001389954               0.999999986               0.000065777              -0.001414460               0.999999986               0.000061163              -0.001442402               0.999999986               0.000054730              -0.001472820               0.999999986               0.000046009              -0.001504689               0.999999986               0.000033988              -0.001537158               0.999999986               0.000018245              -0.001569433               0.999999986              -0.000001991              -0.001600654               0.999999986              -0.000027590              -0.001630069               0.999999986              -0.000059658              -0.001657247               0.999999986              -0.000099371              -0.001681587               0.999999986              -0.000148425              -0.001702587               0.999999986               0.000085509              -0.001347848               0.999999986               0.000058448              -0.001375958               0.999999986               0.000045283              -0.001389373               0.999999986               0.000038651              -0.001402801               0.999999986               0.000035029              -0.001420295               0.999999986               0.000032521              -0.001442675               0.999999986               0.000030418              -0.001469505               0.999999986               0.000027997              -0.001499978               0.999999986               0.000024722              -0.001533176               0.999999986               0.000020267              -0.001568360               0.999999986               0.000014139              -0.001604738               0.999999986               0.000005964              -0.001641684               0.999999986              -0.000004330              -0.001678320               0.999999986              -0.000017443              -0.001713763               0.999999986              -0.000034239              -0.001747434               0.999999986              -0.000055657              -0.001778545               0.999999986              -0.000082659              -0.001806288               0.999999986              -0.000000000              -0.001355029               0.999999986               0.000000000              -0.001387603               0.999999986               0.000000000              -0.001403848               0.999999986              -0.000000000              -0.001419064               0.999999986               0.000000000              -0.001437844               0.999999986              -0.000000000              -0.001461207               0.999999986               0.000000000              -0.001488863               0.999999986               0.000000000              -0.001520301               0.999999986              -0.000000000              -0.001554586               0.999999986              -0.000000000              -0.001590947               0.999999986              -0.000000000              -0.001628657               0.999999986               0.000000000              -0.001666930               0.999999986               0.000000000              -0.001705279               0.999999986              -0.000000000              -0.001743056               0.999999986              -0.000000000              -0.001779057               0.999999986               0.000000000              -0.001812433               0.999999986              -0.000000000              -0.001842582               0.999999986               0.000917533               0.000000000               0.999999986               0.000967128               0.000000000               0.999999986               0.000988259               0.000000000               0.999999986               0.001000354              -0.000000000               0.999999986               0.001010187               0.000000000               0.999999986               0.001020174              -0.000000000               0.999999986               0.001030783               0.000000000               0.999999986               0.001041984              -0.000000000               0.999999986               0.001053652               0.000000000               0.999999986               0.001065489              -0.000000000               0.999999986               0.001077220              -0.000000000               0.999999986               0.001088473              -0.000000000               0.999999986               0.001098896               0.000000000               0.999999986               0.001107965              -0.000000000               0.999999986               0.001115355               0.000000000               0.999999986               0.001120632              -0.000000000               0.999999986               0.001122966              -0.000000000               0.999999986               0.000912382               0.000129655               0.999999986               0.000957685               0.000102458               0.999999986               0.000976029               0.000090095               0.999999986               0.000986286               0.000084845               0.999999986               0.000994740               0.000083008               0.999999986               0.001003597               0.000082521               0.999999986               0.001013341               0.000082409               0.999999986               0.001023686               0.000082111               0.999999986               0.001034387               0.000081262               0.999999986               0.001045141               0.000079531               0.999999986               0.001055524               0.000076419               0.999999986               0.001065146               0.000071476               0.999999986               0.001073585               0.000064377               0.999999986               0.001080501               0.000054796               0.999999986               0.001085559               0.000042114               0.999999986               0.001088236               0.000025569               0.999999986               0.001088021               0.000003663               0.999999986               0.000896985               0.000258078               0.999999986               0.000929719               0.000204560               0.999999986               0.000940284               0.000181119               0.999999986               0.000945459               0.000171789               0.999999986               0.000950419               0.000168942               0.999999986               0.000956582               0.000168772               0.999999986               0.000963852               0.000169098               0.999999986               0.000971696               0.000168869               0.999999986               0.000979506               0.000167310               0.999999986               0.000986745               0.000163867               0.999999986               0.000992981               0.000157746               0.999999986               0.000997678               0.000148062               0.999999986               0.001000445               0.000134331               0.999999986               0.001001065               0.000116161               0.999999986               0.000999274               0.000092618               0.999999986               0.000994977               0.000062581               0.999999986               0.000988216               0.000023984               0.999999986               0.000871592               0.000384052               0.999999986               0.000884617               0.000306093               0.999999986               0.000884023               0.000273993               0.999999986               0.000882499               0.000262394               0.999999986               0.000882996               0.000260010               0.999999986               0.000885585               0.000261040               0.999999986               0.000889332               0.000262579               0.999999986               0.000893357               0.000262914               0.999999986               0.000896735               0.000260876               0.999999986               0.000898637               0.000255846               0.999999986               0.000898433               0.000246744               0.999999986               0.000895698               0.000232735               0.999999986               0.000890242               0.000213363               0.999999986               0.000881868               0.000188295               0.999999986               0.000870782               0.000157179               0.999999986               0.000857392               0.000119248               0.999999986               0.000842286               0.000073283               0.999999986               0.000836837               0.000506425               0.999999986               0.000824950               0.000407007               0.999999986               0.000811871               0.000369281               0.999999986               0.000803732               0.000357486               0.999999986               0.000800058               0.000356794               0.999999986               0.000799033               0.000359930               0.999999986               0.000799021               0.000363029               0.999999986               0.000798503               0.000364088               0.999999986               0.000796328               0.000361710               0.999999986               0.000791580               0.000354985               0.999999986               0.000783624               0.000343056               0.999999986               0.000772210               0.000325376               0.999999986               0.000757363               0.000301635               0.999999986               0.000739412               0.000272118               0.999999986               0.000718907               0.000237029               0.999999986               0.000696521               0.000196295               0.999999986               0.000673076               0.000150130               0.999999986               0.000793562               0.000624050               0.999999986               0.000753791               0.000507461               0.999999986               0.000729194               0.000467084               0.999999986               0.000715940               0.000456794               0.999999986               0.000709213               0.000458624               0.999999986               0.000705383               0.000464089               0.999999986               0.000701750               0.000468790               0.999999986               0.000696364               0.000470400               0.999999986               0.000687977               0.000467576               0.999999986               0.000675736               0.000459262               0.999999986               0.000659158               0.000444909               0.999999986               0.000638435               0.000424234               0.999999986               0.000614065               0.000397661               0.999999986               0.000586713               0.000366015               0.999999986               0.000557103               0.000329815               0.999999986               0.000525873               0.000289838               0.999999986               0.000493810               0.000247078               0.999999986               0.000742548               0.000735810               0.999999986               0.000674632               0.000607518               0.999999986               0.000641289               0.000567065               0.999999986               0.000625407               0.000559237               0.999999986               0.000617410               0.000563792               0.999999986               0.000611518               0.000571385               0.999999986               0.000604368               0.000577292               0.999999986               0.000593847               0.000579091               0.999999986               0.000578648               0.000575566               0.999999986               0.000558130               0.000565700               0.999999986               0.000532456               0.000549194               0.999999986               0.000502246               0.000526400               0.999999986               0.000468190               0.000498507               0.999999986               0.000431074               0.000466497               0.999999986               0.000391756               0.000431347               0.999999986               0.000351041               0.000393984               0.999999986               0.000309609               0.000355341               0.999999986               0.000684802               0.000840569               0.999999986               0.000591307               0.000706857               0.999999986               0.000553147               0.000668202               0.999999986               0.000537561               0.000662980               0.999999986               0.000529573               0.000669927               0.999999986               0.000521963               0.000679221               0.999999986               0.000511124               0.000685914               0.999999986               0.000494905               0.000687659               0.999999986               0.000472187               0.000683169               0.999999986               0.000442851               0.000671554               0.999999986               0.000407454               0.000653325               0.999999986               0.000366747               0.000629568               0.999999986               0.000321816               0.000601725               0.999999986               0.000273871               0.000571004               0.999999986               0.000223898               0.000538242               0.999999986               0.000172680               0.000504259               0.999999986               0.000120941               0.000469739               0.999999986               0.000622301               0.000936356               0.999999986               0.000506689               0.000805389               0.999999986               0.000469257               0.000768927               0.999999986               0.000455890               0.000765895               0.999999986               0.000448513               0.000774703               0.999999986               0.000439175               0.000785287               0.999999986               0.000424168               0.000792534               0.999999986               0.000401520               0.000793913               0.999999986               0.000370368               0.000788071               0.999999986               0.000331025               0.000775033               0.999999986               0.000284348               0.000755912               0.999999986               0.000231699               0.000732279               0.999999986               0.000174811               0.000705527               0.999999986               0.000115135               0.000676816               0.999999986               0.000053841               0.000646856               0.999999986              -0.000008208               0.000616470               0.999999986              -0.000070375               0.000586058               0.999999986               0.000557674               0.001026936               0.999999986               0.000435626               0.000916052               0.999999986               0.000395872               0.000876331               0.999999986               0.000382153               0.000868978               0.999999986               0.000375660               0.000875163               0.999999986               0.000368459               0.000886004               0.999999986               0.000356854               0.000896497               0.999999986               0.000338833               0.000903580               0.999999986               0.000313025               0.000905556               0.999999986               0.000279348               0.000901711               0.999999986               0.000237924               0.000892489               0.999999986               0.000189577               0.000878818               0.999999986               0.000135542               0.000861871               0.999999986               0.000077248               0.000842681               0.999999986               0.000016123               0.000821925               0.999999986              -0.000046507               0.000800392               0.999999986              -0.000109621               0.000778594               0.999999986               0.000487388               0.001109370               0.999999986               0.000367249               0.001023039               0.999999986               0.000325244               0.000986582               0.999999986               0.000310376               0.000977228               0.999999986               0.000303839               0.000981930               0.999999986               0.000297861               0.000993083               0.999999986               0.000288749               0.001006328               0.999999986               0.000274662               0.001018505               0.999999986               0.000253945               0.001027586               0.999999986               0.000225868               0.001032440               0.999999986               0.000190256               0.001032686               0.999999986               0.000147100               0.001028802               0.999999986               0.000097077               0.001021450               0.999999986               0.000041336               0.001011579               0.999999986              -0.000018729               0.000999718               0.999999986              -0.000082018               0.000986620               0.999999986              -0.000147190               0.000972935               0.999999986               0.000412801               0.001181712               0.999999986               0.000301422               0.001123097               0.999999986               0.000259137               0.001094404               0.999999986               0.000242871               0.001086452               0.999999986               0.000235679               0.001091327               0.999999986               0.000230082               0.001103493               0.999999986               0.000222696               0.001119243               0.999999986               0.000211614               0.001135933               0.999999986               0.000195369               0.001151495               0.999999986               0.000172795               0.001164501               0.999999986               0.000143169               0.001174154               0.999999986               0.000106105               0.001180194               0.999999986               0.000061519               0.001182795               0.999999986               0.000010027               0.001182453               0.999999986              -0.000047567               0.001179631               0.999999986              -0.000110519               0.001175074               0.999999986              -0.000177828               0.001169363               0.999999986               0.000334646               0.001242663               0.999999986               0.000238099               0.001212116               0.999999986               0.000198357               0.001194355               0.999999986               0.000181613               0.001190578               0.999999986               0.000173715               0.001197522               0.999999986               0.000168182               0.001211606               0.999999986               0.000162017               0.001230126               0.999999986               0.000153320               0.001250852               0.999999986               0.000140734               0.001272173               0.999999986               0.000123183               0.001292560               0.999999986               0.000099622               0.001311034               0.999999986               0.000069342               0.001326916               0.999999986               0.000031853               0.001339784               0.999999986              -0.000013282               0.001349727               0.999999986              -0.000065978               0.001356805               0.999999986              -0.000126039               0.001361354               0.999999986              -0.000193543               0.001363987               0.999999986               0.000253585               0.001291211               0.999999986               0.000176900               0.001286109               0.999999986               0.000142942               0.001280581               0.999999986               0.000127527               0.001282752               0.999999986               0.000119728               0.001293067               0.999999986               0.000114458               0.001309985               0.999999986               0.000109303               0.001331506               0.999999986               0.000102632               0.001356131               0.999999986               0.000093266               0.001382443               0.999999986               0.000080208               0.001409214               0.999999986               0.000062488               0.001435493               0.999999986               0.000039423               0.001460381               0.999999986               0.000010075               0.001483247               0.999999986              -0.000026313               0.001503548               0.999999986              -0.000070523               0.001521058               0.999999986              -0.000123345               0.001535686               0.999999986              -0.000185894               0.001547569               0.999999986               0.000170282               0.001326505               0.999999986               0.000117228               0.001341631               0.999999986               0.000092352               0.001347187               0.999999986               0.000080343               0.001355739               0.999999986               0.000073897               0.001370007               0.999999986               0.000069684               0.001389954               0.999999986               0.000065777               0.001414460               0.999999986               0.000061163               0.001442402               0.999999986               0.000054730               0.001472820               0.999999986               0.000046009               0.001504689               0.999999986               0.000033988               0.001537158               0.999999986               0.000018245               0.001569433               0.999999986              -0.000001991               0.001600654               0.999999986              -0.000027590               0.001630069               0.999999986              -0.000059658               0.001657247               0.999999986              -0.000099371               0.001681587               0.999999986              -0.000148425               0.001702587               0.999999986               0.000085509               0.001347848               0.999999986               0.000058448               0.001375958               0.999999986               0.000045283               0.001389373               0.999999986               0.000038651               0.001402801               0.999999986               0.000035029               0.001420295               0.999999986               0.000032521               0.001442675               0.999999986               0.000030418               0.001469505               0.999999986               0.000027997               0.001499978               0.999999986               0.000024722               0.001533176               0.999999986               0.000020267               0.001568360               0.999999986               0.000014139               0.001604738               0.999999986               0.000005964               0.001641684               0.999999986              -0.000004330               0.001678320               0.999999986              -0.000017443               0.001713763               0.999999986              -0.000034239               0.001747434               0.999999986              -0.000055657               0.001778545               0.999999986              -0.000082659               0.001806288               0.999999986              -0.000000000               0.001355029               0.999999986               0.000000000               0.001387603               0.999999986               0.000000000               0.001403848               0.999999986               0.000000000               0.001419064               0.999999986              -0.000000000               0.001437844               0.999999986               0.000000000               0.001461207               0.999999986               0.000000000               0.001488863               0.999999986              -0.000000000               0.001520301               0.999999986               0.000000000               0.001554586               0.999999986               0.000000000               0.001590947               0.999999986               0.000000000               0.001628657               0.999999986              -0.000000000               0.001666930               0.999999986              -0.000000000               0.001705279               0.999999986               0.000000000               0.001743056               0.999999986               0.000000000               0.001779057               0.999999986               0.000000000               0.001812433               0.999999986              -0.000000000               0.001842582               0.999999986 </DataArray>
<DataArray type="Float64"                                    Name="defo"                                                      NumberOfComponents=" 3" format="ascii">
             -0.000917533               0.000000000               0.999999986              -0.000967128               0.000000000               0.999999986              -0.000988259               0.000000000               0.999999986              -0.001000354               0.000000000               0.999999986              -0.001010187               0.000000000               0.999999986              -0.001020174               0.000000000               0.999999986              -0.001030783              -0.000000000               0.999999986              -0.001041984               0.000000000               0.999999986              -0.001053652              -0.000000000               0.999999986              -0.001065489               0.000000000               0.999999986              -0.001077220              -0.000000000               0.999999986              -0.001088473               0.000000000               0.999999986              -0.001098896              -0.000000000               0.999999986              -0.001107965              -0.000000000               0.999999986              -0.001115355               0.000000000               0.999999986              -0.001120632               0.000000000               0.999999986              -0.001122966               0.000000000               0.999999986              -0.000912382               0.000129655               0.999999986              -0.000957685               0.000102458               0.999999986              -0.000976029               0.000090095               0.999999986              -0.000986286               0.000084845               0.999999986              -0.000994740               0.000083008               0.999999986              -0.001003597               0.000082521               0.999999986              -0.001013341               0.000082409               0.999999986              -0.001023686               0.000082111               0.999999986              -0.001034387               0.000081262               0.999999986              -0.001045141               0.000079531               0.999999986              -0.001055524               0.000076419               0.999999986              -0.001065146               0.000071476               0.999999986              -0.001073585               0.000064377               0.999999986              -0.001080501               0.000054796               0.999999986              -0.001085559               0.000042114               0.999999986              -0.001088236               0.000025569               0.999999986              -0.001088021               0.000003663               0.999999986              -0.000896985               0.000258078               0.999999986              -0.000929719               0.000204560               0.999999986              -0.000940284               0.000181119               0.999999986              -0.000945459               0.000171789               0.999999986              -0.000950419               0.000168942               0.999999986              -0.000956582               0.000168772               0.999999986              -0.000963852               0.000169098               0.999999986              -0.000971696               0.000168869               0.999999986              -0.000979506               0.000167310               0.999999986              -0.000986745               0.000163867               0.999999986              -0.000992981               0.000157746               0.999999986              -0.000997678               0.000148062               0.999999986              -0.001000445               0.000134331               0.999999986              -0.001001065               0.000116161               0.999999986              -0.000999274               0.000092618               0.999999986              -0.000994977               0.000062581               0.999999986              -0.000988216               0.000023984               0.999999986              -0.000871592               0.000384052               0.999999986              -0.000884617               0.000306093               0.999999986              -0.000884023               0.000273993               0.999999986              -0.000882499               0.000262394               0.999999986              -0.000882996               0.000260010               0.999999986              -0.000885585               0.000261040               0.999999986              -0.000889332               0.000262579               0.999999986              -0.000893357               0.000262914               0.999999986              -0.000896735               0.000260876               0.999999986              -0.000898637               0.000255846               0.999999986              -0.000898433               0.000246744               0.999999986              -0.000895698               0.000232735               0.999999986              -0.000890242               0.000213363               0.999999986              -0.000881868               0.000188295               0.999999986              -0.000870782               0.000157179               0.999999986              -0.000857392               0.000119248               0.999999986              -0.000842286               0.000073283               0.999999986              -0.000836837               0.000506425               0.999999986              -0.000824950               0.000407007               0.999999986              -0.000811871               0.000369281               0.999999986              -0.000803732               0.000357486               0.999999986              -0.000800058               0.000356794               0.999999986              -0.000799033               0.000359930               0.999999986              -0.000799021               0.000363029               0.999999986              -0.000798503               0.000364088               0.999999986              -0.000796328               0.000361710               0.999999986              -0.000791580               0.000354985               0.999999986              -0.000783624               0.000343056               0.999999986              -0.000772210               0.000325376               0.999999986              -0.000757363               0.000301635               0.999999986              -0.000739412               0.000272118               0.999999986              -0.000718907               0.000237029               0.999999986              -0.000696521               0.000196295               0.999999986              -0.000673076               0.000150130               0.999999986              -0.000793562               0.000624050               0.999999986              -0.000753791               0.000507461               0.999999986              -0.000729194               0.000467084               0.999999986              -0.000715940               0.000456794               0.999999986              -0.000709213               0.000458624               0.999999986              -0.000705383               0.000464089               0.999999986              -0.000701750               0.000468790               0.999999986              -0.000696364               0.000470400               0.999999986              -0.000687977               0.000467576               0.999999986              -0.000675736               0.000459262               0.999999986              -0.000659158               0.000444909               0.999999986              -0.000638435               0.000424234               0.999999986              -0.000614065               0.000397661               0.999999986              -0.000586713               0.000366015               0.999999986              -0.000557103               0.000329815               0.999999986              -0.000525873               0.000289838               0.999999986              -0.000493810               0.000247078               0.999999986              -0.000742548               0.000735810               0.999999986              -0.000674632               0.000607518               0.999999986              -0.000641289               0.000567065               0.999999986              -0.000625407               0.000559237               0.999999986              -0.000617410               0.000563792               0.999999986              -0.000611518               0.000571385               0.999999986              -0.000604368               0.000577292               0.999999986              -0.000593847               0.000579091               0.999999986              -0.000578648               0.000575566               0.999999986              -0.000558130               0.000565700               0.999999986              -0.000532456               0.000549194               0.999999986              -0.000502246               0.000526400               0.999999986              -0.000468190               0.000498507               0.999999986              -0.000431074               0.000466497               0.999999986              -0.000391756               0.000431347               0.999999986              -0.000351041               0.000393984               0.999999986              -0.000309609               0.000355341               0.999999986              -0.000684802               0.000840569               0.999999986              -0.000591307               0.000706857               0.999999986              -0.000553147               0.000668202               0.999999986              -0.000537561               0.000662980               0.999999986              -0.000529573               0.000669927               0.999999986              -0.000521963               0.000679221               0.999999986              -0.000511124               0.000685914               0.999999986              -0.000494905               0.000687659               0.999999986              -0.000472187               0.000683169               0.999999986              -0.000442851               0.000671554               0.999999986              -0.000407454               0.000653325               0.999999986              -0.000366747               0.000629568               0.999999986              -0.000321816               0.000601725               0.999999986              -0.000273871               0.000571004               0.999999986              -0.000223898               0.000538242               0.999999986              -0.000172680               0.000504259               0.999999986              -0.000120941               0.000469739               0.999999986              -0.000622301               0.000936356               0.999999986              -0.000506689               0.000805389               0.999999986              -0.000469257               0.000768927               0.999999986              -0.000455890               0.000765895               0.999999986              -0.000448513               0.000774703               0.999999986              -0.000439175               0.000785287               0.999999986              -0.000424168               0.000792534               0.999999986              -0.000401520               0.000793913               0.999999986              -0.000370368               0.000788071               0.999999986              -0.000331025               0.000775033               0.999999986              -0.000284348               0.000755912               0.999999986              -0.000231699               0.000732279               0.999999986              -0.000174811               0.000705527               0.999999986              -0.000115135               0.000676816               0.999999986              -0.000053841               0.000646856               0.999999986               0.000008208               0.000616470               0.999999986               0.000070375               0.000586058               0.999999986              -0.000557674               0.001026936               0.999999986              -0.000435626               0.000916052               0.999999986              -0.000395872               0.000876331               0.999999986              -0.000382153               0.000868978               0.999999986              -0.000375660               0.000875163               0.999999986              -0.000368459               0.000886004               0.999999986              -0.000356854               0.000896497               0.999999986              -0.000338833               0.000903580               0.999999986              -0.000313025               0.000905556               0.999999986              -0.000279348               0.000901711               0.999999986              -0.000237924               0.000892489               0.999999986              -0.000189577               0.000878818               0.999999986              -0.000135542               0.000861871               0.999999986              -0.000077248               0.000842681               0.999999986              -0.000016123               0.000821925               0.999999986               0.000046507               0.000800392               0.999999986               0.000109621               0.000778594               0.999999986              -0.000487388               0.001109370               0.999999986              -0.000367249               0.001023039               0.999999986              -0.000325244               0.000986582               0.999999986              -0.000310376               0.000977228               0.999999986              -0.000303839               0.000981930               0.999999986              -0.000297861               0.000993083               0.999999986              -0.000288749               0.001006328               0.999999986              -0.000274662               0.001018505               0.999999986              -0.000253945               0.001027586               0.999999986              -0.000225868               0.001032440               0.999999986              -0.000190256               0.001032686               0.999999986              -0.000147100               0.001028802               0.999999986              -0.000097077               0.001021450               0.999999986              -0.000041336               0.001011579               0.999999986               0.000018729               0.000999718               0.999999986               0.000082018               0.000986620               0.999999986               0.000147190               0.000972935               0.999999986              -0.000412801               0.001181712               0.999999986              -0.000301422               0.001123097               0.999999986              -0.000259137               0.001094404               0.999999986              -0.000242871               0.001086452               0.999999986              -0.000235679               0.001091327               0.999999986              -0.000230082               0.001103493               0.999999986              -0.000222696               0.001119243               0.999999986              -0.000211614               0.001135933               0.999999986              -0.000195369               0.001151495               0.999999986              -0.000172795               0.001164501               0.999999986              -0.000143169               0.001174154               0.999999986              -0.000106105               0.001180194               0.999999986              -0.000061519               0.001182795               0.999999986              -0.000010027               0.001182453               0.999999986               0.000047567               0.001179631               0.999999986               0.000110519               0.001175074               0.999999986               0.000177828               0.001169363               0.999999986              -0.000334646               0.001242663               0.999999986              -0.000238099               0.001212116               0.999999986              -0.000198357               0.001194355               0.999999986              -0.000181613               0.001190578               0.999999986              -0.000173715               0.001197522               0.999999986              -0.000168182               0.001211606               0.999999986              -0.000162017               0.001230126               0.999999986              -0.000153320               0.001250852               0.999999986              -0.000140734               0.001272173               0.999999986              -0.000123183               0.001292560               0.999999986              -0.000099622               0.001311034               0.999999986              -0.000069342               0.001326916               0.999999986              -0.000031853               0.001339784               0.999999986               0.000013282               0.001349727               0.999999986               0.000065978               0.001356805               0.999999986               0.000126039               0.001361354               0.999999986               0.000193543               0.001363987               0.999999986              -0.000253585               0.001291211               0.999999986              -0.000176900               0.001286109               0.999999986              -0.000142942               0.001280581               0.999999986              -0.000127527               0.001282752               0.999999986              -0.000119728               0.001293067               0.999999986              -0.000114458               0.001309985               0.999999986              -0.000109303               0.001331506               0.999999986              -0.000102632               0.001356131               0.999999986              -0.000093266               0.001382443               0.999999986              -0.000080208               0.001409214               0.999999986              -0.000062488               0.001435493               0.999999986              -0.000039423               0.001460381               0.999999986              -0.000010075               0.001483247               0.999999986               0.000026313               0.001503548               0.999999986               0.000070523               0.001521058               0.999999986               0.000123345               0.001535686               0.999999986               0.000185894               0.001547569               0.999999986              -0.000170282               0.001326505               0.999999986              -0.000117228               0.001341631               0.999999986              -0.000092352               0.001347187               0.999999986              -0.000080343               0.001355739               0.999999986              -0.000073897               0.001370007               0.999999986              -0.000069684               0.001389954               0.999999986              -0.000065777               0.001414460               0.999999986              -0.000061163               0.001442402               0.999999986              -0.000054730               0.001472820               0.999999986              -0.000046009               0.001504689               0.999999986              -0.000033988               0.001537158               0.999999986              -0.000018245               0.001569433               0.999999986               0.000001991               0.001600654               0.999999986               0.000027590               0.001630069               0.999999986               0.000059658               0.001657247               0.999999986               0.000099371               0.001681587               0.999999986               0.000148425               0.001702587               0.999999986              -0.000085509               0.001347848               0.999999986              -0.000058448               0.001375958               0.999999986              -0.000045283               0.001389373               0.999999986              -0.000038651               0.001402801               0.999999986              -0.000035029               0.001420295               0.999999986              -0.000032521               0.001442675               0.999999986              -0.000030418               0.001469505               0.999999986              -0.000027997               0.001499978               0.999999986              -0.000024722               0.001533176               0.999999986              -0.000020267               0.001568360               0.999999986              -0.000014139               0.001604738               0.999999986              -0.000005964               0.001641684               0.999999986               0.000004330               0.001678320               0.999999986               0.000017443               0.001713763               0.999999986               0.000034239               0.001747434               0.999999986               0.000055657               0.001778545               0.999999986               0.000082659               0.001806288               0.999999986              -0.000000000               0.001355029               0.999999986               0.000000000               0.001387603               0.999999986               0.000000000               0.001403848               0.999999986               0.000000000               0.001419064               0.999999986              -0.000000000               0.001437844               0.999999986               0.000000000               0.001461207               0.999999986               0.000000000               0.001488863               0.999999986              -0.000000000               0.001520301               0.999999986               0.000000000               0.001554586               0.999999986               0.000000000               0.001590947               0.999999986               0.000000000               0.001628657               0.999999986              -0.000000000               0.001666930               0.999999986              -0.000000000               0.001705279               0.999999986               0.000000000               0.001743056               0.999999986               0.000000000               0.001779057               0.999999986               0.000000000               0.001812433               0.999999986              -0.000000000               0.001842582               0.999999986              -0.000917533               0.000000000               0.999999986              -0.000967128               0.000000000               0.999999986              -0.000988259               0.000000000               0.999999986              -0.001000354               0.000000000               0.999999986              -0.001010187               0.000000000               0.999999986              -0.001020174               0.000000000               0.999999986              -0.001030783              -0.000000000               0.999999986              -0.001041984               0.000000000               0.999999986              -0.001053652              -0.000000000               0.999999986              -0.001065489               0.000000000               0.999999986              -0.001077220              -0.000000000               0.999999986              -0.001088473               0.000000000               0.999999986              -0.001098896              -0.000000000               0.999999986              -0.001107965              -0.000000000               0.999999986              -0.001115355               0.000000000               0.999999986              -0.001120632               0.000000000               0.999999986              -0.001122966               0.000000000               0.999999986              -0.000912382              -0.000129655               0.999999986              -0.000957685              -0.000102458               0.999999986              -0.000976029              -0.000090095               0.999999986              -0.000986286              -0.000084845               0.999999986              -0.000994740              -0.000083008               0.999999986              -0.001003597              -0.000082521               0.999999986              -0.001013341              -0.000082409               0.999999986              -0.001023686              -0.000082111               0.999999986              -0.001034387              -0.000081262               0.999999986              -0.001045141              -0.000079531               0.999999986              -0.001055524              -0.000076419               0.999999986              -0.001065146              -0.000071476               0.999999986              -0.001073585              -0.000064377               0.999999986              -0.001080501              -0.000054796               0.999999986              -0.001085559              -0.000042114               0.999999986              -0.001088236              -0.000025569               0.999999986              -0.001088021              -0.000003663               0.999999986              -0.000896985              -0.000258078               0.999999986              -0.000929719              -0.000204560               0.999999986              -0.000940284              -0.000181119               0.999999986              -0.000945459              -0.000171789               0.999999986              -0.000950419              -0.000168942               0.999999986              -0.000956582              -0.000168772               0.999999986              -0.000963852              -0.000169098               0.999999986              -0.000971696              -0.000168869               0.999999986              -0.000979506              -0.000167310               0.999999986              -0.000986745              -0.000163867               0.999999986              -0.000992981              -0.000157746               0.999999986              -0.000997678              -0.000148062               0.999999986              -0.001000445              -0.000134331               0.999999986              -0.001001065              -0.000116161               0.999999986              -0.000999274              -0.000092618               0.999999986              -0.000994977              -0.000062581               0.999999986              -0.000988216              -0.000023984               0.999999986              -0.000871592              -0.000384052               0.999999986              -0.000884617              -0.000306093               0.999999986              -0.000884023              -0.000273993               0.999999986              -0.000882499              -0.000262394               0.999999986              -0.000882996              -0.000260010               0.999999986              -0.000885585              -0.000261040               0.999999986              -0.000889332              -0.000262579               0.999999986              -0.000893357              -0.000262914               0.999999986              -0.000896735              -0.000260876               0.999999986              -0.000898637              -0.000255846               0.999999986              -0.000898433              -0.000246744               0.999999986              -0.000895698              -0.000232735               0.999999986              -0.000890242              -0.000213363               0.999999986              -0.000881868              -0.000188295               0.999999986              -0.000870782              -0.000157179               0.999999986              -0.000857392              -0.000119248               0.999999986              -0.000842286              -0.000073283               0.999999986              -0.000836837              -0.000506425               0.999999986              -0.000824950              -0.000407007               0.999999986              -0.000811871              -0.000369281               0.999999986              -0.000803732              -0.000357486               0.999999986              -0.000800058              -0.000356794               0.999999986              -0.000799033              -0.000359930               0.999999986              -0.000799021              -0.000363029               0.999999986              -0.000798503              -0.000364088               0.999999986              -0.000796328              -0.000361710               0.999999986              -0.000791580              -0.000354985               0.999999986              -0.000783624              -0.000343056               0.999999986              -0.000772210              -0.000325376               0.999999986              -0.000757363              -0.000301635               0.999999986              -0.000739412              -0.000272118               0.999999986              -0.000718907              -0.000237029               0.999999986              -0.000696521              -0.000196295               0.999999986              -0.000673076              -0.000150130               0.999999986              -0.000793562              -0.000624050               0.999999986              -0.000753791              -0.000507461               0.999999986              -0.000729194              -0.000467084               0.999999986              -0.000715940              -0.000456794               0.999999986              -0.000709213              -0.000458624               0.999999986              -0.000705383              -0.000464089               0.999999986              -0.000701750              -0.000468790               0.999999986              -0.000696364              -0.000470400               0.999999986              -0.000687977              -0.000467576               0.999999986              -0.000675736              -0.000459262               0.999999986              -0.000659158              -0.000444909               0.999999986              -0.000638435              -0.000424234               0.999999986              -0.000614065              -0.000397661               0.999999986              -0.000586713              -0.000366015               0.999999986              -0.000557103              -0.000329815               0.999999986              -0.000525873              -0.000289838               0.999999986              -0.000493810              -0.000247078               0.999999986              -0.000742548              -0.000735810               0.999999986              -0.000674632              -0.000607518               0.999999986              -0.000641289              -0.000567065               0.999999986              -0.000625407              -0.000559237               0.999999986              -0.000617410              -0.000563792               0.999999986              -0.000611518              -0.000571385               0.999999986              -0.000604368              -0.000577292               0.999999986              -0.000593847              -0.000579091               0.999999986              -0.000578648              -0.000575566               0.999999986              -0.000558130              -0.000565700               0.999999986              -0.000532456              -0.000549194               0.999999986              -0.000502246              -0.000526400               0.999999986              -0.000468190              -0.000498507               0.999999986              -0.000431074              -0.000466497               0.999999986              -0.000391756              -0.000431347               0.999999986              -0.000351041              -0.000393984               0.999999986              -0.000309609              -0.000355341               0.999999986              -0.000684802              -0.000840569               0.999999986              -0.000591307              -0.000706857               0.999999986              -0.000553147              -0.000668202               0.999999986              -0.000537561              -0.000662980               0.999999986              -0.000529573              -0.000669927               0.999999986              -0.000521963              -0.000679221               0.999999986              -0.000511124              -0.000685914               0.999999986              -0.000494905              -0.000687659               0.999999986              -0.000472187              -0.000683169               0.999999986              -0.000442851              -0.000671554               0.999999986              -0.000407454              -0.000653325               0.999999986              -0.000366747              -0.000629568               0.999999986              -0.000321816              -0.000601725               0.999999986              -0.000273871              -0.000571004               0.999999986              -0.000223898              -0.000538242               0.999999986              -0.000172680              -0.000504259               0.999999986              -0.000120941              -0.000469739               0.999999986              -0.000622301              -0.000936356               0.999999986              -0.000506689              -0.000805389               0.999999986              -0.000469257              -0.000768927               0.999999986              -0.000455890              -0.000765895               0.999999986              -0.000448513              -0.000774703               0.999999986              -0.000439175              -0.000785287               0.999999986              -0.000424168              -0.000792534               0.999999986              -0.000401520              -0.000793913               0.999999986              -0.000370368              -0.000788071               0.999999986              -0.000331025              -0.000775033               0.999999986              -0.000284348              -0.000755912               0.999999986              -0.000231699              -0.000732279               0.999999986              -0.000174811              -0.000705527               0.999999986              -0.000115135              -0.000676816               0.999999986              -0.000053841              -0.000646856               0.999999986               0.000008208              -0.000616470               0.999999986               0.000070375              -0.000586058               0.999999986              -0.000557674              -0.001026936               0.999999986              -0.000435626              -0.000916052               0.999999986              -0.000395872              -0.000876331               0.999999986              -0.000382153              -0.000868978               0.999999986              -0.000375660              -0.000875163               0.999999986              -0.000368459              -0.000886004               0.999999986              -0.000356854              -0.000896497               0.999999986              -0.000338833              -0.000903580               0.999999986              -0.000313025              -0.000905556               0.999999986              -0.000279348              -0.000901711               0.999999986              -0.000237924              -0.000892489               0.999999986              -0.000189577              -0.000878818               0.999999986              -0.000135542              -0.000861871               0.999999986              -0.000077248              -0.000842681               0.999999986              -0.000016123              -0.000821925               0.999999986               0.000046507              -0.000800392               0.999999986               0.000109621              -0.000778594               0.999999986              -0.000487388              -0.001109370               0.999999986              -0.000367249              -0.001023039               0.999999986              -0.000325244              -0.000986582               0.999999986              -0.000310376              -0.000977228               0.999999986              -0.000303839              -0.000981930               0.999999986              -0.000297861              -0.000993083               0.999999986              -0.000288749              -0.001006328               0.999999986              -0.000274662              -0.001018505               0.999999986              -0.000253945              -0.001027586               0.999999986              -0.000225868              -0.001032440               0.999999986              -0.000190256              -0.001032686               0.999999986              -0.000147100              -0.001028802               0.999999986              -0.000097077              -0.001021450               0.999999986              -0.000041336              -0.001011579               0.999999986               0.000018729              -0.000999718               0.999999986               0.000082018              -0.000986620               0.999999986               0.000147190              -0.000972935               0.999999986              -0.000412801              -0.001181712               0.999999986              -0.000301422              -0.001123097               0.999999986              -0.000259137              -0.001094404               0.999999986              -0.000242871              -0.001086452               0.999999986              -0.000235679              -0.001091327               0.999999986              -0.000230082              -0.001103493               0.999999986              -0.000222696              -0.001119243               0.999999986              -0.000211614              -0.001135933               0.999999986              -0.000195369              -0.001151495               0.999999986              -0.000172795              -0.001164501               0.999999986              -0.000143169              -0.001174154               0.999999986              -0.000106105              -0.001180194               0.999999986              -0.000061519              -0.001182795               0.999999986              -0.000010027              -0.001182453               0.999999986               0.000047567              -0.001179631               0.999999986               0.000110519              -0.001175074               0.999999986               0.000177828              -0.001169363               0.999999986              -0.000334646              -0.001242663               0.999999986              -0.000238099              -0.001212116               0.999999986              -0.000198357              -0.001194355               0.999999986              -0.000181613              -0.001190578               0.999999986              -0.000173715              -0.001197522               0.999999986              -0.000168182              -0.001211606               0.999999986              -0.000162017              -0.001230126               0.999999986              -0.000153320              -0.001250852               0.999999986              -0.000140734              -0.001272173               0.999999986              -0.000123183              -0.001292560               0.999999986              -0.000099622              -0.001311034               0.999999986              -0.000069342              -0.001326916               0.999999986              -0.000031853              -0.001339784               0.999999986               0.000013282              -0.001349727               0.999999986               0.000065978              -0.001356805               0.999999986               0.000126039              -0.001361354               0.999999986               0.000193543              -0.001363987               0.999999986              -0.000253585              -0.001291211               0.999999986              -0.000176900              -0.001286109               0.999999986              -0.000142942              -0.001280581               0.999999986              -0.000127527              -0.001282752               0.999999986              -0.000119728              -0.001293067               0.999999986              -0.000114458              -0.001309985               0.999999986              -0.000109303              -0.001331506               0.999999986              -0.000102632              -0.001356131               0.999999986              -0.000093266              -0.001382443               0.999999986              -0.000080208              -0.001409214               0.999999986              -0.000062488              -0.001435493               0.999999986              -0.000039423              -0.001460381               0.999999986              -0.000010075              -0.001483247               0.999999986               0.000026313              -0.001503548               0.999999986               0.000070523              -0.001521058               0.999999986               0.000123345              -0.001535686               0.999999986               0.000185894              -0.001547569               0.999999986              -0.000170282              -0.001326505               0.999999986              -0.000117228              -0.001341631               0.999999986              -0.000092352              -0.001347187               0.999999986              -0.000080343              -0.001355739               0.999999986              -0.000073897              -0.001370007               0.999999986              -0.000069684              -0.001389954               0.999999986              -0.000065777              -0.001414460               0.999999986              -0.000061163              -0.001442402               0.999999986              -0.000054730              -0.001472820               0.999999986              -0.000046009              -0.001504689               0.999999986              -0.000033988              -0.001537158               0.999999986              -0.000018245              -0.001569433               0.999999986               0.000001991              -0.001600654               0.999999986               0.000027590              -0.001630069               0.999999986               0.000059658              -0.001657247               0.999999986               0.000099371              -0.001681587               0.999999986               0.000148425              -0.001702587               0.999999986              -0.000085509              -0.001347848               0.999999986              -0.000058448              -0.001375958               0.999999986              -0.000045283              -0.001389373               0.999999986              -0.000038651              -0.001402801               0.999999986              -0.000035029              -0.001420295               0.999999986              -0.000032521              -0.001442675               0.999999986              -0.000030418              -0.001469505               0.999999986              -0.000027997              -0.001499978               0.999999986              -0.000024722              -0.001533176               0.999999986              -0.000020267              -0.001568360               0.999999986              -0.000014139              -0.001604738               0.999999986              -0.000005964              -0.001641684               0.999999986               0.000004330              -0.001678320               0.999999986               0.000017443              -0.001713763               0.999999986               0.000034239              -0.001747434               0.999999986               0.000055657              -0.001778545               0.999999986               0.000082659              -0.001806288               0.999999986              -0.000000000              -0.001355029               0.999999986               0.000000000              -0.001387603               0.999999986               0.000000000              -0.001403848               0.999999986              -0.000000000              -0.001419064               0.999999986               0.000000000              -0.001437844               0.999999986              -0.000000000              -0.001461207               0.999999986               0.000000000              -0.001488863               0.999999986               0.000000000              -0.001520301               0.999999986              -0.000000000              -0.001554586               0.999999986              -0.000000000              -0.001590947               0.999999986              -0.000000000              -0.001628657               0.999999986               0.000000000              -0.001666930               0.999999986               0.000000000              -0.001705279               0.999999986              -0.000000000              -0.001743056               0.999999986              -0.000000000              -0.001779057               0.999999986               0.000000000              -0.001812433               0.999999986              -0.000000000              -0.001842582               0.999999986               0.000917533               0.000000000               0.999999986               0.000967128               0.000000000               0.999999986               0.000988259               0.000000000               0.999999986               0.001000354              -0.000000000               0.999999986               0.001010187               0.000000000               0.999999986               0.001020174              -0.000000000               0.999999986               0.001030783               0.000000000               0.999999986               0.001041984              -0.000000000               0.999999986               0.001053652               0.000000000               0.999999986               0.001065489              -0.000000000               0.999999986               0.001077220              -0.000000000               0.999999986               0.001088473              -0.000000000               0.999999986               0.001098896               0.000000000               0.999999986               0.001107965              -0.000000000               0.999999986               0.001115355               0.000000000               0.999999986               0.001120632              -0.000000000               0.999999986               0.001122966              -0.000000000               0.999999986               0.000912382              -0.000129655               0.999999986               0.000957685              -0.000102458               0.999999986               0.000976029              -0.000090095               0.999999986               0.000986286              -0.000084845               0.999999986               0.000994740              -0.000083008               0.999999986               0.001003597              -0.000082521               0.999999986               0.001013341              -0.000082409               0.999999986               0.001023686              -0.000082111               0.999999986               0.001034387              -0.000081262               0.999999986               0.001045141              -0.000079531               0.999999986               0.001055524              -0.000076419               0.999999986               0.001065146              -0.000071476               0.999999986               0.001073585              -0.000064377               0.999999986               0.001080501              -0.000054796               0.999999986               0.001085559              -0.000042114               0.999999986               0.001088236              -0.000025569               0.999999986               0.001088021              -0.000003663               0.999999986               0.000896985              -0.000258078               0.999999986               0.000929719              -0.000204560               0.999999986               0.000940284              -0.000181119               0.999999986               0.000945459              -0.000171789               0.999999986               0.000950419              -0.000168942               0.999999986               0.000956582              -0.000168772               0.999999986               0.000963852              -0.000169098               0.999999986               0.000971696              -0.000168869               0.999999986               0.000979506              -0.000167310               0.999999986               0.000986745              -0.000163867               0.999999986               0.000992981              -0.000157746               0.999999986               0.000997678              -0.000148062               0.999999986               0.001000445              -0.000134331               0.999999986               0.001001065              -0.000116161               0.999999986               0.000999274              -0.000092618               0.999999986               0.000994977              -0.000062581               0.999999986               0.000988216              -0.000023984               0.999999986               0.000871592              -0.000384052               0.999999986               0.000884617              -0.000306093               0.999999986               0.000884023              -0.000273993               0.999999986               0.000882499              -0.000262394               0.999999986               0.000882996              -0.000260010               0.999999986               0.000885585              -0.000261040               0.999999986               0.000889332              -0.000262579               0.999999986               0.000893357              -0.000262914               0.999999986               0.000896735              -0.000260876               0.999999986               0.000898637              -0.000255846               0.999999986               0.000898433              -0.000246744               0.999999986               0.000895698              -0.000232735               0.999999986               0.000890242              -0.000213363               0.999999986               0.000881868              -0.000188295               0.999999986               0.000870782              -0.000157179               0.999999986               0.000857392              -0.000119248               0.999999986               0.000842286              -0.000073283               0.999999986               0.000836837              -0.000506425               0.999999986               0.000824950              -0.000407007               0.999999986               0.000811871              -0.000369281               0.999999986               0.000803732              -0.000357486               0.999999986               0.000800058              -0.000356794               0.999999986               0.000799033              -0.000359930               0.999999986               0.000799021              -0.000363029               0.999999986               0.000798503              -0.000364088               0.999999986               0.000796328              -0.000361710               0.999999986               0.000791580              -0.000354985               0.999999986               0.000783624              -0.000343056               0.999999986               0.000772210              -0.000325376               0.999999986               0.000757363              -0.000301635               0.999999986               0.000739412              -0.000272118               0.999999986               0.000718907              -0.000237029               0.999999986               0.000696521              -0.000196295               0.999999986               0.000673076              -0.000150130               0.999999986               0.000793562              -0.000624050               0.999999986               0.000753791              -0.000507461               0.999999986               0.000729194              -0.000467084               0.999999986               0.000715940              -0.000456794               0.999999986               0.000709213              -0.000458624               0.999999986               0.000705383              -0.000464089               0.999999986               0.000701750              -0.000468790               0.999999986               0.000696364              -0.000470400               0.999999986               0.000687977              -0.000467576               0.999999986               0.000675736              -0.000459262               0.999999986               0.000659158              -0.000444909               0.999999986               0.000638435              -0.000424234               0.999999986               0.000614065              -0.000397661               0.999999986               0.000586713              -0.000366015               0.999999986               0.000557103              -0.000329815               0.999999986               0.000525873              -0.000289838               0.999999986               0.000493810              -0.000247078               0.999999986               0.000742548              -0.000735810               0.999999986               0.000674632              -0.000607518               0.999999986               0.000641289              -0.000567065               0.999999986               0.000625407              -0.000559237               0.999999986               0.000617410              -0.000563792               0.999999986               0.000611518              -0.000571385               0.999999986               0.000604368              -0.000577292               0.999999986               0.000593847              -0.000579091               0.999999986               0.000578648              -0.000575566               0.999999986               0.000558130              -0.000565700               0.999999986               0.000532456              -0.000549194               0.999999986               0.000502246              -0.000526400               0.999999986               0.000468190              -0.000498507               0.999999986               0.000431074              -0.000466497               0.999999986               0.000391756              -0.000431347               0.999999986               0.000351041              -0.000393984               0.999999986               0.000309609              -0.000355341               0.999999986               0.000684802              -0.000840569               0.999999986               0.000591307              -0.000706857               0.999999986               0.000553147              -0.000668202               0.999999986               0.000537561              -0.000662980               0.999999986               0.000529573              -0.000669927               0.999999986               0.000521963              -0.000679221               0.999999986               0.000511124              -0.000685914               0.999999986               0.000494905              -0.000687659               0.999999986               0.000472187              -0.000683169               0.999999986               0.000442851              -0.000671554               0.999999986               0.000407454              -0.000653325               0.999999986               0.000366747              -0.000629568               0.999999986               0.000321816              -0.000601725               0.999999986               0.000273871              -0.000571004               0.999999986               0.000223898              -0.000538242               0.999999986               0.000172680              -0.000504259               0.999999986               0.000120941              -0.000469739               0.999999986               0.000622301              -0.000936356               0.999999986               0.000506689              -0.000805389               0.999999986               0.000469257              -0.000768927               0.999999986               0.000455890              -0.000765895               0.999999986               0.000448513              -0.000774703               0.999999986               0.000439175              -0.000785287               0.999999986               0.000424168              -0.000792534               0.999999986               0.000401520              -0.000793913               0.999999986               0.000370368              -0.000788071               0.999999986               0.000331025              -0.000775033               0.999999986               0.000284348              -0.000755912               0.999999986               0.000231699              -0.000732279               0.999999986               0.000174811              -0.000705527               0.999999986               0.000115135              -0.000676816               0.999999986               0.000053841              -0.000646856               0.999999986              -0.000008208              -0.000616470               0.999999986              -0.000070375              -0.000586058               0.999999986               0.000557674              -0.001026936               0.999999986               0.000435626              -0.000916052               0.999999986               0.000395872              -0.000876331               0.999999986               0.000382153              -0.000868978               0.999999986               0.000375660              -0.000875163               0.999999986               0.000368459              -0.000886004               0.999999986               0.000356854              -0.000896497               0.999999986               0.000338833              -0.000903580               0.999999986               0.000313025              -0.000905556               0.999999986               0.000279348              -0.000901711               0.999999986               0.000237924              -0.000892489               0.999999986               0.000189577              -0.000878818               0.999999986               0.000135542              -0.000861871               0.999999986               0.000077248              -0.000842681               0.999999986               0.000016123              -0.000821925               0.999999986              -0.000046507              -0.000800392               0.999999986              -0.000109621              -0.000778594               0.999999986               0.000487388              -0.001109370               0.999999986               0.000367249              -0.001023039               0.999999986               0.000325244              -0.000986582               0.999999986               0.000310376              -0.000977228               0.999999986               0.000303839              -0.000981930               0.999999986               0.000297861              -0.000993083               0.999999986               0.000288749              -0.001006328               0.999999986               0.000274662              -0.001018505               0.999999986               0.000253945              -0.001027586               0.999999986               0.000225868              -0.001032440               0.999999986               0.000190256              -0.001032686               0.999999986               0.000147100              -0.001028802               0.999999986               0.000097077              -0.001021450               0.999999986               0.000041336              -0.001011579               0.999999986              -0.000018729              -0.000999718               0.999999986              -0.000082018              -0.000986620               0.999999986              -0.000147190              -0.000972935               0.999999986               0.000412801              -0.001181712               0.999999986               0.000301422              -0.001123097               0.999999986               0.000259137              -0.001094404               0.999999986               0.000242871              -0.001086452               0.999999986               0.000235679              -0.001091327               0.999999986               0.000230082              -0.001103493               0.999999986               0.000222696              -0.001119243               0.999999986               0.000211614              -0.001135933               0.999999986               0.000195369              -0.001151495               0.999999986               0.000172795              -0.001164501               0.999999986               0.000143169              -0.001174154               0.999999986               0.000106105              -0.001180194               0.999999986               0.000061519              -0.001182795               0.999999986               0.000010027              -0.001182453               0.999999986              -0.000047567              -0.001179631               0.999999986              -0.000110519              -0.001175074               0.999999986              -0.000177828              -0.001169363               0.999999986               0.000334646              -0.001242663               0.999999986               0.000238099              -0.001212116               0.999999986               0.000198357              -0.001194355               0.999999986               0.000181613              -0.001190578               0.999999986               0.000173715              -0.001197522               0.999999986               0.000168182              -0.001211606               0.999999986               0.000162017              -0.001230126               0.999999986               0.000153320              -0.001250852               0.999999986               0.000140734              -0.001272173               0.999999986               0.000123183              -0.001292560               0.999999986               0.000099622              -0.001311034               0.999999986               0.000069342              -0.001326916               0.999999986               0.000031853              -0.001339784               0.999999986              -0.000013282              -0.001349727               0.999999986              -0.000065978              -0.001356805               0.999999986              -0.000126039              -0.001361354               0.999999986              -0.000193543              -0.001363987               0.999999986               0.000253585              -0.001291211               0.999999986               0.000176900              -0.001286109               0.999999986               0.000142942              -0.001280581               0.999999986               0.000127527              -0.001282752               0.999999986               0.000119728              -0.001293067               0.999999986               0.000114458              -0.001309985               0.999999986               0.000109303              -0.001331506               0.999999986               0.000102632              -0.001356131               0.999999986               0.000093266              -0.001382443               0.999999986               0.000080208              -0.001409214               0.999999986               0.000062488              -0.001435493               0.999999986               0.000039423              -0.001460381               0.999999986               0.000010075              -0.001483247               0.999999986              -0.000026313              -0.001503548               0.999999986              -0.000070523              -0.001521058               0.999999986              -0.000123345              -0.001535686               0.999999986              -0.000185894              -0.001547569               0.999999986               0.000170282              -0.001326505               0.999999986               0.000117228              -0.001341631               0.999999986               0.000092352              -0.001347187               0.999999986               0.000080343              -0.001355739               0.999999986               0.000073897              -0.001370007               0.999999986               0.000069684              -0.001389954               0.999999986               0.000065777              -0.001414460               0.999999986               0.000061163              -0.001442402               0.999999986               0.000054730              -0.001472820               0.999999986               0.000046009              -0.001504689               0.999999986               0.000033988              -0.001537158               0.999999986               0.000018245              -0.001569433               0.999999986              -0.000001991              -0.001600654               0.999999986              -0.000027590              -0.001630069               0.999999986              -0.000059658              -0.001657247               0.999999986              -0.000099371              -0.001681587               0.999999986              -0.000148425              -0.001702587               0.999999986               0.000085509              -0.001347848               0.999999986               0.000058448              -0.001375958               0.999999986               0.000045283              -0.001389373               0.999999986               0.000038651              -0.001402801               0.999999986               0.000035029              -0.001420295               0.999999986               0.000032521              -0.001442675               0.999999986               0.000030418              -0.001469505               0.999999986               0.000027997              -0.001499978               0.999999986               0.000024722              -0.001533176               0.999999986               0.000020267              -0.001568360               0.999999986               0.000014139              -0.001604738               0.999999986               0.000005964              -0.001641684               0.999999986              -0.000004330              -0.001678320               0.999999986              -0.000017443              -0.001713763               0.999999986              -0.000034239              -0.001747434               0.999999986              -0.000055657              -0.001778545               0.999999986              -0.000082659              -0.001806288               0.999999986              -0.000000000              -0.001355029               0.999999986               0.000000000              -0.001387603               0.999999986               0.000000000              -0.001403848               0.999999986              -0.000000000              -0.001419064               0.999999986               0.000000000              -0.001437844               0.999999986              -0.000000000              -0.001461207               0.999999986               0.000000000              -0.001488863               0.999999986               0.000000000              -0.001520301               0.999999986              -0.000000000              -0.001554586               0.999999986              -0.000000000              -0.001590947               0.999999986              -0.000000000              -0.001628657               0.999999986               0.000000000              -0.001666930               0.999999986               0.000000000              -0.001705279               0.999999986              -0.000000000              -0.001743056               0.999999986              -0.000000000              -0.001779057               0.999999986               0.000000000              -0.001812433               0.999999986              -0.000000000              -0.001842582               0.999999986               0.000917533               0.000000000               0.999999986               0.000967128               0.000000000               0.999999986               0.000988259               0.000000000               0.999999986               0.001000354              -0.000000000               0.999999986               0.001010187               0.000000000               0.999999986               0.001020174              -0.000000000               0.999999986               0.001030783               0.000000000               0.999999986               0.001041984              -0.000000000               0.999999986               0.001053652               0.000000000               0.999999986               0.001065489              -0.000000000               0.999999986               0.001077220              -0.000000000               0.999999986               0.001088473              -0.000000000               0.999999986               0.001098896               0.000000000               0.999999986               0.001107965              -0.000000000               0.999999986               0.001115355               0.000000000               0.999999986               0.001120632              -0.000000000               0.999999986               0.001122966              -0.000000000               0.999999986               0.000912382               0.000129655               0.999999986               0.000957685               0.000102458               0.999999986               0.000976029               0.000090095               0.999999986               0.000986286               0.000084845               0.999999986               0.000994740               0.000083008               0.999999986               0.001003597               0.000082521               0.999999986               0.001013341               0.000082409               0.999999986               0.001023686               0.000082111               0.999999986               0.001034387               0.000081262               0.999999986               0.001045141               0.000079531               0.999999986               0.001055524               0.000076419               0.999999986               0.001065146               0.000071476               0.999999986               0.001073585               0.000064377               0.999999986               0.001080501               0.000054796               0.999999986               0.001085559               0.000042114               0.999999986               0.001088236               0.000025569               0.999999986               0.001088021               0.000003663               0.999999986               0.000896985               0.000258078               0.999999986               0.000929719               0.000204560               0.999999986               0.000940284               0.000181119               0.999999986               0.000945459               0.000171789               0.999999986               0.000950419               0.000168942               0.999999986               0.000956582               0.000168772               0.999999986               0.000963852               0.000169098               0.999999986               0.000971696               0.000168869               0.999999986               0.000979506               0.000167310               0.999999986               0.000986745               0.000163867               0.999999986               0.000992981               0.000157746               0.999999986               0.000997678               0.000148062               0.999999986               0.001000445               0.000134331               0.999999986               0.001001065               0.000116161               0.999999986               0.000999274               0.000092618               0.999999986               0.000994977               0.000062581               0.999999986               0.000988216               0.000023984               0.999999986               0.000871592               0.000384052               0.999999986               0.000884617               0.000306093               0.999999986               0.000884023               0.000273993               0.999999986               0.000882499               0.000262394               0.999999986               0.000882996               0.000260010               0.999999986               0.000885585               0.000261040               0.999999986               0.000889332               0.000262579               0.999999986               0.000893357               0.000262914               0.999999986               0.000896735               0.000260876               0.999999986               0.000898637               0.000255846               0.999999986               0.000898433               0.000246744               0.999999986               0.000895698               0.000232735               0.999999986               0.000890242               0.000213363               0.999999986               0.000881868               0.000188295               0.999999986               0.000870782               0.000157179               0.999999986               0.000857392               0.000119248               0.999999986               0.000842286               0.000073283               0.999999986               0.000836837               0.000506425               0.999999986               0.000824950               0.000407007               0.999999986               0.000811871               0.000369281               0.999999986               0.000803732               0.000357486               0.999999986               0.000800058               0.000356794               0.999999986               0.000799033               0.000359930               0.999999986               0.000799021               0.000363029               0.999999986               0.000798503               0.000364088               0.999999986               0.000796328               0.000361710               0.999999986               0.000791580               0.000354985               0.999999986               0.000783624               0.000343056               0.999999986               0.000772210               0.000325376               0.999999986               0.000757363               0.000301635               0.999999986               0.000739412               0.000272118               0.999999986               0.000718907               0.000237029               0.999999986               0.000696521               0.000196295               0.999999986               0.000673076               0.000150130               0.999999986               0.000793562               0.000624050               0.999999986               0.000753791               0.000507461               0.999999986               0.000729194               0.000467084               0.999999986               0.000715940               0.000456794               0.999999986               0.000709213               0.000458624               0.999999986               0.000705383               0.000464089               0.999999986               0.000701750               0.000468790               0.999999986               0.000696364               0.000470400               0.999999986               0.000687977               0.000467576               0.999999986               0.000675736               0.000459262               0.999999986               0.000659158               0.000444909               0.999999986               0.000638435               0.000424234               0.999999986               0.000614065               0.000397661               0.999999986               0.000586713               0.000366015               0.999999986               0.000557103               0.000329815               0.999999986               0.000525873               0.000289838               0.999999986               0.000493810               0.000247078               0.999999986               0.000742548               0.000735810               0.999999986               0.000674632               0.000607518               0.999999986               0.000641289               0.000567065               0.999999986               0.000625407               0.000559237               0.999999986               0.000617410               0.000563792               0.999999986               0.000611518               0.000571385               0.999999986               0.000604368               0.000577292               0.999999986               0.000593847               0.000579091               0.999999986               0.000578648               0.000575566               0.999999986               0.000558130               0.000565700               0.999999986               0.000532456               0.000549194               0.999999986               0.000502246               0.000526400               0.999999986               0.000468190               0.000498507               0.999999986               0.000431074               0.000466497               0.999999986               0.000391756               0.000431347               0.999999986               0.000351041               0.000393984               0.999999986               0.000309609               0.000355341               0.999999986               0.000684802               0.000840569               0.999999986               0.000591307               0.000706857               0.999999986               0.000553147               0.000668202               0.999999986               0.000537561               0.000662980               0.999999986               0.000529573               0.000669927               0.999999986               0.000521963               0.000679221               0.999999986               0.000511124               0.000685914               0.999999986               0.000494905               0.000687659               0.999999986               0.000472187               0.000683169               0.999999986               0.000442851               0.000671554               0.999999986               0.000407454               0.000653325               0.999999986               0.000366747               0.000629568               0.999999986               0.000321816               0.000601725               0.999999986               0.000273871               0.000571004               0.999999986               0.000223898               0.000538242               0.999999986               0.000172680               0.000504259               0.999999986               0.000120941               0.000469739               0.999999986               0.000622301               0.000936356               0.999999986               0.000506689               0.000805389               0.999999986               0.000469257               0.000768927               0.999999986               0.000455890               0.000765895               0.999999986               0.000448513               0.000774703               0.999999986               0.000439175               0.000785287               0.999999986               0.000424168               0.000792534               0.999999986               0.000401520               0.000793913               0.999999986               0.000370368               0.000788071               0.999999986               0.000331025               0.000775033               0.999999986               0.000284348               0.000755912               0.999999986               0.000231699               0.000732279               0.999999986               0.000174811               0.000705527               0.999999986               0.000115135               0.000676816               0.999999986               0.000053841               0.000646856               0.999999986              -0.000008208               0.000616470               0.999999986              -0.000070375               0.000586058               0.999999986               0.000557674               0.001026936               0.999999986               0.000435626               0.000916052               0.999999986               0.000395872               0.000876331               0.999999986               0.000382153               0.000868978               0.999999986               0.000375660               0.000875163               0.999999986               0.000368459               0.000886004               0.999999986               0.000356854               0.000896497               0.999999986               0.000338833               0.000903580               0.999999986               0.000313025               0.000905556               0.999999986               0.000279348               0.000901711               0.999999986               0.000237924               0.000892489               0.999999986               0.000189577               0.000878818               0.999999986               0.000135542               0.000861871               0.999999986               0.000077248               0.000842681               0.999999986               0.000016123               0.000821925               0.999999986              -0.000046507               0.000800392               0.999999986              -0.000109621               0.000778594               0.999999986               0.000487388               0.001109370               0.999999986               0.000367249               0.001023039               0.999999986               0.000325244               0.000986582               0.999999986               0.000310376               0.000977228               0.999999986               0.000303839               0.000981930               0.999999986               0.000297861               0.000993083               0.999999986               0.000288749               0.001006328               0.999999986               0.000274662               0.001018505               0.999999986               0.000253945               0.001027586               0.999999986               0.000225868               0.001032440               0.999999986               0.000190256               0.001032686               0.999999986               0.000147100               0.001028802               0.999999986               0.000097077               0.001021450               0.999999986               0.000041336               0.001011579               0.999999986              -0.000018729               0.000999718               0.999999986              -0.000082018               0.000986620               0.999999986              -0.000147190               0.000972935               0.999999986               0.000412801               0.001181712               0.999999986               0.000301422               0.001123097               0.999999986               0.000259137               0.001094404               0.999999986               0.000242871               0.001086452               0.999999986               0.000235679               0.001091327               0.999999986               0.000230082               0.001103493               0.999999986               0.000222696               0.001119243               0.999999986               0.000211614               0.001135933               0.999999986               0.000195369               0.001151495               0.999999986               0.000172795               0.001164501               0.999999986               0.000143169               0.001174154               0.999999986               0.000106105               0.001180194               0.999999986               0.000061519               0.001182795               0.999999986               0.000010027               0.001182453               0.999999986              -0.000047567               0.001179631               0.999999986              -0.000110519               0.001175074               0.999999986              -0.000177828               0.001169363               0.999999986               0.000334646               0.001242663               0.999999986               0.000238099               0.001212116               0.999999986               0.000198357               0.001194355               0.999999986               0.000181613               0.001190578               0.999999986               0.000173715               0.001197522               0.999999986               0.000168182               0.001211606               0.999999986               0.000162017               0.001230126               0.999999986               0.000153320               0.001250852               0.999999986               0.000140734               0.001272173               0.999999986               0.000123183               0.001292560               0.999999986               0.000099622               0.001311034               0.999999986               0.000069342               0.001326916               0.999999986               0.000031853               0.001339784               0.999999986              -0.000013282               0.001349727               0.999999986              -0.000065978               0.001356805               0.999999986              -0.000126039               0.001361354               0.999999986              -0.000193543               0.001363987               0.999999986               0.000253585               0.001291211               0.999999986               0.000176900               0.001286109               0.999999986               0.000142942               0.001280581               0.999999986               0.000127527               0.001282752               0.999999986               0.000119728               0.001293067               0.999999986               0.000114458               0.001309985               0.999999986               0.000109303               0.001331506               0.999999986               0.000102632               0.001356131               0.999999986               0.000093266               0.001382443               0.999999986               0.000080208               0.001409214               0.999999986               0.000062488               0.001435493               0.999999986               0.000039423               0.001460381               0.999999986               0.000010075               0.001483247               0.999999986              -0.000026313               0.001503548               0.999999986              -0.000070523               0.001521058               0.999999986              -0.000123345               0.001535686               0.999999986              -0.000185894               0.001547569               0.999999986               0.000170282               0.001326505               0.999999986               0.000117228               0.001341631               0.999999986               0.000092352               0.001347187               0.999999986               0.000080343               0.001355739               0.999999986               0.000073897               0.001370007               0.999999986               0.000069684               0.001389954               0.999999986               0.000065777               0.001414460               0.999999986               0.000061163               0.001442402               0.999999986               0.000054730               0.001472820               0.999999986               0.000046009               0.001504689               0.999999986               0.000033988               0.001537158               0.999999986               0.000018245               0.001569433               0.999999986              -0.000001991               0.001600654               0.999999986              -0.000027590               0.001630069               0.999999986              -0.000059658               0.001657247               0.999999986              -0.000099371               0.001681587               0.999999986              -0.000148425               0.001702587               0.999999986               0.000085509               0.001347848               0.999999986               0.000058448               0.001375958               0.999999986               0.000045283               0.001389373               0.999999986               0.000038651               0.001402801               0.999999986               0.000035029               0.001420295               0.999999986               0.000032521               0.001442675               0.999999986               0.000030418               0.001469505               0.999999986               0.000027997               0.001499978               0.999999986               0.000024722               0.001533176               0.999999986               0.000020267               0.001568360               0.999999986               0.000014139               0.001604738               0.999999986               0.000005964               0.001641684               0.999999986              -0.000004330               0.001678320               0.999999986              -0.000017443               0.001713763               0.999999986              -0.000034239               0.001747434               0.999999986              -0.000055657               0.001778545               0.999999986              -0.000082659               0.001806288               0.999999986              -0.000000000               0.001355029               0.999999986               0.000000000               0.001387603               0.999999986               0.000000000               0.001403848               0.999999986               0.000000000               0.001419064               0.999999986              -0.000000000               0.001437844               0.999999986               0.000000000               0.001461207               0.999999986               0.000000000               0.001488863               0.999999986              -0.000000000               0.001520301               0.999999986               0.000000000               0.001554586               0.999999986               0.000000000               0.001590947               0.999999986               0.000000000               0.001628657               0.999999986              -0.000000000               0.001666930               0.999999986              -0.000000000               0.001705279               0.999999986               0.000000000               0.001743056               0.999999986               0.000000000               0.001779057               0.999999986               0.000000000               0.001812433               0.999999986              -0.000000000               0.001842582               0.999999986 </DataArray>
<DataArray type="Float64"                                    Name="stress"                                                      NumberOfComponents="10" format="ascii">
              0.002191988               0.023498724              -0.000000000              -0.002115340               0.008537943               0.006422603               0.000000000               0.000000000               0.000000000               0.000000000               0.002063802               0.017980290              -0.000000000              -0.001473607               0.006484572               0.005010965               0.000000000               0.000000000               0.000000000               0.000000000               0.002617394               0.013511166              -0.000000000              -0.000707371               0.004739467               0.004032096               0.000000000               0.000000000               0.000000000               0.000000000               0.002383527               0.010989679               0.000000000              -0.000479886               0.003823152               0.003343266               0.000000000               0.000000000               0.000000000               0.000000000               0.001951648               0.009379962              -0.000000000              -0.000440626               0.003273498               0.002832872               0.000000000               0.000000000               0.000000000               0.000000000               0.001514746               0.008228267               0.000000000              -0.000460503               0.002896229               0.002435727               0.000000000               0.000000000               0.000000000               0.000000000               0.001143867               0.007332285               0.000000000              -0.000487584               0.002606599               0.002119014               0.000000000               0.000000000               0.000000000               0.000000000               0.000837872               0.006583546               0.000000000              -0.000508740               0.002364074               0.001855334               0.000000000               0.000000000               0.000000000               0.000000000               0.000586744               0.005920283              -0.000000000              -0.000520005               0.002146743               0.001626738               0.000000000               0.000000000               0.000000000               0.000000000               0.000386192               0.005302037               0.000000000              -0.000517931               0.001939972               0.001422041               0.000000000               0.000000000               0.000000000               0.000000000               0.000228428               0.004692307              -0.000000000              -0.000500877               0.001731046               0.001230169               0.000000000               0.000000000               0.000000000               0.000000000               0.000107819               0.004065572              -0.000000000              -0.000467763               0.001511098               0.001043335               0.000000000               0.000000000               0.000000000               0.000000000               0.000025470               0.003409276              -0.000000000              -0.000416607               0.001275283               0.000858676               0.000000000               0.000000000               0.000000000               0.000000000              -0.000025907               0.002709608               0.000000000              -0.000348415               0.001019332               0.000670917               0.000000000               0.000000000               0.000000000               0.000000000              -0.000053091               0.001945063               0.000000000              -0.000263042               0.000736028               0.000472987               0.000000000               0.000000000               0.000000000               0.000000000              -0.000040225               0.001093698              -0.000000000              -0.000151796               0.000415161               0.000263365               0.000000000               0.000000000               0.000000000               0.000000000              -0.000090453               0.000445357               0.000000000              -0.000089590               0.000178314               0.000088724               0.000000000               0.000000000               0.000000000               0.000000000               0.002250245               0.022983446              -0.001536111              -0.002029084               0.008337434               0.006308349               0.000000000               0.000000000               0.000000000               0.000000000               0.001992684               0.017656377              -0.000664562              -0.001459787               0.006371996               0.004912209               0.000000000               0.000000000               0.000000000               0.000000000               0.002409304               0.013384843               0.000191353              -0.000769615               0.004718108               0.003948493               0.000000000               0.000000000               0.000000000               0.000000000               0.002126759               0.010967547               0.000537227              -0.000573407               0.003846948               0.003273541               0.000000000               0.000000000               0.000000000               0.000000000               0.001686901               0.009412467               0.000663433              -0.000543969               0.003318780               0.002774811               0.000000000               0.000000000               0.000000000               0.000000000               0.001257493               0.008294014               0.000691748              -0.000565191               0.002953041               0.002387850               0.000000000               0.000000000               0.000000000               0.000000000               0.000901914               0.007415553               0.000679226              -0.000588725               0.002668068               0.002079343               0.000000000               0.000000000               0.000000000               0.000000000               0.000621280               0.006676050               0.000651295              -0.000601525               0.002425836               0.001824311               0.000000000               0.000000000               0.000000000               0.000000000               0.000397308               0.006014568               0.000619028              -0.000602829               0.002205779               0.001602950               0.000000000               0.000000000               0.000000000               0.000000000               0.000224840               0.005395691               0.000582117              -0.000590145               0.001995260               0.001405115               0.000000000               0.000000000               0.000000000               0.000000000               0.000098317               0.004789069               0.000538091              -0.000561764               0.001783595               0.001221831               0.000000000               0.000000000               0.000000000               0.000000000               0.000010281               0.004170500               0.000490645              -0.000517456               0.001562638               0.001045182               0.000000000               0.000000000               0.000000000               0.000000000              -0.000045590               0.003528515               0.000441510              -0.000458160               0.001328880               0.000870720               0.000000000               0.000000000               0.000000000               0.000000000              -0.000075555               0.002854612               0.000381260              -0.000385159               0.001079914               0.000694755               0.000000000               0.000000000               0.000000000               0.000000000              -0.000077958               0.002135471               0.000299308              -0.000296168               0.000810539               0.000514371               0.000000000               0.000000000               0.000000000               0.000000000              -0.000048230               0.001353377               0.000175661              -0.000187258               0.000513540               0.000326282               0.000000000               0.000000000               0.000000000               0.000000000              -0.000087593               0.000769235               0.000111296              -0.000129001               0.000299410               0.000170408               0.000000000               0.000000000               0.000000000               0.000000000               0.002379602               0.021511060              -0.002825978              -0.001796528               0.007769124               0.005972596               0.000000000               0.000000000               0.000000000               0.000000000               0.001764855               0.016739103              -0.001213648              -0.001430564               0.006056500               0.004625936               0.000000000               0.000000000               0.000000000               0.000000000               0.001809897               0.013032970               0.000353208              -0.000950408               0.004661082               0.003710675               0.000000000               0.000000000               0.000000000               0.000000000               0.001403577               0.010898014               0.000960404              -0.000835909               0.003911271               0.003075363               0.000000000               0.000000000               0.000000000               0.000000000               0.000948306               0.009489672               0.001168572              -0.000830593               0.003440056               0.002609464               0.000000000               0.000000000               0.000000000               0.000000000               0.000558045               0.008451811               0.001206265              -0.000847208               0.003099645               0.002252437               0.000000000               0.000000000               0.000000000               0.000000000               0.000263366               0.007619863               0.001176492              -0.000853719               0.002824502               0.001970783               0.000000000               0.000000000               0.000000000               0.000000000               0.000055791               0.006904424               0.001122126              -0.000842130               0.002582161               0.001740032               0.000000000               0.000000000               0.000000000               0.000000000              -0.000083761               0.006253292               0.001061885              -0.000813070               0.002355433               0.001542363               0.000000000               0.000000000               0.000000000               0.000000000              -0.000172199               0.005638746               0.000996990              -0.000769416               0.002136035               0.001366619               0.000000000               0.000000000               0.000000000               0.000000000              -0.000217310               0.005039461               0.000920346              -0.000711422               0.001916944               0.001205522               0.000000000               0.000000000               0.000000000               0.000000000              -0.000225495               0.004443862               0.000835749              -0.000640042               0.001694620               0.001054578               0.000000000               0.000000000               0.000000000               0.000000000              -0.000209475               0.003846309               0.000747149              -0.000559341               0.001468537               0.000909196               0.000000000               0.000000000               0.000000000               0.000000000              -0.000175152               0.003247309               0.000642371              -0.000471595               0.001239624               0.000768029               0.000000000               0.000000000               0.000000000               0.000000000              -0.000124995               0.002651803               0.000500746              -0.000378348               0.001010041               0.000631694               0.000000000               0.000000000               0.000000000               0.000000000              -0.000066850               0.002060165               0.000290971              -0.000282589               0.000780911               0.000498322               0.000000000               0.000000000               0.000000000               0.000000000              -0.000077227               0.001655583               0.000178152              -0.000235907               0.000630491               0.000394584               0.000000000               0.000000000               0.000000000               0.000000000               0.002462240               0.019282459              -0.003698093              -0.001486966               0.006923077               0.005436111               0.000000000               0.000000000               0.000000000               0.000000000               0.001355324               0.015371226              -0.001583495              -0.001413154               0.005594742               0.004181588               0.000000000               0.000000000               0.000000000               0.000000000               0.000886189               0.012511479               0.000440204              -0.001231611               0.004580988               0.003349377               0.000000000               0.000000000               0.000000000               0.000000000               0.000347117               0.010773312               0.001176248              -0.001216492               0.003996566               0.002780073               0.000000000               0.000000000               0.000000000               0.000000000              -0.000084114               0.009560658               0.001407428              -0.001226623               0.003595728               0.002369106               0.000000000               0.000000000               0.000000000               0.000000000              -0.000384341               0.008622900               0.001435236              -0.001221988               0.003281600               0.002059613               0.000000000               0.000000000               0.000000000               0.000000000              -0.000568346               0.007841545               0.001385778              -0.001193320               0.003011595               0.001818275               0.000000000               0.000000000               0.000000000               0.000000000              -0.000662128               0.007150797               0.001308962              -0.001142145               0.002764290               0.001622145               0.000000000               0.000000000               0.000000000               0.000000000              -0.000681935               0.006514671               0.001227523              -0.001070057               0.002528221               0.001458163               0.000000000               0.000000000               0.000000000               0.000000000              -0.000647599               0.005910879               0.001141711              -0.000981708               0.002297509               0.001315801               0.000000000               0.000000000               0.000000000               0.000000000              -0.000577142               0.005330411               0.001043206              -0.000882728               0.002071028               0.001188300               0.000000000               0.000000000               0.000000000               0.000000000              -0.000484366               0.004775711               0.000934701              -0.000778600               0.001851421               0.001072821               0.000000000               0.000000000               0.000000000               0.000000000              -0.000376656               0.004250177               0.000819173              -0.000672517               0.001640884               0.000968367               0.000000000               0.000000000               0.000000000               0.000000000              -0.000263959               0.003763742               0.000688652              -0.000569451               0.001444385               0.000874934               0.000000000               0.000000000               0.000000000               0.000000000              -0.000161211               0.003330305               0.000522718              -0.000476741               0.001269004               0.000792263               0.000000000               0.000000000               0.000000000               0.000000000              -0.000076608               0.002967518               0.000295984              -0.000399667               0.001122385               0.000722718               0.000000000               0.000000000               0.000000000               0.000000000              -0.000054104               0.002767258               0.000171978              -0.000366196               0.001044475               0.000678280               0.000000000               0.000000000               0.000000000               0.000000000               0.002353858               0.016573944              -0.004076891              -0.001189046               0.005920941               0.004731894               0.000000000               0.000000000               0.000000000               0.000000000               0.000751312               0.013742696              -0.001761746              -0.001436092               0.005059550               0.003623458               0.000000000               0.000000000               0.000000000               0.000000000              -0.000243785               0.011882771               0.000415576              -0.001576762               0.004486472               0.002909710               0.000000000               0.000000000               0.000000000               0.000000000              -0.000856715               0.010577315               0.001147451              -0.001643428               0.004073546               0.002430117               0.000000000               0.000000000               0.000000000               0.000000000              -0.001193831               0.009562536               0.001355260              -0.001643000               0.003735147               0.002092147               0.000000000               0.000000000               0.000000000               0.000000000              -0.001347234               0.008718747               0.001360505              -0.001595052               0.003437904               0.001842852               0.000000000               0.000000000               0.000000000               0.000000000              -0.001376505               0.007979605               0.001294581              -0.001513637               0.003164387               0.001650750               0.000000000               0.000000000               0.000000000               0.000000000              -0.001319534               0.007310669               0.001208705              -0.001408656               0.002906417               0.001497761               0.000000000               0.000000000               0.000000000               0.000000000              -0.001200101               0.006693159               0.001117756              -0.001286680               0.002659924               0.001373244               0.000000000               0.000000000               0.000000000               0.000000000              -0.001036409               0.006111444               0.001022646              -0.001152581               0.002421321               0.001268740               0.000000000               0.000000000               0.000000000               0.000000000              -0.000850922               0.005567852               0.000917741              -0.001015075               0.002194290               0.001179215               0.000000000               0.000000000               0.000000000               0.000000000              -0.000662632               0.005069866               0.000802146              -0.000882218               0.001984011               0.001101793               0.000000000               0.000000000               0.000000000               0.000000000              -0.000481297               0.004631219               0.000680020              -0.000759387               0.001796853               0.001037466               0.000000000               0.000000000               0.000000000               0.000000000              -0.000317074               0.004265080               0.000547843              -0.000652036               0.001639024               0.000986988               0.000000000               0.000000000               0.000000000               0.000000000              -0.000180340               0.003979265               0.000392769              -0.000565034               0.001514753               0.000949719               0.000000000               0.000000000               0.000000000               0.000000000              -0.000078697               0.003792117               0.000208805              -0.000503525               0.001431868               0.000928343               0.000000000               0.000000000               0.000000000               0.000000000              -0.000037286               0.003725209               0.000110567              -0.000479632               0.001401602               0.000921969               0.000000000               0.000000000               0.000000000               0.000000000               0.001932035               0.013674271              -0.003970223              -0.000984771               0.004886301               0.003901529               0.000000000               0.000000000               0.000000000               0.000000000              -0.000043257               0.012034281              -0.001775727              -0.001520504               0.004518221               0.002997717               0.000000000               0.000000000               0.000000000               0.000000000              -0.001447000               0.011198830               0.000257194              -0.001942474               0.004380397               0.002437923               0.000000000               0.000000000               0.000000000               0.000000000              -0.002018485               0.010296212               0.000886581              -0.002043953               0.004113354               0.002069401               0.000000000               0.000000000               0.000000000               0.000000000              -0.002186250               0.009454535               0.001047022              -0.002001656               0.003818699               0.001817043               0.000000000               0.000000000               0.000000000               0.000000000              -0.002148805               0.008684900               0.001038526              -0.001891410               0.003525408               0.001633998               0.000000000               0.000000000               0.000000000               0.000000000              -0.001994866               0.007982141               0.000975229              -0.001745838               0.003242633               0.001496795               0.000000000               0.000000000               0.000000000               0.000000000              -0.001772628               0.007337254               0.000899695              -0.001581889               0.002973023               0.001391135               0.000000000               0.000000000               0.000000000               0.000000000              -0.001511710               0.006745270               0.000818713              -0.001410046               0.002718416               0.001308370               0.000000000               0.000000000               0.000000000               0.000000000              -0.001230940               0.006199510               0.000731469              -0.001236538               0.002478662               0.001242124               0.000000000               0.000000000               0.000000000               0.000000000              -0.000956166               0.005703190               0.000634821              -0.001071459               0.002258197               0.001186739               0.000000000               0.000000000               0.000000000               0.000000000              -0.000707212               0.005269746               0.000531459              -0.000923921               0.002064538               0.001140617               0.000000000               0.000000000               0.000000000               0.000000000              -0.000488502               0.004919957               0.000428728              -0.000798181               0.001906030               0.001107849               0.000000000               0.000000000               0.000000000               0.000000000              -0.000307903               0.004655460               0.000324108              -0.000697395               0.001784269               0.001086875               0.000000000               0.000000000               0.000000000               0.000000000              -0.000164554               0.004478441               0.000213807              -0.000621511               0.001699969               0.001078458               0.000000000               0.000000000               0.000000000               0.000000000              -0.000061571               0.004392301               0.000104021              -0.000572126               0.001654794               0.001082669               0.000000000               0.000000000               0.000000000               0.000000000              -0.000019888               0.004377965               0.000049619              -0.000554702               0.001644208               0.001089506               0.000000000               0.000000000               0.000000000               0.000000000               0.001128931               0.010827399              -0.003468370              -0.000930076               0.003919121               0.002989045               0.000000000               0.000000000               0.000000000               0.000000000              -0.000984540               0.010376807              -0.001684743              -0.001666300               0.004014334               0.002348034               0.000000000               0.000000000               0.000000000               0.000000000              -0.002587551               0.010482483              -0.000039704              -0.002280637               0.004254338               0.001973702               0.000000000               0.000000000               0.000000000               0.000000000              -0.002990616               0.009915063               0.000440414              -0.002360858               0.004091941               0.001731083               0.000000000               0.000000000               0.000000000               0.000000000              -0.002928088               0.009214925               0.000566528              -0.002249893               0.003821575               0.001571682               0.000000000               0.000000000               0.000000000               0.000000000              -0.002678375               0.008512013               0.000571181              -0.002068387               0.003526772               0.001458384               0.000000000               0.000000000               0.000000000               0.000000000              -0.002344915               0.007847289               0.000535629              -0.001860249               0.003235820               0.001375570               0.000000000               0.000000000               0.000000000               0.000000000              -0.001968798               0.007237036               0.000490620              -0.001642925               0.002959963               0.001317038               0.000000000               0.000000000               0.000000000               0.000000000              -0.001582867               0.006677601               0.000437892              -0.001428272               0.002701935               0.001273664               0.000000000               0.000000000               0.000000000               0.000000000              -0.001217731               0.006166609               0.000374698              -0.001227472               0.002464673               0.001237201               0.000000000               0.000000000               0.000000000               0.000000000              -0.000894845               0.005721366               0.000304244              -0.001050735               0.002257348               0.001206613               0.000000000               0.000000000               0.000000000               0.000000000              -0.000621209               0.005363147               0.000237499              -0.000903344               0.002088813               0.001185468               0.000000000               0.000000000               0.000000000               0.000000000              -0.000397045               0.005098847               0.000179341              -0.000786246               0.001961681               0.001175435               0.000000000               0.000000000               0.000000000               0.000000000              -0.000225275               0.004918368               0.000124251              -0.000699273               0.001872531               0.001173258               0.000000000               0.000000000               0.000000000               0.000000000              -0.000104300               0.004810837               0.000072673              -0.000640465               0.001817085               0.001176619               0.000000000               0.000000000               0.000000000               0.000000000              -0.000032053               0.004762369               0.000030135              -0.000607315               0.001789879               0.001182564               0.000000000               0.000000000               0.000000000               0.000000000              -0.000010549               0.004751643               0.000012938              -0.000597910               0.001783168               0.001185258               0.000000000               0.000000000               0.000000000               0.000000000              -0.000009028               0.008211666              -0.002697095              -0.001029843               0.003080475               0.002050632               0.000000000               0.000000000               0.000000000               0.000000000              -0.002011057               0.008867308              -0.001548000              -0.001862556               0.003576592               0.001714035               0.000000000               0.000000000               0.000000000               0.000000000              -0.003549567               0.009735525              -0.000457890              -0.002548022               0.004094483               0.001546461               0.000000000               0.000000000               0.000000000               0.000000000              -0.003678728               0.009428153              -0.000110812              -0.002558036               0.003995365               0.001437329               0.000000000               0.000000000               0.000000000               0.000000000              -0.003366770               0.008848760               0.000021787              -0.002368628               0.003739100               0.001370472               0.000000000               0.000000000               0.000000000               0.000000000              -0.002915766               0.008217191               0.000067088              -0.002120556               0.003445888               0.001325333               0.000000000               0.000000000               0.000000000               0.000000000              -0.002423290               0.007605836               0.000077352              -0.001859459               0.003155073               0.001295614               0.000000000               0.000000000               0.000000000               0.000000000              -0.001921946               0.007037939               0.000075400              -0.001600468               0.002879446               0.001278977               0.000000000               0.000000000               0.000000000               0.000000000              -0.001451069               0.006510889               0.000061678              -0.001358009               0.002622944               0.001264936               0.000000000               0.000000000               0.000000000               0.000000000              -0.001038377               0.006045659               0.000039180              -0.001145096               0.002396898               0.001251802               0.000000000               0.000000000               0.000000000               0.000000000              -0.000693641               0.005669681               0.000020036              -0.000968823               0.002212816               0.001243993               0.000000000               0.000000000               0.000000000               0.000000000              -0.000422440               0.005391272               0.000009644              -0.000832322               0.002074513               0.001242191               0.000000000               0.000000000               0.000000000               0.000000000              -0.000228632               0.005194924               0.000006786              -0.000735101               0.001976658               0.001241557               0.000000000               0.000000000               0.000000000               0.000000000              -0.000101743               0.005065101               0.000003226              -0.000671289               0.001912113               0.001240824               0.000000000               0.000000000               0.000000000               0.000000000              -0.000027032               0.004986373              -0.000000575              -0.000633432               0.001873252               0.001239820               0.000000000               0.000000000               0.000000000               0.000000000               0.000001886               0.004944246              -0.000000489              -0.000617322               0.001853839               0.001236517               0.000000000               0.000000000               0.000000000               0.000000000               0.000000387               0.004927687               0.000002646              -0.000615814               0.001847817               0.001232003               0.000000000               0.000000000               0.000000000               0.000000000              -0.001331868               0.006023123              -0.001778855              -0.001252339               0.002425133               0.001172795               0.000000000               0.000000000               0.000000000               0.000000000              -0.003011491               0.007524861              -0.001404965              -0.002069912               0.003198232               0.001128320               0.000000000               0.000000000               0.000000000               0.000000000              -0.004301763               0.008980377              -0.000953648              -0.002735702               0.003905330               0.001169628               0.000000000               0.000000000               0.000000000               0.000000000              -0.004144475               0.008939750              -0.000686917              -0.002671640               0.003870434               0.001198793               0.000000000               0.000000000               0.000000000               0.000000000              -0.003629700               0.008504590              -0.000518176              -0.002424205               0.003642903               0.001218698               0.000000000               0.000000000               0.000000000               0.000000000              -0.003023416               0.007969483              -0.000414875              -0.002129961               0.003366455               0.001236494               0.000000000               0.000000000               0.000000000               0.000000000              -0.002408198               0.007431630              -0.000352108              -0.001832023               0.003087860               0.001255836               0.000000000               0.000000000               0.000000000               0.000000000              -0.001816781               0.006912220              -0.000307867              -0.001545317               0.002819156               0.001273839               0.000000000               0.000000000               0.000000000               0.000000000              -0.001285767               0.006424285              -0.000273269              -0.001285195               0.002569805               0.001284610               0.000000000               0.000000000               0.000000000               0.000000000              -0.000832395               0.006007665              -0.000240901              -0.001063104               0.002356903               0.001293799               0.000000000               0.000000000               0.000000000               0.000000000              -0.000469774               0.005684750              -0.000200604              -0.000886757               0.002190483               0.001303727               0.000000000               0.000000000               0.000000000               0.000000000              -0.000209262               0.005448027              -0.000155744              -0.000759475               0.002069149               0.001309674               0.000000000               0.000000000               0.000000000               0.000000000              -0.000049871               0.005277368              -0.000111066              -0.000678371               0.001985229               0.001306858               0.000000000               0.000000000               0.000000000               0.000000000               0.000025384               0.005151747              -0.000071123              -0.000634448               0.001928714               0.001294267               0.000000000               0.000000000               0.000000000               0.000000000               0.000043415               0.005065191              -0.000037984              -0.000616867               0.001894002               0.001277136               0.000000000               0.000000000               0.000000000               0.000000000               0.000028450               0.005014301              -0.000012788              -0.000616117               0.001876789               0.001260672               0.000000000               0.000000000               0.000000000               0.000000000               0.000008988               0.004990773              -0.000000109              -0.000620474               0.001870399               0.001249925               0.000000000               0.000000000               0.000000000               0.000000000              -0.002848103               0.004018231              -0.000825129              -0.001570314               0.001862835               0.000292520               0.000000000               0.000000000               0.000000000               0.000000000              -0.003855259               0.005972245              -0.001247908              -0.002192248               0.002721477               0.000529230               0.000000000               0.000000000               0.000000000               0.000000000              -0.004764069               0.007846660              -0.001464871              -0.002767352               0.003537978               0.000770626               0.000000000               0.000000000               0.000000000               0.000000000              -0.004451439               0.008200311              -0.001287319              -0.002694322               0.003631517               0.000937195               0.000000000               0.000000000               0.000000000               0.000000000              -0.003854784               0.008045891              -0.001084929              -0.002451274               0.003499028               0.001047754               0.000000000               0.000000000               0.000000000               0.000000000              -0.003198344               0.007726836              -0.000919896              -0.002165228               0.003297329               0.001132101               0.000000000               0.000000000               0.000000000               0.000000000              -0.002548695               0.007351193              -0.000799777              -0.001874655               0.003075258               0.001200603               0.000000000               0.000000000               0.000000000               0.000000000              -0.001928631               0.006950343              -0.000704791              -0.001592026               0.002847433               0.001255407               0.000000000               0.000000000               0.000000000               0.000000000              -0.001365782               0.006547311              -0.000621892              -0.001330579               0.002625941               0.001295363               0.000000000               0.000000000               0.000000000               0.000000000              -0.000878470               0.006176935              -0.000541013              -0.001101541               0.002426138               0.001324597               0.000000000               0.000000000               0.000000000               0.000000000              -0.000476097               0.005867986              -0.000451093              -0.000912032               0.002259986               0.001347954               0.000000000               0.000000000               0.000000000               0.000000000              -0.000175376               0.005623060              -0.000354615              -0.000768647               0.002130550               0.001361904               0.000000000               0.000000000               0.000000000               0.000000000               0.000017281               0.005433030              -0.000257996              -0.000672647               0.002035207               0.001362561               0.000000000               0.000000000               0.000000000               0.000000000               0.000109963               0.005276569              -0.000169917              -0.000618333               0.001964950               0.001346617               0.000000000               0.000000000               0.000000000               0.000000000               0.000125791               0.005150927              -0.000096013              -0.000596693               0.001915856               0.001319163               0.000000000               0.000000000               0.000000000               0.000000000               0.000089372               0.005060455              -0.000038446              -0.000599041               0.001886482               0.001287441               0.000000000               0.000000000               0.000000000               0.000000000               0.000047468               0.005012339              -0.000008652              -0.000608740               0.001873676               0.001264936               0.000000000               0.000000000               0.000000000               0.000000000              -0.004762588               0.002225397               0.000085514              -0.002064142               0.001429837              -0.000634305               0.000000000               0.000000000               0.000000000               0.000000000              -0.004811387               0.004410267              -0.001026245              -0.002355548               0.002255256              -0.000100292               0.000000000               0.000000000               0.000000000               0.000000000              -0.005150147               0.006495944              -0.001868104              -0.002743292               0.003079723               0.000336431               0.000000000               0.000000000               0.000000000               0.000000000              -0.004699204               0.007223439              -0.001851258              -0.002665125               0.003296163               0.000631038               0.000000000               0.000000000               0.000000000               0.000000000              -0.004054479               0.007395677              -0.001653285              -0.002444883               0.003280162               0.000835278               0.000000000               0.000000000               0.000000000               0.000000000              -0.003383140               0.007332949              -0.001446165              -0.002185291               0.003172722               0.000987431               0.000000000               0.000000000               0.000000000               0.000000000              -0.002729055               0.007155344              -0.001274591              -0.001917809               0.003024361               0.001106551               0.000000000               0.000000000               0.000000000               0.000000000              -0.002102565               0.006907680              -0.001133882              -0.001651918               0.002853176               0.001201258               0.000000000               0.000000000               0.000000000               0.000000000              -0.001511777               0.006623325              -0.001009390              -0.001394829               0.002672696               0.001277867               0.000000000               0.000000000               0.000000000               0.000000000              -0.000980656               0.006328011              -0.000891642              -0.001158745               0.002495564               0.001336819               0.000000000               0.000000000               0.000000000               0.000000000              -0.000519689               0.006053921              -0.000766716              -0.000951621               0.002335160               0.001383539               0.000000000               0.000000000               0.000000000               0.000000000              -0.000145093               0.005815126              -0.000629955              -0.000781299               0.002198789               0.001417490               0.000000000               0.000000000               0.000000000               0.000000000               0.000127173               0.005612070              -0.000488596              -0.000653817               0.002088611               0.001434793               0.000000000               0.000000000               0.000000000               0.000000000               0.000290280               0.005429004              -0.000352581              -0.000569769               0.001999573               0.001429804               0.000000000               0.000000000               0.000000000               0.000000000               0.000348199               0.005261081              -0.000223224              -0.000527059               0.001929362               0.001402303               0.000000000               0.000000000               0.000000000               0.000000000               0.000312584               0.005119269              -0.000103236              -0.000522688               0.001880635               0.001357947               0.000000000               0.000000000               0.000000000               0.000000000               0.000248676               0.005038751              -0.000038440              -0.000536589               0.001858430               0.001321841               0.000000000               0.000000000               0.000000000               0.000000000              -0.006939995               0.000787895               0.000860515              -0.002700982               0.001162951              -0.001538031               0.000000000               0.000000000               0.000000000               0.000000000              -0.005921932               0.002944714              -0.000738710              -0.002588809               0.001844495              -0.000744314               0.000000000               0.000000000               0.000000000               0.000000000              -0.005477817               0.004956460              -0.002061157              -0.002673733               0.002543380              -0.000130353               0.000000000               0.000000000               0.000000000               0.000000000              -0.004802246               0.005941559              -0.002239598              -0.002543531               0.002828343               0.000284812               0.000000000               0.000000000               0.000000000               0.000000000              -0.004090537               0.006409674              -0.002098155              -0.002335155               0.002914921               0.000579766               0.000000000               0.000000000               0.000000000               0.000000000              -0.003402162               0.006606749              -0.001891193              -0.002101650               0.002902777               0.000801127               0.000000000               0.000000000               0.000000000               0.000000000              -0.002746110               0.006649125              -0.001696800              -0.001860928               0.002836662               0.000975734               0.000000000               0.000000000               0.000000000               0.000000000              -0.002125255               0.006587278              -0.001525993              -0.001620377               0.002735863               0.001115486               0.000000000               0.000000000               0.000000000               0.000000000              -0.001532928               0.006455082              -0.001373085              -0.001381730               0.002612249               0.001230519               0.000000000               0.000000000               0.000000000               0.000000000              -0.000976499               0.006278952              -0.001228105              -0.001151054               0.002476647               0.001325594               0.000000000               0.000000000               0.000000000               0.000000000              -0.000469746               0.006085936              -0.001080403              -0.000936895               0.002340923               0.001404028               0.000000000               0.000000000               0.000000000               0.000000000              -0.000024948               0.005891070              -0.000921686              -0.000745738               0.002212249               0.001466512               0.000000000               0.000000000               0.000000000               0.000000000               0.000339725               0.005705209              -0.000752523              -0.000585753               0.002096968               0.001511215               0.000000000               0.000000000               0.000000000               0.000000000               0.000598409               0.005520321              -0.000576633              -0.000465636               0.001995301               0.001529665               0.000000000               0.000000000               0.000000000               0.000000000               0.000739063               0.005337526              -0.000391764              -0.000390041               0.001909171               0.001519130               0.000000000               0.000000000               0.000000000               0.000000000               0.000760027               0.005165093              -0.000198028              -0.000360625               0.001841889               0.001481263               0.000000000               0.000000000               0.000000000               0.000000000               0.000714814               0.005066061              -0.000092360              -0.000365201               0.001810404               0.001445203               0.000000000               0.000000000               0.000000000               0.000000000              -0.009222328              -0.000221767               0.001382107              -0.003430649               0.001069620              -0.002361030               0.000000000               0.000000000               0.000000000               0.000000000              -0.007116202               0.001658407              -0.000438585              -0.002875873               0.001511416              -0.001364457               0.000000000               0.000000000               0.000000000               0.000000000              -0.005779943               0.003364747              -0.002022591              -0.002588067               0.001984258              -0.000603810               0.000000000               0.000000000               0.000000000               0.000000000              -0.004788828               0.004466300              -0.002366915              -0.002354093               0.002273448              -0.000080645               0.000000000               0.000000000               0.000000000               0.000000000              -0.003968426               0.005161602              -0.002309312              -0.002133355               0.002431634               0.000298279               0.000000000               0.000000000               0.000000000               0.000000000              -0.003247279               0.005594117              -0.002141215              -0.001916990               0.002503683               0.000586693               0.000000000               0.000000000               0.000000000               0.000000000              -0.002588581               0.005852780              -0.001957795              -0.001702312               0.002518344               0.000816032               0.000000000               0.000000000               0.000000000               0.000000000              -0.001973416               0.005990478              -0.001782626              -0.001488838               0.002493085               0.001004247               0.000000000               0.000000000               0.000000000               0.000000000              -0.001390560               0.006032973              -0.001620197              -0.001275579               0.002436164               0.001160584               0.000000000               0.000000000               0.000000000               0.000000000              -0.000832528               0.006003717              -0.001464566              -0.001062660               0.002355439               0.001292778               0.000000000               0.000000000               0.000000000               0.000000000              -0.000299593               0.005928327              -0.001309011              -0.000853387               0.002260551               0.001407165               0.000000000               0.000000000               0.000000000               0.000000000               0.000199870               0.005816717              -0.001147111              -0.000652137               0.002156265               0.001504128               0.000000000               0.000000000               0.000000000               0.000000000               0.000651080               0.005685232              -0.000969168              -0.000466498               0.002050558               0.001584059               0.000000000               0.000000000               0.000000000               0.000000000               0.001026821               0.005534178              -0.000770781              -0.000306714               0.001946945               0.001640231               0.000000000               0.000000000               0.000000000               0.000000000               0.001300434               0.005361373              -0.000549440              -0.000182509               0.001847943               0.001665434               0.000000000               0.000000000               0.000000000               0.000000000               0.001453854               0.005179172              -0.000293035              -0.000102201               0.001760441               0.001658239               0.000000000               0.000000000               0.000000000               0.000000000               0.001496574               0.005085468              -0.000154414              -0.000074468               0.001719962               0.001645494               0.000000000               0.000000000               0.000000000               0.000000000              -0.011398615              -0.000832401               0.001547910              -0.004170428               0.001112667              -0.003057760               0.000000000               0.000000000               0.000000000               0.000000000              -0.008287181               0.000625775              -0.000187046              -0.003185912               0.001270553              -0.001915358               0.000000000               0.000000000               0.000000000               0.000000000              -0.006059354               0.001884580              -0.001753395              -0.002507827               0.001464125              -0.001043702               0.000000000               0.000000000               0.000000000               0.000000000              -0.004710452               0.002974126              -0.002184559              -0.002138181               0.001704090              -0.000434091               0.000000000               0.000000000               0.000000000               0.000000000              -0.003742849               0.003816540              -0.002205320              -0.001880632               0.001899043               0.000018411               0.000000000               0.000000000               0.000000000               0.000000000              -0.002965472               0.004436830              -0.002094147              -0.001666652               0.002034478               0.000367826               0.000000000               0.000000000               0.000000000               0.000000000              -0.002296761               0.004882664              -0.001947421              -0.001471616               0.002118076               0.000646461               0.000000000               0.000000000               0.000000000               0.000000000              -0.001685867               0.005202816              -0.001794765              -0.001282550               0.002161771               0.000879221               0.000000000               0.000000000               0.000000000               0.000000000              -0.001113631               0.005414922              -0.001646346              -0.001094475               0.002169780               0.001075305               0.000000000               0.000000000               0.000000000               0.000000000              -0.000559355               0.005543559              -0.001501485              -0.000902702               0.002148735               0.001246033               0.000000000               0.000000000               0.000000000               0.000000000              -0.000017017               0.005604156              -0.001358244              -0.000706900               0.002103666               0.001396767               0.000000000               0.000000000               0.000000000               0.000000000               0.000516786               0.005605578              -0.001210789              -0.000506902               0.002037474               0.001530572               0.000000000               0.000000000               0.000000000               0.000000000               0.001036113               0.005556403              -0.001046326              -0.000306008               0.001954118               0.001648110               0.000000000               0.000000000               0.000000000               0.000000000               0.001529030               0.005465953              -0.000855597              -0.000109858               0.001858586               0.001748727               0.000000000               0.000000000               0.000000000               0.000000000               0.001972661               0.005340222              -0.000628662               0.000072219               0.001755983               0.001828202               0.000000000               0.000000000               0.000000000               0.000000000               0.002341523               0.005181295              -0.000346384               0.000230407               0.001650279               0.001880686               0.000000000               0.000000000               0.000000000               0.000000000               0.002557372               0.005115952              -0.000199318               0.000319517               0.001598794               0.001918312               0.000000000               0.000000000               0.000000000               0.000000000              -0.013214445              -0.001136180               0.001324079              -0.004813391               0.001225728              -0.003587663               0.000000000               0.000000000               0.000000000               0.000000000              -0.009294131              -0.000116202              -0.000030095              -0.003470771               0.001118182              -0.002352589               0.000000000               0.000000000               0.000000000               0.000000000              -0.006297189               0.000688170              -0.001285665              -0.002447465               0.001045204              -0.001402260               0.000000000               0.000000000               0.000000000               0.000000000              -0.004608880               0.001690482              -0.001683745              -0.001939638               0.001210031              -0.000729607               0.000000000               0.000000000               0.000000000               0.000000000              -0.003488762               0.002595112              -0.001748583              -0.001632672               0.001409251              -0.000223421               0.000000000               0.000000000               0.000000000               0.000000000              -0.002649483               0.003337986              -0.001691293              -0.001410801               0.001582917               0.000172116               0.000000000               0.000000000               0.000000000               0.000000000              -0.001959437               0.003924223              -0.001595299              -0.001225314               0.001716499               0.000491184               0.000000000               0.000000000               0.000000000               0.000000000              -0.001348906               0.004385554              -0.001484874              -0.001054032               0.001813180               0.000759148               0.000000000               0.000000000               0.000000000               0.000000000              -0.000781124               0.004739702              -0.001372700              -0.000885383               0.001875012               0.000989629               0.000000000               0.000000000               0.000000000               0.000000000              -0.000229667               0.005003356              -0.001260167              -0.000711543               0.001904950               0.001193406               0.000000000               0.000000000               0.000000000               0.000000000               0.000321103               0.005191546              -0.001146171              -0.000528529               0.001906674               0.001378145               0.000000000               0.000000000               0.000000000               0.000000000               0.000877863               0.005305292              -0.001032440              -0.000333963               0.001879734               0.001545771               0.000000000               0.000000000               0.000000000               0.000000000               0.001452075               0.005346417              -0.000905968              -0.000123774               0.001823379               0.001699605               0.000000000               0.000000000               0.000000000               0.000000000               0.002046781               0.005334914              -0.000752952               0.000100677               0.001744728               0.001845405               0.000000000               0.000000000               0.000000000               0.000000000               0.002654675               0.005274900              -0.000561587               0.000336137               0.001646237               0.001982374               0.000000000               0.000000000               0.000000000               0.000000000               0.003265029               0.005156523              -0.000314181               0.000579815               0.001525552               0.002105367               0.000000000               0.000000000               0.000000000               0.000000000               0.003695923               0.005131018              -0.000190860               0.000744586               0.001462127               0.002206713               0.000000000               0.000000000               0.000000000               0.000000000              -0.014423007              -0.001247876               0.000760596              -0.005252640               0.001334912              -0.003917727               0.000000000               0.000000000               0.000000000               0.000000000              -0.009984597              -0.000552067               0.000019966              -0.003675213               0.001041042              -0.002634171               0.000000000               0.000000000               0.000000000               0.000000000              -0.006467746              -0.000085486              -0.000678488              -0.002414717               0.000776405              -0.001638312               0.000000000               0.000000000               0.000000000               0.000000000              -0.004528742               0.000819437              -0.000917975              -0.001800706               0.000873375              -0.000927331               0.000000000               0.000000000               0.000000000               0.000000000              -0.003290031               0.001733798              -0.000970588              -0.001450484               0.001061420              -0.000389064               0.000000000               0.000000000               0.000000000               0.000000000              -0.002396604               0.002540681              -0.000950843              -0.001216309               0.001252321               0.000036012               0.000000000               0.000000000               0.000000000               0.000000000              -0.001685286               0.003214934              -0.000906194              -0.001033847               0.001416249               0.000382402               0.000000000               0.000000000               0.000000000               0.000000000              -0.001073031               0.003762792              -0.000850288              -0.000872734               0.001545162               0.000672429               0.000000000               0.000000000               0.000000000               0.000000000              -0.000505831               0.004202656              -0.000790919              -0.000715017               0.001639210               0.000924193               0.000000000               0.000000000               0.000000000               0.000000000               0.000045334               0.004551474              -0.000728601              -0.000551933               0.001701120               0.001149187               0.000000000               0.000000000               0.000000000               0.000000000               0.000607055               0.004824049              -0.000662430              -0.000375360               0.001733120               0.001357760               0.000000000               0.000000000               0.000000000               0.000000000               0.001188533               0.005021378              -0.000598131              -0.000181972               0.001734433               0.001552461               0.000000000               0.000000000               0.000000000               0.000000000               0.001799094               0.005138209              -0.000530399               0.000032383               0.001701925               0.001734308               0.000000000               0.000000000               0.000000000               0.000000000               0.002455824               0.005188148              -0.000445103               0.000272413               0.001638561               0.001910974               0.000000000               0.000000000               0.000000000               0.000000000               0.003174694               0.005177315              -0.000331780               0.000543340               0.001544641               0.002087981               0.000000000               0.000000000               0.000000000               0.000000000               0.003970542               0.005105743              -0.000184302               0.000850727               0.001418322               0.002269049               0.000000000               0.000000000               0.000000000               0.000000000               0.004573152               0.005121969              -0.000114470               0.001074675               0.001349081               0.002423756               0.000000000               0.000000000               0.000000000               0.000000000              -0.014848162              -0.001271032               0.000000000              -0.005409178               0.001379373              -0.004029805               0.000000000               0.000000000               0.000000000               0.000000000              -0.010232757              -0.000694702               0.000000000              -0.003750444               0.001018574              -0.002731870               0.000000000               0.000000000               0.000000000               0.000000000              -0.006532673              -0.000354660               0.000000000              -0.002405418               0.000683581              -0.001721837               0.000000000               0.000000000               0.000000000               0.000000000              -0.004500099               0.000510185              -0.000000000              -0.001751308               0.000753826              -0.000997482               0.000000000               0.000000000               0.000000000               0.000000000              -0.003216903               0.001423488               0.000000000              -0.001384272               0.000935914              -0.000448359               0.000000000               0.000000000               0.000000000               0.000000000              -0.002297019               0.002248104              -0.000000000              -0.001142393               0.001130158              -0.000012235               0.000000000               0.000000000               0.000000000               0.000000000              -0.001577383               0.002951185              -0.000000000              -0.000960415               0.001303857               0.000343442               0.000000000               0.000000000               0.000000000               0.000000000              -0.000962997               0.003530774               0.000000000              -0.000802469               0.001444403               0.000641934               0.000000000               0.000000000               0.000000000               0.000000000              -0.000397181               0.003997595               0.000000000              -0.000648641               0.001548732               0.000900091               0.000000000               0.000000000               0.000000000               0.000000000               0.000155008               0.004373103              -0.000000000              -0.000488509               0.001620523               0.001132014               0.000000000               0.000000000               0.000000000               0.000000000               0.000720497               0.004667814               0.000000000              -0.000313290               0.001660352               0.001347063               0.000000000               0.000000000               0.000000000               0.000000000               0.001314960               0.004894360              -0.000000000              -0.000118685               0.001670999               0.001552314               0.000000000               0.000000000               0.000000000               0.000000000               0.001941516               0.005054450              -0.000000000               0.000096261               0.001652713               0.001748974               0.000000000               0.000000000               0.000000000               0.000000000               0.002616367               0.005131473               0.000000000               0.000339700               0.001597241               0.001936941               0.000000000               0.000000000               0.000000000               0.000000000               0.003368170               0.005128466              -0.000000000               0.000621999               0.001502139               0.002124138               0.000000000               0.000000000               0.000000000               0.000000000               0.004232563               0.005075849              -0.000000000               0.000952720               0.001374359               0.002327080               0.000000000               0.000000000               0.000000000               0.000000000               0.004899709               0.005112137              -0.000000000               0.001198362               0.001304575               0.002502937               0.000000000               0.000000000               0.000000000               0.000000000               0.000000000               0.000000000               0.000000000               0.000000000               0.000000000               0.000000000               0.000000000               0.000000000               0.000000000               0.000000000               0.000000000               0.000000000               0.000000000               0.000000000               0.000000000               0.000000000               0.000000000               0.000000000               0.000000000               0.000000000               0.000000000               0.000000000               0.000000000               0.000000000               0.000000000               0.000000000               0.000000000               0.000000000               0.000000000               0.000000000               0.000000000               0.000000000               0.000000000               0.000000000               0.000000000               0.000000000               0.000000000               0.000000000               0.000000000               0.000000000               0.000000000               0.000000000               0.000000000               0.000000000               0.000000000               0.000000000               0.000000000               0.000000000               0.000000000               0.000000000               0.000000000               0.000000000               0.000000000               0.000000000               0.000000000               0.000000000               0.000000000               0.000000000               0.000000000               0.000000000               0.000000000               0.000000000               0.000000000               0.000000000               0.000000000               0.000000000               0.000000000               0.000000000               0.000000000               0.000000000               0.000000000               0.000000000               0.000000000               0.000000000               0.000000000               0.000000000               0.000000000               0.000000000               0.000000000               0.000000000               0.000000000               0.000000000               0.000000000               0.000000000               0.000000000               0.000000000               0.000000000               0.000000000               0.000000000               0.000000000               0.000000000               0.000000000               0.000000000               0.000000000               0.000000000               0.000000000               0.000000000               0.000000000               0.000000000               0.000000000               0.000000000               0.000000000               0.000000000               0.000000000               0.000000000               0.000000000               0.000000000               0.000000000               0.000000000               0.000000000               0.000000000               0.000000000               0.000000000               0.000000000               0.000000000               0.000000000               0.000000000               0.000000000               0.000000000               0.000000000               0.000000000               0.000000000               0.000000000               0.000000000               0.000000000               0.000000000               0.000000000               0.000000000               0.000000000               0.000000000               0.000000000               0.000000000               0.000000000               0.000000000               0.000000000               0.000000000               0.000000000               0.000000000               0.000000000               0.000000000               0.000000000               0.000000000               0.000000000               0.000000000               0.000000000               0.000000000               0.000000000               0.000000000               0.000000000               0.000000000               0.000000000               0.000000000               0.000000000               0.000000000               0.000000000               0.000000000               0.000000000               0.000000000               0.000000000               0.000000000               0.000000000               0.000000000               0.000000000               0.000000000               0.000000000               0.000000000               0.000000000               0.000000000               0.000000000               0.000000000               0.002250245               0.022983446               0.001536111              -0.002029084               0.008337434               0.006308349               0.000000000               0.000000000               0.000000000               0.000000000               0.001992684               0.017656377               0.000664562              -0.001459787               0.006371996               0.004912209               0.000000000               0.000000000               0.000000000               0.000000000               0.002409304               0.013384843              -0.000191353              -0.000769615               0.004718108               0.003948493               0.000000000               0.000000000               0.000000000               0.000000000               0.002126759               0.010967547              -0.000537227              -0.000573407               0.003846948               0.003273541               0.000000000               0.000000000               0.000000000               0.000000000               0.001686901               0.009412467              -0.000663433              -0.000543969               0.003318780               0.002774811               0.000000000               0.000000000               0.000000000               0.000000000               0.001257493               0.008294014              -0.000691748              -0.000565191               0.002953041               0.002387850               0.000000000               0.000000000               0.000000000               0.000000000               0.000901914               0.007415553              -0.000679226              -0.000588725               0.002668068               0.002079343               0.000000000               0.000000000               0.000000000               0.000000000               0.000621280               0.006676050              -0.000651295              -0.000601525               0.002425836               0.001824311               0.000000000               0.000000000               0.000000000               0.000000000               0.000397308               0.006014568              -0.000619028              -0.000602829               0.002205779               0.001602950               0.000000000               0.000000000               0.000000000               0.000000000               0.000224840               0.005395691              -0.000582117              -0.000590145               0.001995260               0.001405115               0.000000000               0.000000000               0.000000000               0.000000000               0.000098317               0.004789069              -0.000538091              -0.000561764               0.001783595               0.001221831               0.000000000               0.000000000               0.000000000               0.000000000               0.000010281               0.004170500              -0.000490645              -0.000517456               0.001562638               0.001045182               0.000000000               0.000000000               0.000000000               0.000000000              -0.000045590               0.003528515              -0.000441510              -0.000458160               0.001328880               0.000870720               0.000000000               0.000000000               0.000000000               0.000000000              -0.000075555               0.002854612              -0.000381260              -0.000385159               0.001079914               0.000694755               0.000000000               0.000000000               0.000000000               0.000000000              -0.000077958               0.002135471              -0.000299308              -0.000296168               0.000810539               0.000514371               0.000000000               0.000000000               0.000000000               0.000000000              -0.000048230               0.001353377              -0.000175661              -0.000187258               0.000513540               0.000326282               0.000000000               0.000000000               0.000000000               0.000000000              -0.000087593               0.000769235              -0.000111296              -0.000129001               0.000299410               0.000170408               0.000000000               0.000000000               0.000000000               0.000000000               0.002379602               0.021511060               0.002825978              -0.001796528               0.007769124               0.005972596               0.000000000               0.000000000               0.000000000               0.000000000               0.001764855               0.016739103               0.001213648              -0.001430564               0.006056500               0.004625936               0.000000000               0.000000000               0.000000000               0.000000000               0.001809897               0.013032970              -0.000353208              -0.000950408               0.004661082               0.003710675               0.000000000               0.000000000               0.000000000               0.000000000               0.001403577               0.010898014              -0.000960404              -0.000835909               0.003911271               0.003075363               0.000000000               0.000000000               0.000000000               0.000000000               0.000948306               0.009489672              -0.001168572              -0.000830593               0.003440056               0.002609464               0.000000000               0.000000000               0.000000000               0.000000000               0.000558045               0.008451811              -0.001206265              -0.000847208               0.003099645               0.002252437               0.000000000               0.000000000               0.000000000               0.000000000               0.000263366               0.007619863              -0.001176492              -0.000853719               0.002824502               0.001970783               0.000000000               0.000000000               0.000000000               0.000000000               0.000055791               0.006904424              -0.001122126              -0.000842130               0.002582161               0.001740032               0.000000000               0.000000000               0.000000000               0.000000000              -0.000083761               0.006253292              -0.001061885              -0.000813070               0.002355433               0.001542363               0.000000000               0.000000000               0.000000000               0.000000000              -0.000172199               0.005638746              -0.000996990              -0.000769416               0.002136035               0.001366619               0.000000000               0.000000000               0.000000000               0.000000000              -0.000217310               0.005039461              -0.000920346              -0.000711422               0.001916944               0.001205522               0.000000000               0.000000000               0.000000000               0.000000000              -0.000225495               0.004443862              -0.000835749              -0.000640042               0.001694620               0.001054578               0.000000000               0.000000000               0.000000000               0.000000000              -0.000209475               0.003846309              -0.000747149              -0.000559341               0.001468537               0.000909196               0.000000000               0.000000000               0.000000000               0.000000000              -0.000175152               0.003247309              -0.000642371              -0.000471595               0.001239624               0.000768029               0.000000000               0.000000000               0.000000000               0.000000000              -0.000124995               0.002651803              -0.000500746              -0.000378348               0.001010041               0.000631694               0.000000000               0.000000000               0.000000000               0.000000000              -0.000066850               0.002060165              -0.000290971              -0.000282589               0.000780911               0.000498322               0.000000000               0.000000000               0.000000000               0.000000000              -0.000077227               0.001655583              -0.000178152              -0.000235907               0.000630491               0.000394584               0.000000000               0.000000000               0.000000000               0.000000000               0.002462240               0.019282459               0.003698093              -0.001486966               0.006923077               0.005436111               0.000000000               0.000000000               0.000000000               0.000000000               0.001355324               0.015371226               0.001583495              -0.001413154               0.005594742               0.004181588               0.000000000               0.000000000               0.000000000               0.000000000               0.000886189               0.012511479              -0.000440204              -0.001231611               0.004580988               0.003349377               0.000000000               0.000000000               0.000000000               0.000000000               0.000347117               0.010773312              -0.001176248              -0.001216492               0.003996566               0.002780073               0.000000000               0.000000000               0.000000000               0.000000000              -0.000084114               0.009560658              -0.001407428              -0.001226623               0.003595728               0.002369106               0.000000000               0.000000000               0.000000000               0.000000000              -0.000384341               0.008622900              -0.001435236              -0.001221988               0.003281600               0.002059613               0.000000000               0.000000000               0.000000000               0.000000000              -0.000568346               0.007841545              -0.001385778              -0.001193320               0.003011595               0.001818275               0.000000000               0.000000000               0.000000000               0.000000000              -0.000662128               0.007150797              -0.001308962              -0.001142145               0.002764290               0.001622145               0.000000000               0.000000000               0.000000000               0.000000000              -0.000681935               0.006514671              -0.001227523              -0.001070057               0.002528221               0.001458163               0.000000000               0.000000000               0.000000000               0.000000000              -0.000647599               0.005910879              -0.001141711              -0.000981708               0.002297509               0.001315801               0.000000000               0.000000000               0.000000000               0.000000000              -0.000577142               0.005330411              -0.001043206              -0.000882728               0.002071028               0.001188300               0.000000000               0.000000000               0.000000000               0.000000000              -0.000484366               0.004775711              -0.000934701              -0.000778600               0.001851421               0.001072821               0.000000000               0.000000000               0.000000000               0.000000000              -0.000376656               0.004250177              -0.000819173              -0.000672517               0.001640884               0.000968367               0.000000000               0.000000000               0.000000000               0.000000000              -0.000263959               0.003763742              -0.000688652              -0.000569451               0.001444385               0.000874934               0.000000000               0.000000000               0.000000000               0.000000000              -0.000161211               0.003330305              -0.000522718              -0.000476741               0.001269004               0.000792263               0.000000000               0.000000000               0.000000000               0.000000000              -0.000076608               0.002967518              -0.000295984              -0.000399667               0.001122385               0.000722718               0.000000000               0.000000000               0.000000000               0.000000000              -0.000054104               0.002767258              -0.000171978              -0.000366196               0.001044475               0.000678280               0.000000000               0.000000000               0.000000000               0.000000000               0.002353858               0.016573944               0.004076891              -0.001189046               0.005920941               0.004731894               0.000000000               0.000000000               0.000000000               0.000000000               0.000751312               0.013742696               0.001761746              -0.001436092               0.005059550               0.003623458               0.000000000               0.000000000               0.000000000               0.000000000              -0.000243785               0.011882771              -0.000415576              -0.001576762               0.004486472               0.002909710               0.000000000               0.000000000               0.000000000               0.000000000              -0.000856715               0.010577315              -0.001147451              -0.001643428               0.004073546               0.002430117               0.000000000               0.000000000               0.000000000               0.000000000              -0.001193831               0.009562536              -0.001355260              -0.001643000               0.003735147               0.002092147               0.000000000               0.000000000               0.000000000               0.000000000              -0.001347234               0.008718747              -0.001360505              -0.001595052               0.003437904               0.001842852               0.000000000               0.000000000               0.000000000               0.000000000              -0.001376505               0.007979605              -0.001294581              -0.001513637               0.003164387               0.001650750               0.000000000               0.000000000               0.000000000               0.000000000              -0.001319534               0.007310669              -0.001208705              -0.001408656               0.002906417               0.001497761               0.000000000               0.000000000               0.000000000               0.000000000              -0.001200101               0.006693159              -0.001117756              -0.001286680               0.002659924               0.001373244               0.000000000               0.000000000               0.000000000               0.000000000              -0.001036409               0.006111444              -0.001022646              -0.001152581               0.002421321               0.001268740               0.000000000               0.000000000               0.000000000               0.000000000              -0.000850922               0.005567852              -0.000917741              -0.001015075               0.002194290               0.001179215               0.000000000               0.000000000               0.000000000               0.000000000              -0.000662632               0.005069866              -0.000802146              -0.000882218               0.001984011               0.001101793               0.000000000               0.000000000               0.000000000               0.000000000              -0.000481297               0.004631219              -0.000680020              -0.000759387               0.001796853               0.001037466               0.000000000               0.000000000               0.000000000               0.000000000              -0.000317074               0.004265080              -0.000547843              -0.000652036               0.001639024               0.000986988               0.000000000               0.000000000               0.000000000               0.000000000              -0.000180340               0.003979265              -0.000392769              -0.000565034               0.001514753               0.000949719               0.000000000               0.000000000               0.000000000               0.000000000              -0.000078697               0.003792117              -0.000208805              -0.000503525               0.001431868               0.000928343               0.000000000               0.000000000               0.000000000               0.000000000              -0.000037286               0.003725209              -0.000110567              -0.000479632               0.001401602               0.000921969               0.000000000               0.000000000               0.000000000               0.000000000               0.001932035               0.013674271               0.003970223              -0.000984771               0.004886301               0.003901529               0.000000000               0.000000000               0.000000000               0.000000000              -0.000043257               0.012034281               0.001775727              -0.001520504               0.004518221               0.002997717               0.000000000               0.000000000               0.000000000               0.000000000              -0.001447000               0.011198830              -0.000257194              -0.001942474               0.004380397               0.002437923               0.000000000               0.000000000               0.000000000               0.000000000              -0.002018485               0.010296212              -0.000886581              -0.002043953               0.004113354               0.002069401               0.000000000               0.000000000               0.000000000               0.000000000              -0.002186250               0.009454535              -0.001047022              -0.002001656               0.003818699               0.001817043               0.000000000               0.000000000               0.000000000               0.000000000              -0.002148805               0.008684900              -0.001038526              -0.001891410               0.003525408               0.001633998               0.000000000               0.000000000               0.000000000               0.000000000              -0.001994866               0.007982141              -0.000975229              -0.001745838               0.003242633               0.001496795               0.000000000               0.000000000               0.000000000               0.000000000              -0.001772628               0.007337254              -0.000899695              -0.001581889               0.002973023               0.001391135               0.000000000               0.000000000               0.000000000               0.000000000              -0.001511710               0.006745270              -0.000818713              -0.001410046               0.002718416               0.001308370               0.000000000               0.000000000               0.000000000               0.000000000              -0.001230940               0.006199510              -0.000731469              -0.001236538               0.002478662               0.001242124               0.000000000               0.000000000               0.000000000               0.000000000              -0.000956166               0.005703190              -0.000634821              -0.001071459               0.002258197               0.001186739               0.000000000               0.000000000               0.000000000               0.000000000              -0.000707212               0.005269746              -0.000531459              -0.000923921               0.002064538               0.001140617               0.000000000               0.000000000               0.000000000               0.000000000              -0.000488502               0.004919957              -0.000428728              -0.000798181               0.001906030               0.001107849               0.000000000               0.000000000               0.000000000               0.000000000              -0.000307903               0.004655460              -0.000324108              -0.000697395               0.001784269               0.001086875               0.000000000               0.000000000               0.000000000               0.000000000              -0.000164554               0.004478441              -0.000213807              -0.000621511               0.001699969               0.001078458               0.000000000               0.000000000               0.000000000               0.000000000              -0.000061571               0.004392301              -0.000104021              -0.000572126               0.001654794               0.001082669               0.000000000               0.000000000               0.000000000               0.000000000              -0.000019888               0.004377965              -0.000049619              -0.000554702               0.001644208               0.001089506               0.000000000               0.000000000               0.000000000               0.000000000               0.001128931               0.010827399               0.003468370              -0.000930076               0.003919121               0.002989045               0.000000000               0.000000000               0.000000000               0.000000000              -0.000984540               0.010376807               0.001684743              -0.001666300               0.004014334               0.002348034               0.000000000               0.000000000               0.000000000               0.000000000              -0.002587551               0.010482483               0.000039704              -0.002280637               0.004254338               0.001973702               0.000000000               0.000000000               0.000000000               0.000000000              -0.002990616               0.009915063              -0.000440414              -0.002360858               0.004091941               0.001731083               0.000000000               0.000000000               0.000000000               0.000000000              -0.002928088               0.009214925              -0.000566528              -0.002249893               0.003821575               0.001571682               0.000000000               0.000000000               0.000000000               0.000000000              -0.002678375               0.008512013              -0.000571181              -0.002068387               0.003526772               0.001458384               0.000000000               0.000000000               0.000000000               0.000000000              -0.002344915               0.007847289              -0.000535629              -0.001860249               0.003235820               0.001375570               0.000000000               0.000000000               0.000000000               0.000000000              -0.001968798               0.007237036              -0.000490620              -0.001642925               0.002959963               0.001317038               0.000000000               0.000000000               0.000000000               0.000000000              -0.001582867               0.006677601              -0.000437892              -0.001428272               0.002701935               0.001273664               0.000000000               0.000000000               0.000000000               0.000000000              -0.001217731               0.006166609              -0.000374698              -0.001227472               0.002464673               0.001237201               0.000000000               0.000000000               0.000000000               0.000000000              -0.000894845               0.005721366              -0.000304244              -0.001050735               0.002257348               0.001206613               0.000000000               0.000000000               0.000000000               0.000000000              -0.000621209               0.005363147              -0.000237499              -0.000903344               0.002088813               0.001185468               0.000000000               0.000000000               0.000000000               0.000000000              -0.000397045               0.005098847              -0.000179341              -0.000786246               0.001961681               0.001175435               0.000000000               0.000000000               0.000000000               0.000000000              -0.000225275               0.004918368              -0.000124251              -0.000699273               0.001872531               0.001173258               0.000000000               0.000000000               0.000000000               0.000000000              -0.000104300               0.004810837              -0.000072673              -0.000640465               0.001817085               0.001176619               0.000000000               0.000000000               0.000000000               0.000000000              -0.000032053               0.004762369              -0.000030135              -0.000607315               0.001789879               0.001182564               0.000000000               0.000000000               0.000000000               0.000000000              -0.000010549               0.004751643              -0.000012938              -0.000597910               0.001783168               0.001185258               0.000000000               0.000000000               0.000000000               0.000000000              -0.000009028               0.008211666               0.002697095              -0.001029843               0.003080475               0.002050632               0.000000000               0.000000000               0.000000000               0.000000000              -0.002011057               0.008867308               0.001548000              -0.001862556               0.003576592               0.001714035               0.000000000               0.000000000               0.000000000               0.000000000              -0.003549567               0.009735525               0.000457890              -0.002548022               0.004094483               0.001546461               0.000000000               0.000000000               0.000000000               0.000000000              -0.003678728               0.009428153               0.000110812              -0.002558036               0.003995365               0.001437329               0.000000000               0.000000000               0.000000000               0.000000000              -0.003366770               0.008848760              -0.000021787              -0.002368628               0.003739100               0.001370472               0.000000000               0.000000000               0.000000000               0.000000000              -0.002915766               0.008217191              -0.000067088              -0.002120556               0.003445888               0.001325333               0.000000000               0.000000000               0.000000000               0.000000000              -0.002423290               0.007605836              -0.000077352              -0.001859459               0.003155073               0.001295614               0.000000000               0.000000000               0.000000000               0.000000000              -0.001921946               0.007037939              -0.000075400              -0.001600468               0.002879446               0.001278977               0.000000000               0.000000000               0.000000000               0.000000000              -0.001451069               0.006510889              -0.000061678              -0.001358009               0.002622944               0.001264936               0.000000000               0.000000000               0.000000000               0.000000000              -0.001038377               0.006045659              -0.000039180              -0.001145096               0.002396898               0.001251802               0.000000000               0.000000000               0.000000000               0.000000000              -0.000693641               0.005669681              -0.000020036              -0.000968823               0.002212816               0.001243993               0.000000000               0.000000000               0.000000000               0.000000000              -0.000422440               0.005391272              -0.000009644              -0.000832322               0.002074513               0.001242191               0.000000000               0.000000000               0.000000000               0.000000000              -0.000228632               0.005194924              -0.000006786              -0.000735101               0.001976658               0.001241557               0.000000000               0.000000000               0.000000000               0.000000000              -0.000101743               0.005065101              -0.000003226              -0.000671289               0.001912113               0.001240824               0.000000000               0.000000000               0.000000000               0.000000000              -0.000027032               0.004986373               0.000000575              -0.000633432               0.001873252               0.001239820               0.000000000               0.000000000               0.000000000               0.000000000               0.000001886               0.004944246               0.000000489              -0.000617322               0.001853839               0.001236517               0.000000000               0.000000000               0.000000000               0.000000000               0.000000387               0.004927687              -0.000002646              -0.000615814               0.001847817               0.001232003               0.000000000               0.000000000               0.000000000               0.000000000              -0.001331868               0.006023123               0.001778855              -0.001252339               0.002425133               0.001172795               0.000000000               0.000000000               0.000000000               0.000000000              -0.003011491               0.007524861               0.001404965              -0.002069912               0.003198232               0.001128320               0.000000000               0.000000000               0.000000000               0.000000000              -0.004301763               0.008980377               0.000953648              -0.002735702               0.003905330               0.001169628               0.000000000               0.000000000               0.000000000               0.000000000              -0.004144475               0.008939750               0.000686917              -0.002671640               0.003870434               0.001198793               0.000000000               0.000000000               0.000000000               0.000000000              -0.003629700               0.008504590               0.000518176              -0.002424205               0.003642903               0.001218698               0.000000000               0.000000000               0.000000000               0.000000000              -0.003023416               0.007969483               0.000414875              -0.002129961               0.003366455               0.001236494               0.000000000               0.000000000               0.000000000               0.000000000              -0.002408198               0.007431630               0.000352108              -0.001832023               0.003087860               0.001255836               0.000000000               0.000000000               0.000000000               0.000000000              -0.001816781               0.006912220               0.000307867              -0.001545317               0.002819156               0.001273839               0.000000000               0.000000000               0.000000000               0.000000000              -0.001285767               0.006424285               0.000273269              -0.001285195               0.002569805               0.001284610               0.000000000               0.000000000               0.000000000               0.000000000              -0.000832395               0.006007665               0.000240901              -0.001063104               0.002356903               0.001293799               0.000000000               0.000000000               0.000000000               0.000000000              -0.000469774               0.005684750               0.000200604              -0.000886757               0.002190483               0.001303727               0.000000000               0.000000000               0.000000000               0.000000000              -0.000209262               0.005448027               0.000155744              -0.000759475               0.002069149               0.001309674               0.000000000               0.000000000               0.000000000               0.000000000              -0.000049871               0.005277368               0.000111066              -0.000678371               0.001985229               0.001306858               0.000000000               0.000000000               0.000000000               0.000000000               0.000025384               0.005151747               0.000071123              -0.000634448               0.001928714               0.001294267               0.000000000               0.000000000               0.000000000               0.000000000               0.000043415               0.005065191               0.000037984              -0.000616867               0.001894002               0.001277136               0.000000000               0.000000000               0.000000000               0.000000000               0.000028450               0.005014301               0.000012788              -0.000616117               0.001876789               0.001260672               0.000000000               0.000000000               0.000000000               0.000000000               0.000008988               0.004990773               0.000000109              -0.000620474               0.001870399               0.001249925               0.000000000               0.000000000               0.000000000               0.000000000              -0.002848103               0.004018231               0.000825129              -0.001570314               0.001862835               0.000292520               0.000000000               0.000000000               0.000000000               0.000000000              -0.003855259               0.005972245               0.001247908              -0.002192248               0.002721477               0.000529230               0.000000000               0.000000000               0.000000000               0.000000000              -0.004764069               0.007846660               0.001464871              -0.002767352               0.003537978               0.000770626               0.000000000               0.000000000               0.000000000               0.000000000              -0.004451439               0.008200311               0.001287319              -0.002694322               0.003631517               0.000937195               0.000000000               0.000000000               0.000000000               0.000000000              -0.003854784               0.008045891               0.001084929              -0.002451274               0.003499028               0.001047754               0.000000000               0.000000000               0.000000000               0.000000000              -0.003198344               0.007726836               0.000919896              -0.002165228               0.003297329               0.001132101               0.000000000               0.000000000               0.000000000               0.000000000              -0.002548695               0.007351193               0.000799777              -0.001874655               0.003075258               0.001200603               0.000000000               0.000000000               0.000000000               0.000000000              -0.001928631               0.006950343               0.000704791              -0.001592026               0.002847433               0.001255407               0.000000000               0.000000000               0.000000000               0.000000000              -0.001365782               0.006547311               0.000621892              -0.001330579               0.002625941               0.001295363               0.000000000               0.000000000               0.000000000               0.000000000              -0.000878470               0.006176935               0.000541013              -0.001101541               0.002426138               0.001324597               0.000000000               0.000000000               0.000000000               0.000000000              -0.000476097               0.005867986               0.000451093              -0.000912032               0.002259986               0.001347954               0.000000000               0.000000000               0.000000000               0.000000000              -0.000175376               0.005623060               0.000354615              -0.000768647               0.002130550               0.001361904               0.000000000               0.000000000               0.000000000               0.000000000               0.000017281               0.005433030               0.000257996              -0.000672647               0.002035207               0.001362561               0.000000000               0.000000000               0.000000000               0.000000000               0.000109963               0.005276569               0.000169917              -0.000618333               0.001964950               0.001346617               0.000000000               0.000000000               0.000000000               0.000000000               0.000125791               0.005150927               0.000096013              -0.000596693               0.001915856               0.001319163               0.000000000               0.000000000               0.000000000               0.000000000               0.000089372               0.005060455               0.000038446              -0.000599041               0.001886482               0.001287441               0.000000000               0.000000000               0.000000000               0.000000000               0.000047468               0.005012339               0.000008652              -0.000608740               0.001873676               0.001264936               0.000000000               0.000000000               0.000000000               0.000000000              -0.004762588               0.002225397              -0.000085514              -0.002064142               0.001429837              -0.000634305               0.000000000               0.000000000               0.000000000               0.000000000              -0.004811387               0.004410267               0.001026245              -0.002355548               0.002255256              -0.000100292               0.000000000               0.000000000               0.000000000               0.000000000              -0.005150147               0.006495944               0.001868104              -0.002743292               0.003079723               0.000336431               0.000000000               0.000000000               0.000000000               0.000000000              -0.004699204               0.007223439               0.001851258              -0.002665125               0.003296163               0.000631038               0.000000000               0.000000000               0.000000000               0.000000000              -0.004054479               0.007395677               0.001653285              -0.002444883               0.003280162               0.000835278               0.000000000               0.000000000               0.000000000               0.000000000              -0.003383140               0.007332949               0.001446165              -0.002185291               0.003172722               0.000987431               0.000000000               0.000000000               0.000000000               0.000000000              -0.002729055               0.007155344               0.001274591              -0.001917809               0.003024361               0.001106551               0.000000000               0.000000000               0.000000000               0.000000000              -0.002102565               0.006907680               0.001133882              -0.001651918               0.002853176               0.001201258               0.000000000               0.000000000               0.000000000               0.000000000              -0.001511777               0.006623325               0.001009390              -0.001394829               0.002672696               0.001277867               0.000000000               0.000000000               0.000000000               0.000000000              -0.000980656               0.006328011               0.000891642              -0.001158745               0.002495564               0.001336819               0.000000000               0.000000000               0.000000000               0.000000000              -0.000519689               0.006053921               0.000766716              -0.000951621               0.002335160               0.001383539               0.000000000               0.000000000               0.000000000               0.000000000              -0.000145093               0.005815126               0.000629955              -0.000781299               0.002198789               0.001417490               0.000000000               0.000000000               0.000000000               0.000000000               0.000127173               0.005612070               0.000488596              -0.000653817               0.002088611               0.001434793               0.000000000               0.000000000               0.000000000               0.000000000               0.000290280               0.005429004               0.000352581              -0.000569769               0.001999573               0.001429804               0.000000000               0.000000000               0.000000000               0.000000000               0.000348199               0.005261081               0.000223224              -0.000527059               0.001929362               0.001402303               0.000000000               0.000000000               0.000000000               0.000000000               0.000312584               0.005119269               0.000103236              -0.000522688               0.001880635               0.001357947               0.000000000               0.000000000               0.000000000               0.000000000               0.000248676               0.005038751               0.000038440              -0.000536589               0.001858430               0.001321841               0.000000000               0.000000000               0.000000000               0.000000000              -0.006939995               0.000787895              -0.000860515              -0.002700982               0.001162951              -0.001538031               0.000000000               0.000000000               0.000000000               0.000000000              -0.005921932               0.002944714               0.000738710              -0.002588809               0.001844495              -0.000744314               0.000000000               0.000000000               0.000000000               0.000000000              -0.005477817               0.004956460               0.002061157              -0.002673733               0.002543380              -0.000130353               0.000000000               0.000000000               0.000000000               0.000000000              -0.004802246               0.005941559               0.002239598              -0.002543531               0.002828343               0.000284812               0.000000000               0.000000000               0.000000000               0.000000000              -0.004090537               0.006409674               0.002098155              -0.002335155               0.002914921               0.000579766               0.000000000               0.000000000               0.000000000               0.000000000              -0.003402162               0.006606749               0.001891193              -0.002101650               0.002902777               0.000801127               0.000000000               0.000000000               0.000000000               0.000000000              -0.002746110               0.006649125               0.001696800              -0.001860928               0.002836662               0.000975734               0.000000000               0.000000000               0.000000000               0.000000000              -0.002125255               0.006587278               0.001525993              -0.001620377               0.002735863               0.001115486               0.000000000               0.000000000               0.000000000               0.000000000              -0.001532928               0.006455082               0.001373085              -0.001381730               0.002612249               0.001230519               0.000000000               0.000000000               0.000000000               0.000000000              -0.000976499               0.006278952               0.001228105              -0.001151054               0.002476647               0.001325594               0.000000000               0.000000000               0.000000000               0.000000000              -0.000469746               0.006085936               0.001080403              -0.000936895               0.002340923               0.001404028               0.000000000               0.000000000               0.000000000               0.000000000              -0.000024948               0.005891070               0.000921686              -0.000745738               0.002212249               0.001466512               0.000000000               0.000000000               0.000000000               0.000000000               0.000339725               0.005705209               0.000752523              -0.000585753               0.002096968               0.001511215               0.000000000               0.000000000               0.000000000               0.000000000               0.000598409               0.005520321               0.000576633              -0.000465636               0.001995301               0.001529665               0.000000000               0.000000000               0.000000000               0.000000000               0.000739063               0.005337526               0.000391764              -0.000390041               0.001909171               0.001519130               0.000000000               0.000000000               0.000000000               0.000000000               0.000760027               0.005165093               0.000198028              -0.000360625               0.001841889               0.001481263               0.000000000               0.000000000               0.000000000               0.000000000               0.000714814               0.005066061               0.000092360              -0.000365201               0.001810404               0.001445203               0.000000000               0.000000000               0.000000000               0.000000000              -0.009222328              -0.000221767              -0.001382107              -0.003430649               0.001069620              -0.002361030               0.000000000               0.000000000               0.000000000               0.000000000              -0.007116202               0.001658407               0.000438585              -0.002875873               0.001511416              -0.001364457               0.000000000               0.000000000               0.000000000               0.000000000              -0.005779943               0.003364747               0.002022591              -0.002588067               0.001984258              -0.000603810               0.000000000               0.000000000               0.000000000               0.000000000              -0.004788828               0.004466300               0.002366915              -0.002354093               0.002273448              -0.000080645               0.000000000               0.000000000               0.000000000               0.000000000              -0.003968426               0.005161602               0.002309312              -0.002133355               0.002431634               0.000298279               0.000000000               0.000000000               0.000000000               0.000000000              -0.003247279               0.005594117               0.002141215              -0.001916990               0.002503683               0.000586693               0.000000000               0.000000000               0.000000000               0.000000000              -0.002588581               0.005852780               0.001957795              -0.001702312               0.002518344               0.000816032               0.000000000               0.000000000               0.000000000               0.000000000              -0.001973416               0.005990478               0.001782626              -0.001488838               0.002493085               0.001004247               0.000000000               0.000000000               0.000000000               0.000000000              -0.001390560               0.006032973               0.001620197              -0.001275579               0.002436164               0.001160584               0.000000000               0.000000000               0.000000000               0.000000000              -0.000832528               0.006003717               0.001464566              -0.001062660               0.002355439               0.001292778               0.000000000               0.000000000               0.000000000               0.000000000              -0.000299593               0.005928327               0.001309011              -0.000853387               0.002260551               0.001407165               0.000000000               0.000000000               0.000000000               0.000000000               0.000199870               0.005816717               0.001147111              -0.000652137               0.002156265               0.001504128               0.000000000               0.000000000               0.000000000               0.000000000               0.000651080               0.005685232               0.000969168              -0.000466498               0.002050558               0.001584059               0.000000000               0.000000000               0.000000000               0.000000000               0.001026821               0.005534178               0.000770781              -0.000306714               0.001946945               0.001640231               0.000000000               0.000000000               0.000000000               0.000000000               0.001300434               0.005361373               0.000549440              -0.000182509               0.001847943               0.001665434               0.000000000               0.000000000               0.000000000               0.000000000               0.001453854               0.005179172               0.000293035              -0.000102201               0.001760441               0.001658239               0.000000000               0.000000000               0.000000000               0.000000000               0.001496574               0.005085468               0.000154414              -0.000074468               0.001719962               0.001645494               0.000000000               0.000000000               0.000000000               0.000000000              -0.011398615              -0.000832401              -0.001547910              -0.004170428               0.001112667              -0.003057760               0.000000000               0.000000000               0.000000000               0.000000000              -0.008287181               0.000625775               0.000187046              -0.003185912               0.001270553              -0.001915358               0.000000000               0.000000000               0.000000000               0.000000000              -0.006059354               0.001884580               0.001753395              -0.002507827               0.001464125              -0.001043702               0.000000000               0.000000000               0.000000000               0.000000000              -0.004710452               0.002974126               0.002184559              -0.002138181               0.001704090              -0.000434091               0.000000000               0.000000000               0.000000000               0.000000000              -0.003742849               0.003816540               0.002205320              -0.001880632               0.001899043               0.000018411               0.000000000               0.000000000               0.000000000               0.000000000              -0.002965472               0.004436830               0.002094147              -0.001666652               0.002034478               0.000367826               0.000000000               0.000000000               0.000000000               0.000000000              -0.002296761               0.004882664               0.001947421              -0.001471616               0.002118076               0.000646461               0.000000000               0.000000000               0.000000000               0.000000000              -0.001685867               0.005202816               0.001794765              -0.001282550               0.002161771               0.000879221               0.000000000               0.000000000               0.000000000               0.000000000              -0.001113631               0.005414922               0.001646346              -0.001094475               0.002169780               0.001075305               0.000000000               0.000000000               0.000000000               0.000000000              -0.000559355               0.005543559               0.001501485              -0.000902702               0.002148735               0.001246033               0.000000000               0.000000000               0.000000000               0.000000000              -0.000017017               0.005604156               0.001358244              -0.000706900               0.002103666               0.001396767               0.000000000               0.000000000               0.000000000               0.000000000               0.000516786               0.005605578               0.001210789              -0.000506902               0.002037474               0.001530572               0.000000000               0.000000000               0.000000000               0.000000000               0.001036113               0.005556403               0.001046326              -0.000306008               0.001954118               0.001648110               0.000000000               0.000000000               0.000000000               0.000000000               0.001529030               0.005465953               0.000855597              -0.000109858               0.001858586               0.001748727               0.000000000               0.000000000               0.000000000               0.000000000               0.001972661               0.005340222               0.000628662               0.000072219               0.001755983               0.001828202               0.000000000               0.000000000               0.000000000               0.000000000               0.002341523               0.005181295               0.000346384               0.000230407               0.001650279               0.001880686               0.000000000               0.000000000               0.000000000               0.000000000               0.002557372               0.005115952               0.000199318               0.000319517               0.001598794               0.001918312               0.000000000               0.000000000               0.000000000               0.000000000              -0.013214445              -0.001136180              -0.001324079              -0.004813391               0.001225728              -0.003587663               0.000000000               0.000000000               0.000000000               0.000000000              -0.009294131              -0.000116202               0.000030095              -0.003470771               0.001118182              -0.002352589               0.000000000               0.000000000               0.000000000               0.000000000              -0.006297189               0.000688170               0.001285665              -0.002447465               0.001045204              -0.001402260               0.000000000               0.000000000               0.000000000               0.000000000              -0.004608880               0.001690482               0.001683745              -0.001939638               0.001210031              -0.000729607               0.000000000               0.000000000               0.000000000               0.000000000              -0.003488762               0.002595112               0.001748583              -0.001632672               0.001409251              -0.000223421               0.000000000               0.000000000               0.000000000               0.000000000              -0.002649483               0.003337986               0.001691293              -0.001410801               0.001582917               0.000172116               0.000000000               0.000000000               0.000000000               0.000000000              -0.001959437               0.003924223               0.001595299              -0.001225314               0.001716499               0.000491184               0.000000000               0.000000000               0.000000000               0.000000000              -0.001348906               0.004385554               0.001484874              -0.001054032               0.001813180               0.000759148               0.000000000               0.000000000               0.000000000               0.000000000              -0.000781124               0.004739702               0.001372700              -0.000885383               0.001875012               0.000989629               0.000000000               0.000000000               0.000000000               0.000000000              -0.000229667               0.005003356               0.001260167              -0.000711543               0.001904950               0.001193406               0.000000000               0.000000000               0.000000000               0.000000000               0.000321103               0.005191546               0.001146171              -0.000528529               0.001906674               0.001378145               0.000000000               0.000000000               0.000000000               0.000000000               0.000877863               0.005305292               0.001032440              -0.000333963               0.001879734               0.001545771               0.000000000               0.000000000               0.000000000               0.000000000               0.001452075               0.005346417               0.000905968              -0.000123774               0.001823379               0.001699605               0.000000000               0.000000000               0.000000000               0.000000000               0.002046781               0.005334914               0.000752952               0.000100677               0.001744728               0.001845405               0.000000000               0.000000000               0.000000000               0.000000000               0.002654675               0.005274900               0.000561587               0.000336137               0.001646237               0.001982374               0.000000000               0.000000000               0.000000000               0.000000000               0.003265029               0.005156523               0.000314181               0.000579815               0.001525552               0.002105367               0.000000000               0.000000000               0.000000000               0.000000000               0.003695923               0.005131018               0.000190860               0.000744586               0.001462127               0.002206713               0.000000000               0.000000000               0.000000000               0.000000000              -0.014423007              -0.001247876              -0.000760596              -0.005252640               0.001334912              -0.003917727               0.000000000               0.000000000               0.000000000               0.000000000              -0.009984597              -0.000552067              -0.000019966              -0.003675213               0.001041042              -0.002634171               0.000000000               0.000000000               0.000000000               0.000000000              -0.006467746              -0.000085486               0.000678488              -0.002414717               0.000776405              -0.001638312               0.000000000               0.000000000               0.000000000               0.000000000              -0.004528742               0.000819437               0.000917975              -0.001800706               0.000873375              -0.000927331               0.000000000               0.000000000               0.000000000               0.000000000              -0.003290031               0.001733798               0.000970588              -0.001450484               0.001061420              -0.000389064               0.000000000               0.000000000               0.000000000               0.000000000              -0.002396604               0.002540681               0.000950843              -0.001216309               0.001252321               0.000036012               0.000000000               0.000000000               0.000000000               0.000000000              -0.001685286               0.003214934               0.000906194              -0.001033847               0.001416249               0.000382402               0.000000000               0.000000000               0.000000000               0.000000000              -0.001073031               0.003762792               0.000850288              -0.000872734               0.001545162               0.000672429               0.000000000               0.000000000               0.000000000               0.000000000              -0.000505831               0.004202656               0.000790919              -0.000715017               0.001639210               0.000924193               0.000000000               0.000000000               0.000000000               0.000000000               0.000045334               0.004551474               0.000728601              -0.000551933               0.001701120               0.001149187               0.000000000               0.000000000               0.000000000               0.000000000               0.000607055               0.004824049               0.000662430              -0.000375360               0.001733120               0.001357760               0.000000000               0.000000000               0.000000000               0.000000000               0.001188533               0.005021378               0.000598131              -0.000181972               0.001734433               0.001552461               0.000000000               0.000000000               0.000000000               0.000000000               0.001799094               0.005138209               0.000530399               0.000032383               0.001701925               0.001734308               0.000000000               0.000000000               0.000000000               0.000000000               0.002455824               0.005188148               0.000445103               0.000272413               0.001638561               0.001910974               0.000000000               0.000000000               0.000000000               0.000000000               0.003174694               0.005177315               0.000331780               0.000543340               0.001544641               0.002087981               0.000000000               0.000000000               0.000000000               0.000000000               0.003970542               0.005105743               0.000184302               0.000850727               0.001418322               0.002269049               0.000000000               0.000000000               0.000000000               0.000000000               0.004573152               0.005121969               0.000114470               0.001074675               0.001349081               0.002423756               0.000000000               0.000000000               0.000000000               0.000000000              -0.014848162              -0.001271032              -0.000000000              -0.005409178               0.001379373              -0.004029805               0.000000000               0.000000000               0.000000000               0.000000000              -0.010232757              -0.000694702              -0.000000000              -0.003750444               0.001018574              -0.002731870               0.000000000               0.000000000               0.000000000               0.000000000              -0.006532673              -0.000354660              -0.000000000              -0.002405418               0.000683581              -0.001721837               0.000000000               0.000000000               0.000000000               0.000000000              -0.004500099               0.000510185               0.000000000              -0.001751308               0.000753826              -0.000997482               0.000000000               0.000000000               0.000000000               0.000000000              -0.003216903               0.001423488              -0.000000000              -0.001384272               0.000935914              -0.000448359               0.000000000               0.000000000               0.000000000               0.000000000              -0.002297019               0.002248104               0.000000000              -0.001142393               0.001130158              -0.000012235               0.000000000               0.000000000               0.000000000               0.000000000              -0.001577383               0.002951185              -0.000000000              -0.000960415               0.001303857               0.000343442               0.000000000               0.000000000               0.000000000               0.000000000              -0.000962997               0.003530774               0.000000000              -0.000802469               0.001444403               0.000641934               0.000000000               0.000000000               0.000000000               0.000000000              -0.000397181               0.003997595               0.000000000              -0.000648641               0.001548732               0.000900091               0.000000000               0.000000000               0.000000000               0.000000000               0.000155008               0.004373103              -0.000000000              -0.000488509               0.001620523               0.001132014               0.000000000               0.000000000               0.000000000               0.000000000               0.000720497               0.004667814              -0.000000000              -0.000313290               0.001660352               0.001347063               0.000000000               0.000000000               0.000000000               0.000000000               0.001314960               0.004894360              -0.000000000              -0.000118685               0.001670999               0.001552314               0.000000000               0.000000000               0.000000000               0.000000000               0.001941516               0.005054450               0.000000000               0.000096261               0.001652713               0.001748974               0.000000000               0.000000000               0.000000000               0.000000000               0.002616367               0.005131473               0.000000000               0.000339700               0.001597241               0.001936941               0.000000000               0.000000000               0.000000000               0.000000000               0.003368170               0.005128466               0.000000000               0.000621999               0.001502139               0.002124138               0.000000000               0.000000000               0.000000000               0.000000000               0.004232563               0.005075849               0.000000000               0.000952720               0.001374359               0.002327080               0.000000000               0.000000000               0.000000000               0.000000000               0.004899709               0.005112137              -0.000000000               0.001198362               0.001304575               0.002502937               0.000000000               0.000000000               0.000000000               0.000000000               0.002191988               0.023498724               0.000000000              -0.002115340               0.008537943               0.006422603               0.000000000               0.000000000               0.000000000               0.000000000               0.002063802               0.017980290               0.000000000              -0.001473607               0.006484572               0.005010965               0.000000000               0.000000000               0.000000000               0.000000000               0.002617394               0.013511166               0.000000000              -0.000707371               0.004739467               0.004032096               0.000000000               0.000000000               0.000000000               0.000000000               0.002383527               0.010989679               0.000000000              -0.000479886               0.003823152               0.003343266               0.000000000               0.000000000               0.000000000               0.000000000               0.001951648               0.009379962               0.000000000              -0.000440626               0.003273498               0.002832872               0.000000000               0.000000000               0.000000000               0.000000000               0.001514746               0.008228267               0.000000000              -0.000460503               0.002896229               0.002435727               0.000000000               0.000000000               0.000000000               0.000000000               0.001143867               0.007332285               0.000000000              -0.000487584               0.002606599               0.002119014               0.000000000               0.000000000               0.000000000               0.000000000               0.000837872               0.006583546               0.000000000              -0.000508740               0.002364074               0.001855334               0.000000000               0.000000000               0.000000000               0.000000000               0.000586744               0.005920283              -0.000000000              -0.000520005               0.002146743               0.001626738               0.000000000               0.000000000               0.000000000               0.000000000               0.000386192               0.005302037              -0.000000000              -0.000517931               0.001939972               0.001422041               0.000000000               0.000000000               0.000000000               0.000000000               0.000228428               0.004692307              -0.000000000              -0.000500877               0.001731046               0.001230169               0.000000000               0.000000000               0.000000000               0.000000000               0.000107819               0.004065572              -0.000000000              -0.000467763               0.001511098               0.001043335               0.000000000               0.000000000               0.000000000               0.000000000               0.000025470               0.003409276              -0.000000000              -0.000416607               0.001275283               0.000858676               0.000000000               0.000000000               0.000000000               0.000000000              -0.000025907               0.002709608              -0.000000000              -0.000348415               0.001019332               0.000670917               0.000000000               0.000000000               0.000000000               0.000000000              -0.000053091               0.001945063               0.000000000              -0.000263042               0.000736028               0.000472987               0.000000000               0.000000000               0.000000000               0.000000000              -0.000040225               0.001093698               0.000000000              -0.000151796               0.000415161               0.000263365               0.000000000               0.000000000               0.000000000               0.000000000              -0.000090453               0.000445357              -0.000000000              -0.000089590               0.000178314               0.000088724               0.000000000               0.000000000               0.000000000               0.000000000               0.002250245               0.022983446              -0.001536111              -0.002029084               0.008337434               0.006308349               0.000000000               0.000000000               0.000000000               0.000000000               0.001992684               0.017656377              -0.000664562              -0.001459787               0.006371996               0.004912209               0.000000000               0.000000000               0.000000000               0.000000000               0.002409304               0.013384843               0.000191353              -0.000769615               0.004718108               0.003948493               0.000000000               0.000000000               0.000000000               0.000000000               0.002126759               0.010967547               0.000537227              -0.000573407               0.003846948               0.003273541               0.000000000               0.000000000               0.000000000               0.000000000               0.001686901               0.009412467               0.000663433              -0.000543969               0.003318780               0.002774811               0.000000000               0.000000000               0.000000000               0.000000000               0.001257493               0.008294014               0.000691748              -0.000565191               0.002953041               0.002387850               0.000000000               0.000000000               0.000000000               0.000000000               0.000901914               0.007415553               0.000679226              -0.000588725               0.002668068               0.002079343               0.000000000               0.000000000               0.000000000               0.000000000               0.000621280               0.006676050               0.000651295              -0.000601525               0.002425836               0.001824311               0.000000000               0.000000000               0.000000000               0.000000000               0.000397308               0.006014568               0.000619028              -0.000602829               0.002205779               0.001602950               0.000000000               0.000000000               0.000000000               0.000000000               0.000224840               0.005395691               0.000582117              -0.000590145               0.001995260               0.001405115               0.000000000               0.000000000               0.000000000               0.000000000               0.000098317               0.004789069               0.000538091              -0.000561764               0.001783595               0.001221831               0.000000000               0.000000000               0.000000000               0.000000000               0.000010281               0.004170500               0.000490645              -0.000517456               0.001562638               0.001045182               0.000000000               0.000000000               0.000000000               0.000000000              -0.000045590               0.003528515               0.000441510              -0.000458160               0.001328880               0.000870720               0.000000000               0.000000000               0.000000000               0.000000000              -0.000075555               0.002854612               0.000381260              -0.000385159               0.001079914               0.000694755               0.000000000               0.000000000               0.000000000               0.000000000              -0.000077958               0.002135471               0.000299308              -0.000296168               0.000810539               0.000514371               0.000000000               0.000000000               0.000000000               0.000000000              -0.000048230               0.001353377               0.000175661              -0.000187258               0.000513540               0.000326282               0.000000000               0.000000000               0.000000000               0.000000000              -0.000087593               0.000769235               0.000111296              -0.000129001               0.000299410               0.000170408               0.000000000               0.000000000               0.000000000               0.000000000               0.002379602               0.021511060              -0.002825978              -0.001796528               0.007769124               0.005972596               0.000000000               0.000000000               0.000000000               0.000000000               0.001764855               0.016739103              -0.001213648              -0.001430564               0.006056500               0.004625936               0.000000000               0.000000000               0.000000000               0.000000000               0.001809897               0.013032970               0.000353208              -0.000950408               0.004661082               0.003710675               0.000000000               0.000000000               0.000000000               0.000000000               0.001403577               0.010898014               0.000960404              -0.000835909               0.003911271               0.003075363               0.000000000               0.000000000               0.000000000               0.000000000               0.000948306               0.009489672               0.001168572              -0.000830593               0.003440056               0.002609464               0.000000000               0.000000000               0.000000000               0.000000000               0.000558045               0.008451811               0.001206265              -0.000847208               0.003099645               0.002252437               0.000000000               0.000000000               0.000000000               0.000000000               0.000263366               0.007619863               0.001176492              -0.000853719               0.002824502               0.001970783               0.000000000               0.000000000               0.000000000               0.000000000               0.000055791               0.006904424               0.001122126              -0.000842130               0.002582161               0.001740032               0.000000000               0.000000000               0.000000000               0.000000000              -0.000083761               0.006253292               0.001061885              -0.000813070               0.002355433               0.001542363               0.000000000               0.000000000               0.000000000               0.000000000              -0.000172199               0.005638746               0.000996990              -0.000769416               0.002136035               0.001366619               0.000000000               0.000000000               0.000000000               0.000000000              -0.000217310               0.005039461               0.000920346              -0.000711422               0.001916944               0.001205522               0.000000000               0.000000000               0.000000000               0.000000000              -0.000225495               0.004443862               0.000835749              -0.000640042               0.001694620               0.001054578               0.000000000               0.000000000               0.000000000               0.000000000              -0.000209475               0.003846309               0.000747149              -0.000559341               0.001468537               0.000909196               0.000000000               0.000000000               0.000000000               0.000000000              -0.000175152               0.003247309               0.000642371              -0.000471595               0.001239624               0.000768029               0.000000000               0.000000000               0.000000000               0.000000000              -0.000124995               0.002651803               0.000500746              -0.000378348               0.001010041               0.000631694               0.000000000               0.000000000               0.000000000               0.000000000              -0.000066850               0.002060165               0.000290971              -0.000282589               0.000780911               0.000498322               0.000000000               0.000000000               0.000000000               0.000000000              -0.000077227               0.001655583               0.000178152              -0.000235907               0.000630491               0.000394584               0.000000000               0.000000000               0.000000000               0.000000000               0.002462240               0.019282459              -0.003698093              -0.001486966               0.006923077               0.005436111               0.000000000               0.000000000               0.000000000               0.000000000               0.001355324               0.015371226              -0.001583495              -0.001413154               0.005594742               0.004181588               0.000000000               0.000000000               0.000000000               0.000000000               0.000886189               0.012511479               0.000440204              -0.001231611               0.004580988               0.003349377               0.000000000               0.000000000               0.000000000               0.000000000               0.000347117               0.010773312               0.001176248              -0.001216492               0.003996566               0.002780073               0.000000000               0.000000000               0.000000000               0.000000000              -0.000084114               0.009560658               0.001407428              -0.001226623               0.003595728               0.002369106               0.000000000               0.000000000               0.000000000               0.000000000              -0.000384341               0.008622900               0.001435236              -0.001221988               0.003281600               0.002059613               0.000000000               0.000000000               0.000000000               0.000000000              -0.000568346               0.007841545               0.001385778              -0.001193320               0.003011595               0.001818275               0.000000000               0.000000000               0.000000000               0.000000000              -0.000662128               0.007150797               0.001308962              -0.001142145               0.002764290               0.001622145               0.000000000               0.000000000               0.000000000               0.000000000              -0.000681935               0.006514671               0.001227523              -0.001070057               0.002528221               0.001458163               0.000000000               0.000000000               0.000000000               0.000000000              -0.000647599               0.005910879               0.001141711              -0.000981708               0.002297509               0.001315801               0.000000000               0.000000000               0.000000000               0.000000000              -0.000577142               0.005330411               0.001043206              -0.000882728               0.002071028               0.001188300               0.000000000               0.000000000               0.000000000               0.000000000              -0.000484366               0.004775711               0.000934701              -0.000778600               0.001851421               0.001072821               0.000000000               0.000000000               0.000000000               0.000000000              -0.000376656               0.004250177               0.000819173              -0.000672517               0.001640884               0.000968367               0.000000000               0.000000000               0.000000000               0.000000000              -0.000263959               0.003763742               0.000688652              -0.000569451               0.001444385               0.000874934               0.000000000               0.000000000               0.000000000               0.000000000              -0.000161211               0.003330305               0.000522718              -0.000476741               0.001269004               0.000792263               0.000000000               0.000000000               0.000000000               0.000000000              -0.000076608               0.002967518               0.000295984              -0.000399667               0.001122385               0.000722718               0.000000000               0.000000000               0.000000000               0.000000000              -0.000054104               0.002767258               0.000171978              -0.000366196               0.001044475               0.000678280               0.000000000               0.000000000               0.000000000               0.000000000               0.002353858               0.016573944              -0.004076891              -0.001189046               0.005920941               0.004731894               0.000000000               0.000000000               0.000000000               0.000000000               0.000751312               0.013742696              -0.001761746              -0.001436092               0.005059550               0.003623458               0.000000000               0.000000000               0.000000000               0.000000000              -0.000243785               0.011882771               0.000415576              -0.001576762               0.004486472               0.002909710               0.000000000               0.000000000               0.000000000               0.000000000              -0.000856715               0.010577315               0.001147451              -0.001643428               0.004073546               0.002430117               0.000000000               0.000000000               0.000000000               0.000000000              -0.001193831               0.009562536               0.001355260              -0.001643000               0.003735147               0.002092147               0.000000000               0.000000000               0.000000000               0.000000000              -0.001347234               0.008718747               0.001360505              -0.001595052               0.003437904               0.001842852               0.000000000               0.000000000               0.000000000               0.000000000              -0.001376505               0.007979605               0.001294581              -0.001513637               0.003164387               0.001650750               0.000000000               0.000000000               0.000000000               0.000000000              -0.001319534               0.007310669               0.001208705              -0.001408656               0.002906417               0.001497761               0.000000000               0.000000000               0.000000000               0.000000000              -0.001200101               0.006693159               0.001117756              -0.001286680               0.002659924               0.001373244               0.000000000               0.000000000               0.000000000               0.000000000              -0.001036409               0.006111444               0.001022646              -0.001152581               0.002421321               0.001268740               0.000000000               0.000000000               0.000000000               0.000000000              -0.000850922               0.005567852               0.000917741              -0.001015075               0.002194290               0.001179215               0.000000000               0.000000000               0.000000000               0.000000000              -0.000662632               0.005069866               0.000802146              -0.000882218               0.001984011               0.001101793               0.000000000               0.000000000               0.000000000               0.000000000              -0.000481297               0.004631219               0.000680020              -0.000759387               0.001796853               0.001037466               0.000000000               0.000000000               0.000000000               0.000000000              -0.000317074               0.004265080               0.000547843              -0.000652036               0.001639024               0.000986988               0.000000000               0.000000000               0.000000000               0.000000000              -0.000180340               0.003979265               0.000392769              -0.000565034               0.001514753               0.000949719               0.000000000               0.000000000               0.000000000               0.000000000              -0.000078697               0.003792117               0.000208805              -0.000503525               0.001431868               0.000928343               0.000000000               0.000000000               0.000000000               0.000000000              -0.000037286               0.003725209               0.000110567              -0.000479632               0.001401602               0.000921969               0.000000000               0.000000000               0.000000000               0.000000000               0.001932035               0.013674271              -0.003970223              -0.000984771               0.004886301               0.003901529               0.000000000               0.000000000               0.000000000               0.000000000              -0.000043257               0.012034281              -0.001775727              -0.001520504               0.004518221               0.002997717               0.000000000               0.000000000               0.000000000               0.000000000              -0.001447000               0.011198830               0.000257194              -0.001942474               0.004380397               0.002437923               0.000000000               0.000000000               0.000000000               0.000000000              -0.002018485               0.010296212               0.000886581              -0.002043953               0.004113354               0.002069401               0.000000000               0.000000000               0.000000000               0.000000000              -0.002186250               0.009454535               0.001047022              -0.002001656               0.003818699               0.001817043               0.000000000               0.000000000               0.000000000               0.000000000              -0.002148805               0.008684900               0.001038526              -0.001891410               0.003525408               0.001633998               0.000000000               0.000000000               0.000000000               0.000000000              -0.001994866               0.007982141               0.000975229              -0.001745838               0.003242633               0.001496795               0.000000000               0.000000000               0.000000000               0.000000000              -0.001772628               0.007337254               0.000899695              -0.001581889               0.002973023               0.001391135               0.000000000               0.000000000               0.000000000               0.000000000              -0.001511710               0.006745270               0.000818713              -0.001410046               0.002718416               0.001308370               0.000000000               0.000000000               0.000000000               0.000000000              -0.001230940               0.006199510               0.000731469              -0.001236538               0.002478662               0.001242124               0.000000000               0.000000000               0.000000000               0.000000000              -0.000956166               0.005703190               0.000634821              -0.001071459               0.002258197               0.001186739               0.000000000               0.000000000               0.000000000               0.000000000              -0.000707212               0.005269746               0.000531459              -0.000923921               0.002064538               0.001140617               0.000000000               0.000000000               0.000000000               0.000000000              -0.000488502               0.004919957               0.000428728              -0.000798181               0.001906030               0.001107849               0.000000000               0.000000000               0.000000000               0.000000000              -0.000307903               0.004655460               0.000324108              -0.000697395               0.001784269               0.001086875               0.000000000               0.000000000               0.000000000               0.000000000              -0.000164554               0.004478441               0.000213807              -0.000621511               0.001699969               0.001078458               0.000000000               0.000000000               0.000000000               0.000000000              -0.000061571               0.004392301               0.000104021              -0.000572126               0.001654794               0.001082669               0.000000000               0.000000000               0.000000000               0.000000000              -0.000019888               0.004377965               0.000049619              -0.000554702               0.001644208               0.001089506               0.000000000               0.000000000               0.000000000               0.000000000               0.001128931               0.010827399              -0.003468370              -0.000930076               0.003919121               0.002989045               0.000000000               0.000000000               0.000000000               0.000000000              -0.000984540               0.010376807              -0.001684743              -0.001666300               0.004014334               0.002348034               0.000000000               0.000000000               0.000000000               0.000000000              -0.002587551               0.010482483              -0.000039704              -0.002280637               0.004254338               0.001973702               0.000000000               0.000000000               0.000000000               0.000000000              -0.002990616               0.009915063               0.000440414              -0.002360858               0.004091941               0.001731083               0.000000000               0.000000000               0.000000000               0.000000000              -0.002928088               0.009214925               0.000566528              -0.002249893               0.003821575               0.001571682               0.000000000               0.000000000               0.000000000               0.000000000              -0.002678375               0.008512013               0.000571181              -0.002068387               0.003526772               0.001458384               0.000000000               0.000000000               0.000000000               0.000000000              -0.002344915               0.007847289               0.000535629              -0.001860249               0.003235820               0.001375570               0.000000000               0.000000000               0.000000000               0.000000000              -0.001968798               0.007237036               0.000490620              -0.001642925               0.002959963               0.001317038               0.000000000               0.000000000               0.000000000               0.000000000              -0.001582867               0.006677601               0.000437892              -0.001428272               0.002701935               0.001273664               0.000000000               0.000000000               0.000000000               0.000000000              -0.001217731               0.006166609               0.000374698              -0.001227472               0.002464673               0.001237201               0.000000000               0.000000000               0.000000000               0.000000000              -0.000894845               0.005721366               0.000304244              -0.001050735               0.002257348               0.001206613               0.000000000               0.000000000               0.000000000               0.000000000              -0.000621209               0.005363147               0.000237499              -0.000903344               0.002088813               0.001185468               0.000000000               0.000000000               0.000000000               0.000000000              -0.000397045               0.005098847               0.000179341              -0.000786246               0.001961681               0.001175435               0.000000000               0.000000000               0.000000000               0.000000000              -0.000225275               0.004918368               0.000124251              -0.000699273               0.001872531               0.001173258               0.000000000               0.000000000               0.000000000               0.000000000              -0.000104300               0.004810837               0.000072673              -0.000640465               0.001817085               0.001176619               0.000000000               0.000000000               0.000000000               0.000000000              -0.000032053               0.004762369               0.000030135              -0.000607315               0.001789879               0.001182564               0.000000000               0.000000000               0.000000000               0.000000000              -0.000010549               0.004751643               0.000012938              -0.000597910               0.001783168               0.001185258               0.000000000               0.000000000               0.000000000               0.000000000              -0.000009028               0.008211666              -0.002697095              -0.001029843               0.003080475               0.002050632               0.000000000               0.000000000               0.000000000               0.000000000              -0.002011057               0.008867308              -0.001548000              -0.001862556               0.003576592               0.001714035               0.000000000               0.000000000               0.000000000               0.000000000              -0.003549567               0.009735525              -0.000457890              -0.002548022               0.004094483               0.001546461               0.000000000               0.000000000               0.000000000               0.000000000              -0.003678728               0.009428153              -0.000110812              -0.002558036               0.003995365               0.001437329               0.000000000               0.000000000               0.000000000               0.000000000              -0.003366770               0.008848760               0.000021787              -0.002368628               0.003739100               0.001370472               0.000000000               0.000000000               0.000000000               0.000000000              -0.002915766               0.008217191               0.000067088              -0.002120556               0.003445888               0.001325333               0.000000000               0.000000000               0.000000000               0.000000000              -0.002423290               0.007605836               0.000077352              -0.001859459               0.003155073               0.001295614               0.000000000               0.000000000               0.000000000               0.000000000              -0.001921946               0.007037939               0.000075400              -0.001600468               0.002879446               0.001278977               0.000000000               0.000000000               0.000000000               0.000000000              -0.001451069               0.006510889               0.000061678              -0.001358009               0.002622944               0.001264936               0.000000000               0.000000000               0.000000000               0.000000000              -0.001038377               0.006045659               0.000039180              -0.001145096               0.002396898               0.001251802               0.000000000               0.000000000               0.000000000               0.000000000              -0.000693641               0.005669681               0.000020036              -0.000968823               0.002212816               0.001243993               0.000000000               0.000000000               0.000000000               0.000000000              -0.000422440               0.005391272               0.000009644              -0.000832322               0.002074513               0.001242191               0.000000000               0.000000000               0.000000000               0.000000000              -0.000228632               0.005194924               0.000006786              -0.000735101               0.001976658               0.001241557               0.000000000               0.000000000               0.000000000               0.000000000              -0.000101743               0.005065101               0.000003226              -0.000671289               0.001912113               0.001240824               0.000000000               0.000000000               0.000000000               0.000000000              -0.000027032               0.004986373              -0.000000575              -0.000633432               0.001873252               0.001239820               0.000000000               0.000000000               0.000000000               0.000000000               0.000001886               0.004944246              -0.000000489              -0.000617322               0.001853839               0.001236517               0.000000000               0.000000000               0.000000000               0.000000000               0.000000387               0.004927687               0.000002646              -0.000615814               0.001847817               0.001232003               0.000000000               0.000000000               0.000000000               0.000000000              -0.001331868               0.006023123              -0.001778855              -0.001252339               0.002425133               0.001172795               0.000000000               0.000000000               0.000000000               0.000000000              -0.003011491               0.007524861              -0.001404965              -0.002069912               0.003198232               0.001128320               0.000000000               0.000000000               0.000000000               0.000000000              -0.004301763               0.008980377              -0.000953648              -0.002735702               0.003905330               0.001169628               0.000000000               0.000000000               0.000000000               0.000000000              -0.004144475               0.008939750              -0.000686917              -0.002671640               0.003870434               0.001198793               0.000000000               0.000000000               0.000000000               0.000000000              -0.003629700               0.008504590              -0.000518176              -0.002424205               0.003642903               0.001218698               0.000000000               0.000000000               0.000000000               0.000000000              -0.003023416               0.007969483              -0.000414875              -0.002129961               0.003366455               0.001236494               0.000000000               0.000000000               0.000000000               0.000000000              -0.002408198               0.007431630              -0.000352108              -0.001832023               0.003087860               0.001255836               0.000000000               0.000000000               0.000000000               0.000000000              -0.001816781               0.006912220              -0.000307867              -0.001545317               0.002819156               0.001273839               0.000000000               0.000000000               0.000000000               0.000000000              -0.001285767               0.006424285              -0.000273269              -0.001285195               0.002569805               0.001284610               0.000000000               0.000000000               0.000000000               0.000000000              -0.000832395               0.006007665              -0.000240901              -0.001063104               0.002356903               0.001293799               0.000000000               0.000000000               0.000000000               0.000000000              -0.000469774               0.005684750              -0.000200604              -0.000886757               0.002190483               0.001303727               0.000000000               0.000000000               0.000000000               0.000000000              -0.000209262               0.005448027              -0.000155744              -0.000759475               0.002069149               0.001309674               0.000000000               0.000000000               0.000000000               0.000000000              -0.000049871               0.005277368              -0.000111066              -0.000678371               0.001985229               0.001306858               0.000000000               0.000000000               0.000000000               0.000000000               0.000025384               0.005151747              -0.000071123              -0.000634448               0.001928714               0.001294267               0.000000000               0.000000000               0.000000000               0.000000000               0.000043415               0.005065191              -0.000037984              -0.000616867               0.001894002               0.001277136               0.000000000               0.000000000               0.000000000               0.000000000               0.000028450               0.005014301              -0.000012788              -0.000616117               0.001876789               0.001260672               0.000000000               0.000000000               0.000000000               0.000000000               0.000008988               0.004990773              -0.000000109              -0.000620474               0.001870399               0.001249925               0.000000000               0.000000000               0.000000000               0.000000000              -0.002848103               0.004018231              -0.000825129              -0.001570314               0.001862835               0.000292520               0.000000000               0.000000000               0.000000000               0.000000000              -0.003855259               0.005972245              -0.001247908              -0.002192248               0.002721477               0.000529230               0.000000000               0.000000000               0.000000000               0.000000000              -0.004764069               0.007846660              -0.001464871              -0.002767352               0.003537978               0.000770626               0.000000000               0.000000000               0.000000000               0.000000000              -0.004451439               0.008200311              -0.001287319              -0.002694322               0.003631517               0.000937195               0.000000000               0.000000000               0.000000000               0.000000000              -0.003854784               0.008045891              -0.001084929              -0.002451274               0.003499028               0.001047754               0.000000000               0.000000000               0.000000000               0.000000000              -0.003198344               0.007726836              -0.000919896              -0.002165228               0.003297329               0.001132101               0.000000000               0.000000000               0.000000000               0.000000000              -0.002548695               0.007351193              -0.000799777              -0.001874655               0.003075258               0.001200603               0.000000000               0.000000000               0.000000000               0.000000000              -0.001928631               0.006950343              -0.000704791              -0.001592026               0.002847433               0.001255407               0.000000000               0.000000000               0.000000000               0.000000000              -0.001365782               0.006547311              -0.000621892              -0.001330579               0.002625941               0.001295363               0.000000000               0.000000000               0.000000000               0.000000000              -0.000878470               0.006176935              -0.000541013              -0.001101541               0.002426138               0.001324597               0.000000000               0.000000000               0.000000000               0.000000000              -0.000476097               0.005867986              -0.000451093              -0.000912032               0.002259986               0.001347954               0.000000000               0.000000000               0.000000000               0.000000000              -0.000175376               0.005623060              -0.000354615              -0.000768647               0.002130550               0.001361904               0.000000000               0.000000000               0.000000000               0.000000000               0.000017281               0.005433030              -0.000257996              -0.000672647               0.002035207               0.001362561               0.000000000               0.000000000               0.000000000               0.000000000               0.000109963               0.005276569              -0.000169917              -0.000618333               0.001964950               0.001346617               0.000000000               0.000000000               0.000000000               0.000000000               0.000125791               0.005150927              -0.000096013              -0.000596693               0.001915856               0.001319163               0.000000000               0.000000000               0.000000000               0.000000000               0.000089372               0.005060455              -0.000038446              -0.000599041               0.001886482               0.001287441               0.000000000               0.000000000               0.000000000               0.000000000               0.000047468               0.005012339              -0.000008652              -0.000608740               0.001873676               0.001264936               0.000000000               0.000000000               0.000000000               0.000000000              -0.004762588               0.002225397               0.000085514              -0.002064142               0.001429837              -0.000634305               0.000000000               0.000000000               0.000000000               0.000000000              -0.004811387               0.004410267              -0.001026245              -0.002355548               0.002255256              -0.000100292               0.000000000               0.000000000               0.000000000               0.000000000              -0.005150147               0.006495944              -0.001868104              -0.002743292               0.003079723               0.000336431               0.000000000               0.000000000               0.000000000               0.000000000              -0.004699204               0.007223439              -0.001851258              -0.002665125               0.003296163               0.000631038               0.000000000               0.000000000               0.000000000               0.000000000              -0.004054479               0.007395677              -0.001653285              -0.002444883               0.003280162               0.000835278               0.000000000               0.000000000               0.000000000               0.000000000              -0.003383140               0.007332949              -0.001446165              -0.002185291               0.003172722               0.000987431               0.000000000               0.000000000               0.000000000               0.000000000              -0.002729055               0.007155344              -0.001274591              -0.001917809               0.003024361               0.001106551               0.000000000               0.000000000               0.000000000               0.000000000              -0.002102565               0.006907680              -0.001133882              -0.001651918               0.002853176               0.001201258               0.000000000               0.000000000               0.000000000               0.000000000              -0.001511777               0.006623325              -0.001009390              -0.001394829               0.002672696               0.001277867               0.000000000               0.000000000               0.000000000               0.000000000              -0.000980656               0.006328011              -0.000891642              -0.001158745               0.002495564               0.001336819               0.000000000               0.000000000               0.000000000               0.000000000              -0.000519689               0.006053921              -0.000766716              -0.000951621               0.002335160               0.001383539               0.000000000               0.000000000               0.000000000               0.000000000              -0.000145093               0.005815126              -0.000629955              -0.000781299               0.002198789               0.001417490               0.000000000               0.000000000               0.000000000               0.000000000               0.000127173               0.005612070              -0.000488596              -0.000653817               0.002088611               0.001434793               0.000000000               0.000000000               0.000000000               0.000000000               0.000290280               0.005429004              -0.000352581              -0.000569769               0.001999573               0.001429804               0.000000000               0.000000000               0.000000000               0.000000000               0.000348199               0.005261081              -0.000223224              -0.000527059               0.001929362               0.001402303               0.000000000               0.000000000               0.000000000               0.000000000               0.000312584               0.005119269              -0.000103236              -0.000522688               0.001880635               0.001357947               0.000000000               0.000000000               0.000000000               0.000000000               0.000248676               0.005038751              -0.000038440              -0.000536589               0.001858430               0.001321841               0.000000000               0.000000000               0.000000000               0.000000000              -0.006939995               0.000787895               0.000860515              -0.002700982               0.001162951              -0.001538031               0.000000000               0.000000000               0.000000000               0.000000000              -0.005921932               0.002944714              -0.000738710              -0.002588809               0.001844495              -0.000744314               0.000000000               0.000000000               0.000000000               0.000000000              -0.005477817               0.004956460              -0.002061157              -0.002673733               0.002543380              -0.000130353               0.000000000               0.000000000               0.000000000               0.000000000              -0.004802246               0.005941559              -0.002239598              -0.002543531               0.002828343               0.000284812               0.000000000               0.000000000               0.000000000               0.000000000              -0.004090537               0.006409674              -0.002098155              -0.002335155               0.002914921               0.000579766               0.000000000               0.000000000               0.000000000               0.000000000              -0.003402162               0.006606749              -0.001891193              -0.002101650               0.002902777               0.000801127               0.000000000               0.000000000               0.000000000               0.000000000              -0.002746110               0.006649125              -0.001696800              -0.001860928               0.002836662               0.000975734               0.000000000               0.000000000               0.000000000               0.000000000              -0.002125255               0.006587278              -0.001525993              -0.001620377               0.002735863               0.001115486               0.000000000               0.000000000               0.000000000               0.000000000              -0.001532928               0.006455082              -0.001373085              -0.001381730               0.002612249               0.001230519               0.000000000               0.000000000               0.000000000               0.000000000              -0.000976499               0.006278952              -0.001228105              -0.001151054               0.002476647               0.001325594               0.000000000               0.000000000               0.000000000               0.000000000              -0.000469746               0.006085936              -0.001080403              -0.000936895               0.002340923               0.001404028               0.000000000               0.000000000               0.000000000               0.000000000              -0.000024948               0.005891070              -0.000921686              -0.000745738               0.002212249               0.001466512               0.000000000               0.000000000               0.000000000               0.000000000               0.000339725               0.005705209              -0.000752523              -0.000585753               0.002096968               0.001511215               0.000000000               0.000000000               0.000000000               0.000000000               0.000598409               0.005520321              -0.000576633              -0.000465636               0.001995301               0.001529665               0.000000000               0.000000000               0.000000000               0.000000000               0.000739063               0.005337526              -0.000391764              -0.000390041               0.001909171               0.001519130               0.000000000               0.000000000               0.000000000               0.000000000               0.000760027               0.005165093              -0.000198028              -0.000360625               0.001841889               0.001481263               0.000000000               0.000000000               0.000000000               0.000000000               0.000714814               0.005066061              -0.000092360              -0.000365201               0.001810404               0.001445203               0.000000000               0.000000000               0.000000000               0.000000000              -0.009222328              -0.000221767               0.001382107              -0.003430649               0.001069620              -0.002361030               0.000000000               0.000000000               0.000000000               0.000000000              -0.007116202               0.001658407              -0.000438585              -0.002875873               0.001511416              -0.001364457               0.000000000               0.000000000               0.000000000               0.000000000              -0.005779943               0.003364747              -0.002022591              -0.002588067               0.001984258              -0.000603810               0.000000000               0.000000000               0.000000000               0.000000000              -0.004788828               0.004466300              -0.002366915              -0.002354093               0.002273448              -0.000080645               0.000000000               0.000000000               0.000000000               0.000000000              -0.003968426               0.005161602              -0.002309312              -0.002133355               0.002431634               0.000298279               0.000000000               0.000000000               0.000000000               0.000000000              -0.003247279               0.005594117              -0.002141215              -0.001916990               0.002503683               0.000586693               0.000000000               0.000000000               0.000000000               0.000000000              -0.002588581               0.005852780              -0.001957795              -0.001702312               0.002518344               0.000816032               0.000000000               0.000000000               0.000000000               0.000000000              -0.001973416               0.005990478              -0.001782626              -0.001488838               0.002493085               0.001004247               0.000000000               0.000000000               0.000000000               0.000000000              -0.001390560               0.006032973              -0.001620197              -0.001275579               0.002436164               0.001160584               0.000000000               0.000000000               0.000000000               0.000000000              -0.000832528               0.006003717              -0.001464566              -0.001062660               0.002355439               0.001292778               0.000000000               0.000000000               0.000000000               0.000000000              -0.000299593               0.005928327              -0.001309011              -0.000853387               0.002260551               0.001407165               0.000000000               0.000000000               0.000000000               0.000000000               0.000199870               0.005816717              -0.001147111              -0.000652137               0.002156265               0.001504128               0.000000000               0.000000000               0.000000000               0.000000000               0.000651080               0.005685232              -0.000969168              -0.000466498               0.002050558               0.001584059               0.000000000               0.000000000               0.000000000               0.000000000               0.001026821               0.005534178              -0.000770781              -0.000306714               0.001946945               0.001640231               0.000000000               0.000000000               0.000000000               0.000000000               0.001300434               0.005361373              -0.000549440              -0.000182509               0.001847943               0.001665434               0.000000000               0.000000000               0.000000000               0.000000000               0.001453854               0.005179172              -0.000293035              -0.000102201               0.001760441               0.001658239               0.000000000               0.000000000               0.000000000               0.000000000               0.001496574               0.005085468              -0.000154414              -0.000074468               0.001719962               0.001645494               0.000000000               0.000000000               0.000000000               0.000000000              -0.011398615              -0.000832401               0.001547910              -0.004170428               0.001112667              -0.003057760               0.000000000               0.000000000               0.000000000               0.000000000              -0.008287181               0.000625775              -0.000187046              -0.003185912               0.001270553              -0.001915358               0.000000000               0.000000000               0.000000000               0.000000000              -0.006059354               0.001884580              -0.001753395              -0.002507827               0.001464125              -0.001043702               0.000000000               0.000000000               0.000000000               0.000000000              -0.004710452               0.002974126              -0.002184559              -0.002138181               0.001704090              -0.000434091               0.000000000               0.000000000               0.000000000               0.000000000              -0.003742849               0.003816540              -0.002205320              -0.001880632               0.001899043               0.000018411               0.000000000               0.000000000               0.000000000               0.000000000              -0.002965472               0.004436830              -0.002094147              -0.001666652               0.002034478               0.000367826               0.000000000               0.000000000               0.000000000               0.000000000              -0.002296761               0.004882664              -0.001947421              -0.001471616               0.002118076               0.000646461               0.000000000               0.000000000               0.000000000               0.000000000              -0.001685867               0.005202816              -0.001794765              -0.001282550               0.002161771               0.000879221               0.000000000               0.000000000               0.000000000               0.000000000              -0.001113631               0.005414922              -0.001646346              -0.001094475               0.002169780               0.001075305               0.000000000               0.000000000               0.000000000               0.000000000              -0.000559355               0.005543559              -0.001501485              -0.000902702               0.002148735               0.001246033               0.000000000               0.000000000               0.000000000               0.000000000              -0.000017017               0.005604156              -0.001358244              -0.000706900               0.002103666               0.001396767               0.000000000               0.000000000               0.000000000               0.000000000               0.000516786               0.005605578              -0.001210789              -0.000506902               0.002037474               0.001530572               0.000000000               0.000000000               0.000000000               0.000000000               0.001036113               0.005556403              -0.001046326              -0.000306008               0.001954118               0.001648110               0.000000000               0.000000000               0.000000000               0.000000000               0.001529030               0.005465953              -0.000855597              -0.000109858               0.001858586               0.001748727               0.000000000               0.000000000               0.000000000               0.000000000               0.001972661               0.005340222              -0.000628662               0.000072219               0.001755983               0.001828202               0.000000000               0.000000000               0.000000000               0.000000000               0.002341523               0.005181295              -0.000346384               0.000230407               0.001650279               0.001880686               0.000000000               0.000000000               0.000000000               0.000000000               0.002557372               0.005115952              -0.000199318               0.000319517               0.001598794               0.001918312               0.000000000               0.000000000               0.000000000               0.000000000              -0.013214445              -0.001136180               0.001324079              -0.004813391               0.001225728              -0.003587663               0.000000000               0.000000000               0.000000000               0.000000000              -0.009294131              -0.000116202              -0.000030095              -0.003470771               0.001118182              -0.002352589               0.000000000               0.000000000               0.000000000               0.000000000              -0.006297189               0.000688170              -0.001285665              -0.002447465               0.001045204              -0.001402260               0.000000000               0.000000000               0.000000000               0.000000000              -0.004608880               0.001690482              -0.001683745              -0.001939638               0.001210031              -0.000729607               0.000000000               0.000000000               0.000000000               0.000000000              -0.003488762               0.002595112              -0.001748583              -0.001632672               0.001409251              -0.000223421               0.000000000               0.000000000               0.000000000               0.000000000              -0.002649483               0.003337986              -0.001691293              -0.001410801               0.001582917               0.000172116               0.000000000               0.000000000               0.000000000               0.000000000              -0.001959437               0.003924223              -0.001595299              -0.001225314               0.001716499               0.000491184               0.000000000               0.000000000               0.000000000               0.000000000              -0.001348906               0.004385554              -0.001484874              -0.001054032               0.001813180               0.000759148               0.000000000               0.000000000               0.000000000               0.000000000              -0.000781124               0.004739702              -0.001372700              -0.000885383               0.001875012               0.000989629               0.000000000               0.000000000               0.000000000               0.000000000              -0.000229667               0.005003356              -0.001260167              -0.000711543               0.001904950               0.001193406               0.000000000               0.000000000               0.000000000               0.000000000               0.000321103               0.005191546              -0.001146171              -0.000528529               0.001906674               0.001378145               0.000000000               0.000000000               0.000000000               0.000000000               0.000877863               0.005305292              -0.001032440              -0.000333963               0.001879734               0.001545771               0.000000000               0.000000000               0.000000000               0.000000000               0.001452075               0.005346417              -0.000905968              -0.000123774               0.001823379               0.001699605               0.000000000               0.000000000               0.000000000               0.000000000               0.002046781               0.005334914              -0.000752952               0.000100677               0.001744728               0.001845405               0.000000000               0.000000000               0.000000000               0.000000000               0.002654675               0.005274900              -0.000561587               0.000336137               0.001646237               0.001982374               0.000000000               0.000000000               0.000000000               0.000000000               0.003265029               0.005156523              -0.000314181               0.000579815               0.001525552               0.002105367               0.000000000               0.000000000               0.000000000               0.000000000               0.003695923               0.005131018              -0.000190860               0.000744586               0.001462127               0.002206713               0.000000000               0.000000000               0.000000000               0.000000000              -0.014423007              -0.001247876               0.000760596              -0.005252640               0.001334912              -0.003917727               0.000000000               0.000000000               0.000000000               0.000000000              -0.009984597              -0.000552067               0.000019966              -0.003675213               0.001041042              -0.002634171               0.000000000               0.000000000               0.000000000               0.000000000              -0.006467746              -0.000085486              -0.000678488              -0.002414717               0.000776405              -0.001638312               0.000000000               0.000000000               0.000000000               0.000000000              -0.004528742               0.000819437              -0.000917975              -0.001800706               0.000873375              -0.000927331               0.000000000               0.000000000               0.000000000               0.000000000              -0.003290031               0.001733798              -0.000970588              -0.001450484               0.001061420              -0.000389064               0.000000000               0.000000000               0.000000000               0.000000000              -0.002396604               0.002540681              -0.000950843              -0.001216309               0.001252321               0.000036012               0.000000000               0.000000000               0.000000000               0.000000000              -0.001685286               0.003214934              -0.000906194              -0.001033847               0.001416249               0.000382402               0.000000000               0.000000000               0.000000000               0.000000000              -0.001073031               0.003762792              -0.000850288              -0.000872734               0.001545162               0.000672429               0.000000000               0.000000000               0.000000000               0.000000000              -0.000505831               0.004202656              -0.000790919              -0.000715017               0.001639210               0.000924193               0.000000000               0.000000000               0.000000000               0.000000000               0.000045334               0.004551474              -0.000728601              -0.000551933               0.001701120               0.001149187               0.000000000               0.000000000               0.000000000               0.000000000               0.000607055               0.004824049              -0.000662430              -0.000375360               0.001733120               0.001357760               0.000000000               0.000000000               0.000000000               0.000000000               0.001188533               0.005021378              -0.000598131              -0.000181972               0.001734433               0.001552461               0.000000000               0.000000000               0.000000000               0.000000000               0.001799094               0.005138209              -0.000530399               0.000032383               0.001701925               0.001734308               0.000000000               0.000000000               0.000000000               0.000000000               0.002455824               0.005188148              -0.000445103               0.000272413               0.001638561               0.001910974               0.000000000               0.000000000               0.000000000               0.000000000               0.003174694               0.005177315              -0.000331780               0.000543340               0.001544641               0.002087981               0.000000000               0.000000000               0.000000000               0.000000000               0.003970542               0.005105743              -0.000184302               0.000850727               0.001418322               0.002269049               0.000000000               0.000000000               0.000000000               0.000000000               0.004573152               0.005121969              -0.000114470               0.001074675               0.001349081               0.002423756               0.000000000               0.000000000               0.000000000               0.000000000               0.000000000               0.000000000               0.000000000               0.000000000               0.000000000               0.000000000               0.000000000               0.000000000               0.000000000               0.000000000               0.000000000               0.000000000               0.000000000               0.000000000               0.000000000               0.000000000               0.000000000               0.000000000               0.000000000               0.000000000               0.000000000               0.000000000               0.000000000               0.000000000               0.000000000               0.000000000               0.000000000               0.000000000               0.000000000               0.000000000               0.000000000               0.000000000               0.000000000               0.000000000               0.000000000               0.000000000               0.000000000               0.000000000               0.000000000               0.000000000               0.000000000               0.000000000               0.000000000               0.000000000               0.000000000               0.000000000               0.000000000               0.000000000               0.000000000               0.000000000               0.000000000               0.000000000               0.000000000               0.000000000               0.000000000               0.000000000               0.000000000               0.000000000               0.000000000               0.000000000               0.000000000               0.000000000               0.000000000               0.000000000               0.000000000               0.000000000               0.000000000               0.000000000               0.000000000               0.000000000               0.000000000               0.000000000               0.000000000               0.000000000               0.000000000               0.000000000               0.000000000               0.000000000               0.000000000               0.000000000               0.000000000               0.000000000               0.000000000               0.000000000               0.000000000               0.000000000               0.000000000               0.000000000               0.000000000               0.000000000               0.000000000               0.000000000               0.000000000               0.000000000               0.000000000               0.000000000               0.000000000               0.000000000               0.000000000               0.000000000               0.000000000               0.000000000               0.000000000               0.000000000               0.000000000               0.000000000               0.000000000               0.000000000               0.000000000               0.000000000               0.000000000               0.000000000               0.000000000               0.000000000               0.000000000               0.000000000               0.000000000               0.000000000               0.000000000               0.000000000               0.000000000               0.000000000               0.000000000               0.000000000               0.000000000               0.000000000               0.000000000               0.000000000               0.000000000               0.000000000               0.000000000               0.000000000               0.000000000               0.000000000               0.000000000               0.000000000               0.000000000               0.000000000               0.000000000               0.000000000               0.000000000               0.000000000               0.000000000               0.000000000               0.000000000               0.000000000               0.000000000               0.000000000               0.000000000               0.000000000               0.000000000               0.000000000               0.000000000               0.000000000               0.000000000               0.000000000               0.000000000               0.000000000               0.000000000               0.000000000               0.000000000               0.000000000               0.000000000               0.000000000               0.000000000               0.000000000               0.000000000               0.000000000               0.000000000               0.000000000               0.000000000               0.000000000               0.000000000               0.000000000               0.000000000               0.000000000               0.000000000               0.000000000               0.000000000               0.000000000               0.000000000               0.000000000               0.000000000               0.000000000               0.000000000               0.000000000               0.000000000               0.000000000               0.000000000               0.000000000               0.000000000               0.000000000               0.000000000               0.000000000               0.000000000               0.000000000               0.000000000               0.000000000               0.000000000               0.000000000               0.000000000               0.000000000               0.000000000               0.000000000               0.000000000               0.000000000               0.000000000               0.000000000               0.000000000               0.000000000               0.000000000               0.000000000               0.000000000               0.000000000               0.000000000               0.000000000               0.000000000               0.000000000               0.000000000               0.000000000               0.000000000               0.000000000               0.000000000               0.000000000               0.000000000               0.000000000               0.000000000               0.000000000               0.000000000               0.000000000               0.000000000               0.000000000               0.000000000               0.000000000               0.000000000               0.000000000               0.000000000               0.000000000               0.000000000               0.000000000               0.000000000               0.000000000               0.000000000               0.000000000               0.000000000               0.000000000               0.000000000               0.000000000               0.000000000               0.000000000               0.000000000               0.000000000               0.000000000               0.000000000               0.000000000               0.000000000               0.000000000               0.000000000               0.000000000               0.000000000               0.000000000               0.000000000               0.000000000               0.000000000               0.000000000               0.000000000               0.000000000               0.000000000               0.000000000               0.000000000               0.000000000               0.000000000               0.000000000               0.000000000               0.000000000               0.000000000               0.000000000               0.000000000               0.000000000               0.000000000               0.000000000               0.000000000               0.000000000               0.000000000               0.000000000               0.000000000               0.000000000               0.000000000               0.000000000               0.000000000               0.000000000               0.000000000               0.000000000               0.000000000               0.000000000               0.000000000               0.000000000               0.000000000               0.000000000               0.000000000               0.000000000               0.000000000               0.000000000               0.000000000               0.000000000               0.000000000               0.000000000               0.000000000               0.000000000               0.000000000               0.000000000               0.000000000               0.000000000               0.000000000               0.000000000               0.000000000               0.000000000               0.000000000               0.000000000               0.000000000               0.000000000               0.000000000               0.000000000               0.000000000               0.000000000               0.000000000               0.000000000               0.000000000               0.000000000               0.000000000               0.000000000               0.000000000               0.000000000               0.000000000               0.000000000               0.000000000               0.000000000               0.000000000               0.000000000               0.000000000               0.002250245               0.022983446               0.001536111              -0.002029084               0.008337434               0.006308349               0.000000000               0.000000000               0.000000000               0.000000000               0.001992684               0.017656377               0.000664562              -0.001459787               0.006371996               0.004912209               0.000000000               0.000000000               0.000000000               0.000000000               0.002409304               0.013384843              -0.000191353              -0.000769615               0.004718108               0.003948493               0.000000000               0.000000000               0.000000000               0.000000000               0.002126759               0.010967547              -0.000537227              -0.000573407               0.003846948               0.003273541               0.000000000               0.000000000               0.000000000               0.000000000               0.001686901               0.009412467              -0.000663433              -0.000543969               0.003318780               0.002774811               0.000000000               0.000000000               0.000000000               0.000000000               0.001257493               0.008294014              -0.000691748              -0.000565191               0.002953041               0.002387850               0.000000000               0.000000000               0.000000000               0.000000000               0.000901914               0.007415553              -0.000679226              -0.000588725               0.002668068               0.002079343               0.000000000               0.000000000               0.000000000               0.000000000               0.000621280               0.006676050              -0.000651295              -0.000601525               0.002425836               0.001824311               0.000000000               0.000000000               0.000000000               0.000000000               0.000397308               0.006014568              -0.000619028              -0.000602829               0.002205779               0.001602950               0.000000000               0.000000000               0.000000000               0.000000000               0.000224840               0.005395691              -0.000582117              -0.000590145               0.001995260               0.001405115               0.000000000               0.000000000               0.000000000               0.000000000               0.000098317               0.004789069              -0.000538091              -0.000561764               0.001783595               0.001221831               0.000000000               0.000000000               0.000000000               0.000000000               0.000010281               0.004170500              -0.000490645              -0.000517456               0.001562638               0.001045182               0.000000000               0.000000000               0.000000000               0.000000000              -0.000045590               0.003528515              -0.000441510              -0.000458160               0.001328880               0.000870720               0.000000000               0.000000000               0.000000000               0.000000000              -0.000075555               0.002854612              -0.000381260              -0.000385159               0.001079914               0.000694755               0.000000000               0.000000000               0.000000000               0.000000000              -0.000077958               0.002135471              -0.000299308              -0.000296168               0.000810539               0.000514371               0.000000000               0.000000000               0.000000000               0.000000000              -0.000048230               0.001353377              -0.000175661              -0.000187258               0.000513540               0.000326282               0.000000000               0.000000000               0.000000000               0.000000000              -0.000087593               0.000769235              -0.000111296              -0.000129001               0.000299410               0.000170408               0.000000000               0.000000000               0.000000000               0.000000000               0.002379602               0.021511060               0.002825978              -0.001796528               0.007769124               0.005972596               0.000000000               0.000000000               0.000000000               0.000000000               0.001764855               0.016739103               0.001213648              -0.001430564               0.006056500               0.004625936               0.000000000               0.000000000               0.000000000               0.000000000               0.001809897               0.013032970              -0.000353208              -0.000950408               0.004661082               0.003710675               0.000000000               0.000000000               0.000000000               0.000000000               0.001403577               0.010898014              -0.000960404              -0.000835909               0.003911271               0.003075363               0.000000000               0.000000000               0.000000000               0.000000000               0.000948306               0.009489672              -0.001168572              -0.000830593               0.003440056               0.002609464               0.000000000               0.000000000               0.000000000               0.000000000               0.000558045               0.008451811              -0.001206265              -0.000847208               0.003099645               0.002252437               0.000000000               0.000000000               0.000000000               0.000000000               0.000263366               0.007619863              -0.001176492              -0.000853719               0.002824502               0.001970783               0.000000000               0.000000000               0.000000000               0.000000000               0.000055791               0.006904424              -0.001122126              -0.000842130               0.002582161               0.001740032               0.000000000               0.000000000               0.000000000               0.000000000              -0.000083761               0.006253292              -0.001061885              -0.000813070               0.002355433               0.001542363               0.000000000               0.000000000               0.000000000               0.000000000              -0.000172199               0.005638746              -0.000996990              -0.000769416               0.002136035               0.001366619               0.000000000               0.000000000               0.000000000               0.000000000              -0.000217310               0.005039461              -0.000920346              -0.000711422               0.001916944               0.001205522               0.000000000               0.000000000               0.000000000               0.000000000              -0.000225495               0.004443862              -0.000835749              -0.000640042               0.001694620               0.001054578               0.000000000               0.000000000               0.000000000               0.000000000              -0.000209475               0.003846309              -0.000747149              -0.000559341               0.001468537               0.000909196               0.000000000               0.000000000               0.000000000               0.000000000              -0.000175152               0.003247309              -0.000642371              -0.000471595               0.001239624               0.000768029               0.000000000               0.000000000               0.000000000               0.000000000              -0.000124995               0.002651803              -0.000500746              -0.000378348               0.001010041               0.000631694               0.000000000               0.000000000               0.000000000               0.000000000              -0.000066850               0.002060165              -0.000290971              -0.000282589               0.000780911               0.000498322               0.000000000               0.000000000               0.000000000               0.000000000              -0.000077227               0.001655583              -0.000178152              -0.000235907               0.000630491               0.000394584               0.000000000               0.000000000               0.000000000               0.000000000               0.002462240               0.019282459               0.003698093              -0.001486966               0.006923077               0.005436111               0.000000000               0.000000000               0.000000000               0.000000000               0.001355324               0.015371226               0.001583495              -0.001413154               0.005594742               0.004181588               0.000000000               0.000000000               0.000000000               0.000000000               0.000886189               0.012511479              -0.000440204              -0.001231611               0.004580988               0.003349377               0.000000000               0.000000000               0.000000000               0.000000000               0.000347117               0.010773312              -0.001176248              -0.001216492               0.003996566               0.002780073               0.000000000               0.000000000               0.000000000               0.000000000              -0.000084114               0.009560658              -0.001407428              -0.001226623               0.003595728               0.002369106               0.000000000               0.000000000               0.000000000               0.000000000              -0.000384341               0.008622900              -0.001435236              -0.001221988               0.003281600               0.002059613               0.000000000               0.000000000               0.000000000               0.000000000              -0.000568346               0.007841545              -0.001385778              -0.001193320               0.003011595               0.001818275               0.000000000               0.000000000               0.000000000               0.000000000              -0.000662128               0.007150797              -0.001308962              -0.001142145               0.002764290               0.001622145               0.000000000               0.000000000               0.000000000               0.000000000              -0.000681935               0.006514671              -0.001227523              -0.001070057               0.002528221               0.001458163               0.000000000               0.000000000               0.000000000               0.000000000              -0.000647599               0.005910879              -0.001141711              -0.000981708               0.002297509               0.001315801               0.000000000               0.000000000               0.000000000               0.000000000              -0.000577142               0.005330411              -0.001043206              -0.000882728               0.002071028               0.001188300               0.000000000               0.000000000               0.000000000               0.000000000              -0.000484366               0.004775711              -0.000934701              -0.000778600               0.001851421               0.001072821               0.000000000               0.000000000               0.000000000               0.000000000              -0.000376656               0.004250177              -0.000819173              -0.000672517               0.001640884               0.000968367               0.000000000               0.000000000               0.000000000               0.000000000              -0.000263959               0.003763742              -0.000688652              -0.000569451               0.001444385               0.000874934               0.000000000               0.000000000               0.000000000               0.000000000              -0.000161211               0.003330305              -0.000522718              -0.000476741               0.001269004               0.000792263               0.000000000               0.000000000               0.000000000               0.000000000              -0.000076608               0.002967518              -0.000295984              -0.000399667               0.001122385               0.000722718               0.000000000               0.000000000               0.000000000               0.000000000              -0.000054104               0.002767258              -0.000171978              -0.000366196               0.001044475               0.000678280               0.000000000               0.000000000               0.000000000               0.000000000               0.002353858               0.016573944               0.004076891              -0.001189046               0.005920941               0.004731894               0.000000000               0.000000000               0.000000000               0.000000000               0.000751312               0.013742696               0.001761746              -0.001436092               0.005059550               0.003623458               0.000000000               0.000000000               0.000000000               0.000000000              -0.000243785               0.011882771              -0.000415576              -0.001576762               0.004486472               0.002909710               0.000000000               0.000000000               0.000000000               0.000000000              -0.000856715               0.010577315              -0.001147451              -0.001643428               0.004073546               0.002430117               0.000000000               0.000000000               0.000000000               0.000000000              -0.001193831               0.009562536              -0.001355260              -0.001643000               0.003735147               0.002092147               0.000000000               0.000000000               0.000000000               0.000000000              -0.001347234               0.008718747              -0.001360505              -0.001595052               0.003437904               0.001842852               0.000000000               0.000000000               0.000000000               0.000000000              -0.001376505               0.007979605              -0.001294581              -0.001513637               0.003164387               0.001650750               0.000000000               0.000000000               0.000000000               0.000000000              -0.001319534               0.007310669              -0.001208705              -0.001408656               0.002906417               0.001497761               0.000000000               0.000000000               0.000000000               0.000000000              -0.001200101               0.006693159              -0.001117756              -0.001286680               0.002659924               0.001373244               0.000000000               0.000000000               0.000000000               0.000000000              -0.001036409               0.006111444              -0.001022646              -0.001152581               0.002421321               0.001268740               0.000000000               0.000000000               0.000000000               0.000000000              -0.000850922               0.005567852              -0.000917741              -0.001015075               0.002194290               0.001179215               0.000000000               0.000000000               0.000000000               0.000000000              -0.000662632               0.005069866              -0.000802146              -0.000882218               0.001984011               0.001101793               0.000000000               0.000000000               0.000000000               0.000000000              -0.000481297               0.004631219              -0.000680020              -0.000759387               0.001796853               0.001037466               0.000000000               0.000000000               0.000000000               0.000000000              -0.000317074               0.004265080              -0.000547843              -0.000652036               0.001639024               0.000986988               0.000000000               0.000000000               0.000000000               0.000000000              -0.000180340               0.003979265              -0.000392769              -0.000565034               0.001514753               0.000949719               0.000000000               0.000000000               0.000000000               0.000000000              -0.000078697               0.003792117              -0.000208805              -0.000503525               0.001431868               0.000928343               0.000000000               0.000000000               0.000000000               0.000000000              -0.000037286               0.003725209              -0.000110567              -0.000479632               0.001401602               0.000921969               0.000000000               0.000000000               0.000000000               0.000000000               0.001932035               0.013674271               0.003970223              -0.000984771               0.004886301               0.003901529               0.000000000               0.000000000               0.000000000               0.000000000              -0.000043257               0.012034281               0.001775727              -0.001520504               0.004518221               0.002997717               0.000000000               0.000000000               0.000000000               0.000000000              -0.001447000               0.011198830              -0.000257194              -0.001942474               0.004380397               0.002437923               0.000000000               0.000000000               0.000000000               0.000000000              -0.002018485               0.010296212              -0.000886581              -0.002043953               0.004113354               0.002069401               0.000000000               0.000000000               0.000000000               0.000000000              -0.002186250               0.009454535              -0.001047022              -0.002001656               0.003818699               0.001817043               0.000000000               0.000000000               0.000000000               0.000000000              -0.002148805               0.008684900              -0.001038526              -0.001891410               0.003525408               0.001633998               0.000000000               0.000000000               0.000000000               0.000000000              -0.001994866               0.007982141              -0.000975229              -0.001745838               0.003242633               0.001496795               0.000000000               0.000000000               0.000000000               0.000000000              -0.001772628               0.007337254              -0.000899695              -0.001581889               0.002973023               0.001391135               0.000000000               0.000000000               0.000000000               0.000000000              -0.001511710               0.006745270              -0.000818713              -0.001410046               0.002718416               0.001308370               0.000000000               0.000000000               0.000000000               0.000000000              -0.001230940               0.006199510              -0.000731469              -0.001236538               0.002478662               0.001242124               0.000000000               0.000000000               0.000000000               0.000000000              -0.000956166               0.005703190              -0.000634821              -0.001071459               0.002258197               0.001186739               0.000000000               0.000000000               0.000000000               0.000000000              -0.000707212               0.005269746              -0.000531459              -0.000923921               0.002064538               0.001140617               0.000000000               0.000000000               0.000000000               0.000000000              -0.000488502               0.004919957              -0.000428728              -0.000798181               0.001906030               0.001107849               0.000000000               0.000000000               0.000000000               0.000000000              -0.000307903               0.004655460              -0.000324108              -0.000697395               0.001784269               0.001086875               0.000000000               0.000000000               0.000000000               0.000000000              -0.000164554               0.004478441              -0.000213807              -0.000621511               0.001699969               0.001078458               0.000000000               0.000000000               0.000000000               0.000000000              -0.000061571               0.004392301              -0.000104021              -0.000572126               0.001654794               0.001082669               0.000000000               0.000000000               0.000000000               0.000000000              -0.000019888               0.004377965              -0.000049619              -0.000554702               0.001644208               0.001089506               0.000000000               0.000000000               0.000000000               0.000000000               0.001128931               0.010827399               0.003468370              -0.000930076               0.003919121               0.002989045               0.000000000               0.000000000               0.000000000               0.000000000              -0.000984540               0.010376807               0.001684743              -0.001666300               0.004014334               0.002348034               0.000000000               0.000000000               0.000000000               0.000000000              -0.002587551               0.010482483               0.000039704              -0.002280637               0.004254338               0.001973702               0.000000000               0.000000000               0.000000000               0.000000000              -0.002990616               0.009915063              -0.000440414              -0.002360858               0.004091941               0.001731083               0.000000000               0.000000000               0.000000000               0.000000000              -0.002928088               0.009214925              -0.000566528              -0.002249893               0.003821575               0.001571682               0.000000000               0.000000000               0.000000000               0.000000000              -0.002678375               0.008512013              -0.000571181              -0.002068387               0.003526772               0.001458384               0.000000000               0.000000000               0.000000000               0.000000000              -0.002344915               0.007847289              -0.000535629              -0.001860249               0.003235820               0.001375570               0.000000000               0.000000000               0.000000000               0.000000000              -0.001968798               0.007237036              -0.000490620              -0.001642925               0.002959963               0.001317038               0.000000000               0.000000000               0.000000000               0.000000000              -0.001582867               0.006677601              -0.000437892              -0.001428272               0.002701935               0.001273664               0.000000000               0.000000000               0.000000000               0.000000000              -0.001217731               0.006166609              -0.000374698              -0.001227472               0.002464673               0.001237201               0.000000000               0.000000000               0.000000000               0.000000000              -0.000894845               0.005721366              -0.000304244              -0.001050735               0.002257348               0.001206613               0.000000000               0.000000000               0.000000000               0.000000000              -0.000621209               0.005363147              -0.000237499              -0.000903344               0.002088813               0.001185468               0.000000000               0.000000000               0.000000000               0.000000000              -0.000397045               0.005098847              -0.000179341              -0.000786246               0.001961681               0.001175435               0.000000000               0.000000000               0.000000000               0.000000000              -0.000225275               0.004918368              -0.000124251              -0.000699273               0.001872531               0.001173258               0.000000000               0.000000000               0.000000000               0.000000000              -0.000104300               0.004810837              -0.000072673              -0.000640465               0.001817085               0.001176619               0.000000000               0.000000000               0.000000000               0.000000000              -0.000032053               0.004762369              -0.000030135              -0.000607315               0.001789879               0.001182564               0.000000000               0.000000000               0.000000000               0.000000000              -0.000010549               0.004751643              -0.000012938              -0.000597910               0.001783168               0.001185258               0.000000000               0.000000000               0.000000000               0.000000000              -0.000009028               0.008211666               0.002697095              -0.001029843               0.003080475               0.002050632               0.000000000               0.000000000               0.000000000               0.000000000              -0.002011057               0.008867308               0.001548000              -0.001862556               0.003576592               0.001714035               0.000000000               0.000000000               0.000000000               0.000000000              -0.003549567               0.009735525               0.000457890              -0.002548022               0.004094483               0.001546461               0.000000000               0.000000000               0.000000000               0.000000000              -0.003678728               0.009428153               0.000110812              -0.002558036               0.003995365               0.001437329               0.000000000               0.000000000               0.000000000               0.000000000              -0.003366770               0.008848760              -0.000021787              -0.002368628               0.003739100               0.001370472               0.000000000               0.000000000               0.000000000               0.000000000              -0.002915766               0.008217191              -0.000067088              -0.002120556               0.003445888               0.001325333               0.000000000               0.000000000               0.000000000               0.000000000              -0.002423290               0.007605836              -0.000077352              -0.001859459               0.003155073               0.001295614               0.000000000               0.000000000               0.000000000               0.000000000              -0.001921946               0.007037939              -0.000075400              -0.001600468               0.002879446               0.001278977               0.000000000               0.000000000               0.000000000               0.000000000              -0.001451069               0.006510889              -0.000061678              -0.001358009               0.002622944               0.001264936               0.000000000               0.000000000               0.000000000               0.000000000              -0.001038377               0.006045659              -0.000039180              -0.001145096               0.002396898               0.001251802               0.000000000               0.000000000               0.000000000               0.000000000              -0.000693641               0.005669681              -0.000020036              -0.000968823               0.002212816               0.001243993               0.000000000               0.000000000               0.000000000               0.000000000              -0.000422440               0.005391272              -0.000009644              -0.000832322               0.002074513               0.001242191               0.000000000               0.000000000               0.000000000               0.000000000              -0.000228632               0.005194924              -0.000006786              -0.000735101               0.001976658               0.001241557               0.000000000               0.000000000               0.000000000               0.000000000              -0.000101743               0.005065101              -0.000003226              -0.000671289               0.001912113               0.001240824               0.000000000               0.000000000               0.000000000               0.000000000              -0.000027032               0.004986373               0.000000575              -0.000633432               0.001873252               0.001239820               0.000000000               0.000000000               0.000000000               0.000000000               0.000001886               0.004944246               0.000000489              -0.000617322               0.001853839               0.001236517               0.000000000               0.000000000               0.000000000               0.000000000               0.000000387               0.004927687              -0.000002646              -0.000615814               0.001847817               0.001232003               0.000000000               0.000000000               0.000000000               0.000000000              -0.001331868               0.006023123               0.001778855              -0.001252339               0.002425133               0.001172795               0.000000000               0.000000000               0.000000000               0.000000000              -0.003011491               0.007524861               0.001404965              -0.002069912               0.003198232               0.001128320               0.000000000               0.000000000               0.000000000               0.000000000              -0.004301763               0.008980377               0.000953648              -0.002735702               0.003905330               0.001169628               0.000000000               0.000000000               0.000000000               0.000000000              -0.004144475               0.008939750               0.000686917              -0.002671640               0.003870434               0.001198793               0.000000000               0.000000000               0.000000000               0.000000000              -0.003629700               0.008504590               0.000518176              -0.002424205               0.003642903               0.001218698               0.000000000               0.000000000               0.000000000               0.000000000              -0.003023416               0.007969483               0.000414875              -0.002129961               0.003366455               0.001236494               0.000000000               0.000000000               0.000000000               0.000000000              -0.002408198               0.007431630               0.000352108              -0.001832023               0.003087860               0.001255836               0.000000000               0.000000000               0.000000000               0.000000000              -0.001816781               0.006912220               0.000307867              -0.001545317               0.002819156               0.001273839               0.000000000               0.000000000               0.000000000               0.000000000              -0.001285767               0.006424285               0.000273269              -0.001285195               0.002569805               0.001284610               0.000000000               0.000000000               0.000000000               0.000000000              -0.000832395               0.006007665               0.000240901              -0.001063104               0.002356903               0.001293799               0.000000000               0.000000000               0.000000000               0.000000000              -0.000469774               0.005684750               0.000200604              -0.000886757               0.002190483               0.001303727               0.000000000               0.000000000               0.000000000               0.000000000              -0.000209262               0.005448027               0.000155744              -0.000759475               0.002069149               0.001309674               0.000000000               0.000000000               0.000000000               0.000000000              -0.000049871               0.005277368               0.000111066              -0.000678371               0.001985229               0.001306858               0.000000000               0.000000000               0.000000000               0.000000000               0.000025384               0.005151747               0.000071123              -0.000634448               0.001928714               0.001294267               0.000000000               0.000000000               0.000000000               0.000000000               0.000043415               0.005065191               0.000037984              -0.000616867               0.001894002               0.001277136               0.000000000               0.000000000               0.000000000               0.000000000               0.000028450               0.005014301               0.000012788              -0.000616117               0.001876789               0.001260672               0.000000000               0.000000000               0.000000000               0.000000000               0.000008988               0.004990773               0.000000109              -0.000620474               0.001870399               0.001249925               0.000000000               0.000000000               0.000000000               0.000000000              -0.002848103               0.004018231               0.000825129              -0.001570314               0.001862835               0.000292520               0.000000000               0.000000000               0.000000000               0.000000000              -0.003855259               0.005972245               0.001247908              -0.002192248               0.002721477               0.000529230               0.000000000               0.000000000               0.000000000               0.000000000              -0.004764069               0.007846660               0.001464871              -0.002767352               0.003537978               0.000770626               0.000000000               0.000000000               0.000000000               0.000000000              -0.004451439               0.008200311               0.001287319              -0.002694322               0.003631517               0.000937195               0.000000000               0.000000000               0.000000000               0.000000000              -0.003854784               0.008045891               0.001084929              -0.002451274               0.003499028               0.001047754               0.000000000               0.000000000               0.000000000               0.000000000              -0.003198344               0.007726836               0.000919896              -0.002165228               0.003297329               0.001132101               0.000000000               0.000000000               0.000000000               0.000000000              -0.002548695               0.007351193               0.000799777              -0.001874655               0.003075258               0.001200603               0.000000000               0.000000000               0.000000000               0.000000000              -0.001928631               0.006950343               0.000704791              -0.001592026               0.002847433               0.001255407               0.000000000               0.000000000               0.000000000               0.000000000              -0.001365782               0.006547311               0.000621892              -0.001330579               0.002625941               0.001295363               0.000000000               0.000000000               0.000000000               0.000000000              -0.000878470               0.006176935               0.000541013              -0.001101541               0.002426138               0.001324597               0.000000000               0.000000000               0.000000000               0.000000000              -0.000476097               0.005867986               0.000451093              -0.000912032               0.002259986               0.001347954               0.000000000               0.000000000               0.000000000               0.000000000              -0.000175376               0.005623060               0.000354615              -0.000768647               0.002130550               0.001361904               0.000000000               0.000000000               0.000000000               0.000000000               0.000017281               0.005433030               0.000257996              -0.000672647               0.002035207               0.001362561               0.000000000               0.000000000               0.000000000               0.000000000               0.000109963               0.005276569               0.000169917              -0.000618333               0.001964950               0.001346617               0.000000000               0.000000000               0.000000000               0.000000000               0.000125791               0.005150927               0.000096013              -0.000596693               0.001915856               0.001319163               0.000000000               0.000000000               0.000000000               0.000000000               0.000089372               0.005060455               0.000038446              -0.000599041               0.001886482               0.001287441               0.000000000               0.000000000               0.000000000               0.000000000               0.000047468               0.005012339               0.000008652              -0.000608740               0.001873676               0.001264936               0.000000000               0.000000000               0.000000000               0.000000000              -0.004762588               0.002225397              -0.000085514              -0.002064142               0.001429837              -0.000634305               0.000000000               0.000000000               0.000000000               0.000000000              -0.004811387               0.004410267               0.001026245              -0.002355548               0.002255256              -0.000100292               0.000000000               0.000000000               0.000000000               0.000000000              -0.005150147               0.006495944               0.001868104              -0.002743292               0.003079723               0.000336431               0.000000000               0.000000000               0.000000000               0.000000000              -0.004699204               0.007223439               0.001851258              -0.002665125               0.003296163               0.000631038               0.000000000               0.000000000               0.000000000               0.000000000              -0.004054479               0.007395677               0.001653285              -0.002444883               0.003280162               0.000835278               0.000000000               0.000000000               0.000000000               0.000000000              -0.003383140               0.007332949               0.001446165              -0.002185291               0.003172722               0.000987431               0.000000000               0.000000000               0.000000000               0.000000000              -0.002729055               0.007155344               0.001274591              -0.001917809               0.003024361               0.001106551               0.000000000               0.000000000               0.000000000               0.000000000              -0.002102565               0.006907680               0.001133882              -0.001651918               0.002853176               0.001201258               0.000000000               0.000000000               0.000000000               0.000000000              -0.001511777               0.006623325               0.001009390              -0.001394829               0.002672696               0.001277867               0.000000000               0.000000000               0.000000000               0.000000000              -0.000980656               0.006328011               0.000891642              -0.001158745               0.002495564               0.001336819               0.000000000               0.000000000               0.000000000               0.000000000              -0.000519689               0.006053921               0.000766716              -0.000951621               0.002335160               0.001383539               0.000000000               0.000000000               0.000000000               0.000000000              -0.000145093               0.005815126               0.000629955              -0.000781299               0.002198789               0.001417490               0.000000000               0.000000000               0.000000000               0.000000000               0.000127173               0.005612070               0.000488596              -0.000653817               0.002088611               0.001434793               0.000000000               0.000000000               0.000000000               0.000000000               0.000290280               0.005429004               0.000352581              -0.000569769               0.001999573               0.001429804               0.000000000               0.000000000               0.000000000               0.000000000               0.000348199               0.005261081               0.000223224              -0.000527059               0.001929362               0.001402303               0.000000000               0.000000000               0.000000000               0.000000000               0.000312584               0.005119269               0.000103236              -0.000522688               0.001880635               0.001357947               0.000000000               0.000000000               0.000000000               0.000000000               0.000248676               0.005038751               0.000038440              -0.000536589               0.001858430               0.001321841               0.000000000               0.000000000               0.000000000               0.000000000              -0.006939995               0.000787895              -0.000860515              -0.002700982               0.001162951              -0.001538031               0.000000000               0.000000000               0.000000000               0.000000000              -0.005921932               0.002944714               0.000738710              -0.002588809               0.001844495              -0.000744314               0.000000000               0.000000000               0.000000000               0.000000000              -0.005477817               0.004956460               0.002061157              -0.002673733               0.002543380              -0.000130353               0.000000000               0.000000000               0.000000000               0.000000000              -0.004802246               0.005941559               0.002239598              -0.002543531               0.002828343               0.000284812               0.000000000               0.000000000               0.000000000               0.000000000              -0.004090537               0.006409674               0.002098155              -0.002335155               0.002914921               0.000579766               0.000000000               0.000000000               0.000000000               0.000000000              -0.003402162               0.006606749               0.001891193              -0.002101650               0.002902777               0.000801127               0.000000000               0.000000000               0.000000000               0.000000000              -0.002746110               0.006649125               0.001696800              -0.001860928               0.002836662               0.000975734               0.000000000               0.000000000               0.000000000               0.000000000              -0.002125255               0.006587278               0.001525993              -0.001620377               0.002735863               0.001115486               0.000000000               0.000000000               0.000000000               0.000000000              -0.001532928               0.006455082               0.001373085              -0.001381730               0.002612249               0.001230519               0.000000000               0.000000000               0.000000000               0.000000000              -0.000976499               0.006278952               0.001228105              -0.001151054               0.002476647               0.001325594               0.000000000               0.000000000               0.000000000               0.000000000              -0.000469746               0.006085936               0.001080403              -0.000936895               0.002340923               0.001404028               0.000000000               0.000000000               0.000000000               0.000000000              -0.000024948               0.005891070               0.000921686              -0.000745738               0.002212249               0.001466512               0.000000000               0.000000000               0.000000000               0.000000000               0.000339725               0.005705209               0.000752523              -0.000585753               0.002096968               0.001511215               0.000000000               0.000000000               0.000000000               0.000000000               0.000598409               0.005520321               0.000576633              -0.000465636               0.001995301               0.001529665               0.000000000               0.000000000               0.000000000               0.000000000               0.000739063               0.005337526               0.000391764              -0.000390041               0.001909171               0.001519130               0.000000000               0.000000000               0.000000000               0.000000000               0.000760027               0.005165093               0.000198028              -0.000360625               0.001841889               0.001481263               0.000000000               0.000000000               0.000000000               0.000000000               0.000714814               0.005066061               0.000092360              -0.000365201               0.001810404               0.001445203               0.000000000               0.000000000               0.000000000               0.000000000              -0.009222328              -0.000221767              -0.001382107              -0.003430649               0.001069620              -0.002361030               0.000000000               0.000000000               0.000000000               0.000000000              -0.007116202               0.001658407               0.000438585              -0.002875873               0.001511416              -0.001364457               0.000000000               0.000000000               0.000000000               0.000000000              -0.005779943               0.003364747               0.002022591              -0.002588067               0.001984258              -0.000603810               0.000000000               0.000000000               0.000000000               0.000000000              -0.004788828               0.004466300               0.002366915              -0.002354093               0.002273448              -0.000080645               0.000000000               0.000000000               0.000000000               0.000000000              -0.003968426               0.005161602               0.002309312              -0.002133355               0.002431634               0.000298279               0.000000000               0.000000000               0.000000000               0.000000000              -0.003247279               0.005594117               0.002141215              -0.001916990               0.002503683               0.000586693               0.000000000               0.000000000               0.000000000               0.000000000              -0.002588581               0.005852780               0.001957795              -0.001702312               0.002518344               0.000816032               0.000000000               0.000000000               0.000000000               0.000000000              -0.001973416               0.005990478               0.001782626              -0.001488838               0.002493085               0.001004247               0.000000000               0.000000000               0.000000000               0.000000000              -0.001390560               0.006032973               0.001620197              -0.001275579               0.002436164               0.001160584               0.000000000               0.000000000               0.000000000               0.000000000              -0.000832528               0.006003717               0.001464566              -0.001062660               0.002355439               0.001292778               0.000000000               0.000000000               0.000000000               0.000000000              -0.000299593               0.005928327               0.001309011              -0.000853387               0.002260551               0.001407165               0.000000000               0.000000000               0.000000000               0.000000000               0.000199870               0.005816717               0.001147111              -0.000652137               0.002156265               0.001504128               0.000000000               0.000000000               0.000000000               0.000000000               0.000651080               0.005685232               0.000969168              -0.000466498               0.002050558               0.001584059               0.000000000               0.000000000               0.000000000               0.000000000               0.001026821               0.005534178               0.000770781              -0.000306714               0.001946945               0.001640231               0.000000000               0.000000000               0.000000000               0.000000000               0.001300434               0.005361373               0.000549440              -0.000182509               0.001847943               0.001665434               0.000000000               0.000000000               0.000000000               0.000000000               0.001453854               0.005179172               0.000293035              -0.000102201               0.001760441               0.001658239               0.000000000               0.000000000               0.000000000               0.000000000               0.001496574               0.005085468               0.000154414              -0.000074468               0.001719962               0.001645494               0.000000000               0.000000000               0.000000000               0.000000000              -0.011398615              -0.000832401              -0.001547910              -0.004170428               0.001112667              -0.003057760               0.000000000               0.000000000               0.000000000               0.000000000              -0.008287181               0.000625775               0.000187046              -0.003185912               0.001270553              -0.001915358               0.000000000               0.000000000               0.000000000               0.000000000              -0.006059354               0.001884580               0.001753395              -0.002507827               0.001464125              -0.001043702               0.000000000               0.000000000               0.000000000               0.000000000              -0.004710452               0.002974126               0.002184559              -0.002138181               0.001704090              -0.000434091               0.000000000               0.000000000               0.000000000               0.000000000              -0.003742849               0.003816540               0.002205320              -0.001880632               0.001899043               0.000018411               0.000000000               0.000000000               0.000000000               0.000000000              -0.002965472               0.004436830               0.002094147              -0.001666652               0.002034478               0.000367826               0.000000000               0.000000000               0.000000000               0.000000000              -0.002296761               0.004882664               0.001947421              -0.001471616               0.002118076               0.000646461               0.000000000               0.000000000               0.000000000               0.000000000              -0.001685867               0.005202816               0.001794765              -0.001282550               0.002161771               0.000879221               0.000000000               0.000000000               0.000000000               0.000000000              -0.001113631               0.005414922               0.001646346              -0.001094475               0.002169780               0.001075305               0.000000000               0.000000000               0.000000000               0.000000000              -0.000559355               0.005543559               0.001501485              -0.000902702               0.002148735               0.001246033               0.000000000               0.000000000               0.000000000               0.000000000              -0.000017017               0.005604156               0.001358244              -0.000706900               0.002103666               0.001396767               0.000000000               0.000000000               0.000000000               0.000000000               0.000516786               0.005605578               0.001210789              -0.000506902               0.002037474               0.001530572               0.000000000               0.000000000               0.000000000               0.000000000               0.001036113               0.005556403               0.001046326              -0.000306008               0.001954118               0.001648110               0.000000000               0.000000000               0.000000000               0.000000000               0.001529030               0.005465953               0.000855597              -0.000109858               0.001858586               0.001748727               0.000000000               0.000000000               0.000000000               0.000000000               0.001972661               0.005340222               0.000628662               0.000072219               0.001755983               0.001828202               0.000000000               0.000000000               0.000000000               0.000000000               0.002341523               0.005181295               0.000346384               0.000230407               0.001650279               0.001880686               0.000000000               0.000000000               0.000000000               0.000000000               0.002557372               0.005115952               0.000199318               0.000319517               0.001598794               0.001918312               0.000000000               0.000000000               0.000000000               0.000000000              -0.013214445              -0.001136180              -0.001324079              -0.004813391               0.001225728              -0.003587663               0.000000000               0.000000000               0.000000000               0.000000000              -0.009294131              -0.000116202               0.000030095              -0.003470771               0.001118182              -0.002352589               0.000000000               0.000000000               0.000000000               0.000000000              -0.006297189               0.000688170               0.001285665              -0.002447465               0.001045204              -0.001402260               0.000000000               0.000000000               0.000000000               0.000000000              -0.004608880               0.001690482               0.001683745              -0.001939638               0.001210031              -0.000729607               0.000000000               0.000000000               0.000000000               0.000000000              -0.003488762               0.002595112               0.001748583              -0.001632672               0.001409251              -0.000223421               0.000000000               0.000000000               0.000000000               0.000000000              -0.002649483               0.003337986               0.001691293              -0.001410801               0.001582917               0.000172116               0.000000000               0.000000000               0.000000000               0.000000000              -0.001959437               0.003924223               0.001595299              -0.001225314               0.001716499               0.000491184               0.000000000               0.000000000               0.000000000               0.000000000              -0.001348906               0.004385554               0.001484874              -0.001054032               0.001813180               0.000759148               0.000000000               0.000000000               0.000000000               0.000000000              -0.000781124               0.004739702               0.001372700              -0.000885383               0.001875012               0.000989629               0.000000000               0.000000000               0.000000000               0.000000000              -0.000229667               0.005003356               0.001260167              -0.000711543               0.001904950               0.001193406               0.000000000               0.000000000               0.000000000               0.000000000               0.000321103               0.005191546               0.001146171              -0.000528529               0.001906674               0.001378145               0.000000000               0.000000000               0.000000000               0.000000000               0.000877863               0.005305292               0.001032440              -0.000333963               0.001879734               0.001545771               0.000000000               0.000000000               0.000000000               0.000000000               0.001452075               0.005346417               0.000905968              -0.000123774               0.001823379               0.001699605               0.000000000               0.000000000               0.000000000               0.000000000               0.002046781               0.005334914               0.000752952               0.000100677               0.001744728               0.001845405               0.000000000               0.000000000               0.000000000               0.000000000               0.002654675               0.005274900               0.000561587               0.000336137               0.001646237               0.001982374               0.000000000               0.000000000               0.000000000               0.000000000               0.003265029               0.005156523               0.000314181               0.000579815               0.001525552               0.002105367               0.000000000               0.000000000               0.000000000               0.000000000               0.003695923               0.005131018               0.000190860               0.000744586               0.001462127               0.002206713               0.000000000               0.000000000               0.000000000               0.000000000              -0.014423007              -0.001247876              -0.000760596              -0.005252640               0.001334912              -0.003917727               0.000000000               0.000000000               0.000000000               0.000000000              -0.009984597              -0.000552067              -0.000019966              -0.003675213               0.001041042              -0.002634171               0.000000000               0.000000000               0.000000000               0.000000000              -0.006467746              -0.000085486               0.000678488              -0.002414717               0.000776405              -0.001638312               0.000000000               0.000000000               0.000000000               0.000000000              -0.004528742               0.000819437               0.000917975              -0.001800706               0.000873375              -0.000927331               0.000000000               0.000000000               0.000000000               0.000000000              -0.003290031               0.001733798               0.000970588              -0.001450484               0.001061420              -0.000389064               0.000000000               0.000000000               0.000000000               0.000000000              -0.002396604               0.002540681               0.000950843              -0.001216309               0.001252321               0.000036012               0.000000000               0.000000000               0.000000000               0.000000000              -0.001685286               0.003214934               0.000906194              -0.001033847               0.001416249               0.000382402               0.000000000               0.000000000               0.000000000               0.000000000              -0.001073031               0.003762792               0.000850288              -0.000872734               0.001545162               0.000672429               0.000000000               0.000000000               0.000000000               0.000000000              -0.000505831               0.004202656               0.000790919              -0.000715017               0.001639210               0.000924193               0.000000000               0.000000000               0.000000000               0.000000000               0.000045334               0.004551474               0.000728601              -0.000551933               0.001701120               0.001149187               0.000000000               0.000000000               0.000000000               0.000000000               0.000607055               0.004824049               0.000662430              -0.000375360               0.001733120               0.001357760               0.000000000               0.000000000               0.000000000               0.000000000               0.001188533               0.005021378               0.000598131              -0.000181972               0.001734433               0.001552461               0.000000000               0.000000000               0.000000000               0.000000000               0.001799094               0.005138209               0.000530399               0.000032383               0.001701925               0.001734308               0.000000000               0.000000000               0.000000000               0.000000000               0.002455824               0.005188148               0.000445103               0.000272413               0.001638561               0.001910974               0.000000000               0.000000000               0.000000000               0.000000000               0.003174694               0.005177315               0.000331780               0.000543340               0.001544641               0.002087981               0.000000000               0.000000000               0.000000000               0.000000000               0.003970542               0.005105743               0.000184302               0.000850727               0.001418322               0.002269049               0.000000000               0.000000000               0.000000000               0.000000000               0.004573152               0.005121969               0.000114470               0.001074675               0.001349081               0.002423756               0.000000000               0.000000000               0.000000000               0.000000000               0.000000000               0.000000000               0.000000000               0.000000000               0.000000000               0.000000000               0.000000000               0.000000000               0.000000000               0.000000000               0.000000000               0.000000000               0.000000000               0.000000000               0.000000000               0.000000000               0.000000000               0.000000000               0.000000000               0.000000000               0.000000000               0.000000000               0.000000000               0.000000000               0.000000000               0.000000000               0.000000000               0.000000000               0.000000000               0.000000000               0.000000000               0.000000000               0.000000000               0.000000000               0.000000000               0.000000000               0.000000000               0.000000000               0.000000000               0.000000000               0.000000000               0.000000000               0.000000000               0.000000000               0.000000000               0.000000000               0.000000000               0.000000000               0.000000000               0.000000000               0.000000000               0.000000000               0.000000000               0.000000000               0.000000000               0.000000000               0.000000000               0.000000000               0.000000000               0.000000000               0.000000000               0.000000000               0.000000000               0.000000000               0.000000000               0.000000000               0.000000000               0.000000000               0.000000000               0.000000000               0.000000000               0.000000000               0.000000000               0.000000000               0.000000000               0.000000000               0.000000000               0.000000000               0.000000000               0.000000000               0.000000000               0.000000000               0.000000000               0.000000000               0.000000000               0.000000000               0.000000000               0.000000000               0.000000000               0.000000000               0.000000000               0.000000000               0.000000000               0.000000000               0.000000000               0.000000000               0.000000000               0.000000000               0.000000000               0.000000000               0.000000000               0.000000000               0.000000000               0.000000000               0.000000000               0.000000000               0.000000000               0.000000000               0.000000000               0.000000000               0.000000000               0.000000000               0.000000000               0.000000000               0.000000000               0.000000000               0.000000000               0.000000000               0.000000000               0.000000000               0.000000000               0.000000000               0.000000000               0.000000000               0.000000000               0.000000000               0.000000000               0.000000000               0.000000000               0.000000000               0.000000000               0.000000000               0.000000000               0.000000000               0.000000000               0.000000000               0.000000000               0.000000000               0.000000000               0.000000000               0.000000000               0.000000000               0.000000000               0.000000000               0.000000000               0.000000000               0.000000000               0.000000000               0.000000000               0.000000000               0.000000000               0.000000000               0.000000000               0.000000000               0.000000000               0.000000000               0.000000000               0.000000000               0.000000000               0.000000000               0.000000000               0.000000000               0.000000000               0.000000000               0.000000000               0.000000000               0.000000000               0.000000000               0.000000000               0.000000000 </DataArray>
</PointData>
</Piece>
</UnstructuredGrid> </VTKFile>
