<?xml version="1.0"?>
<VTKFile type="UnstructuredGrid" version="0.1">
<UnstructuredGrid>
<Piece NumberOfPoints="      1156" NumberOfCells="      1024">
<Points>
<DataArray type="Float64"                                    Name="coordinates"                                                      NumberOfComponents=" 3" format="ascii">
              0.133000000               0.000000000               0.000000000               0.155937500               0.000000000               0.000000000               0.178875000               0.000000000               0.000000000               0.201812500               0.000000000               0.000000000               0.224750000               0.000000000               0.000000000               0.247687500               0.000000000               0.000000000               0.270625000               0.000000000               0.000000000               0.293562500               0.000000000               0.000000000               0.316500000               0.000000000               0.000000000               0.339437500               0.000000000               0.000000000               0.362375000               0.000000000               0.000000000               0.385312500               0.000000000               0.000000000               0.408250000               0.000000000               0.000000000               0.431187500               0.000000000               0.000000000               0.454125000               0.000000000               0.000000000               0.477062500               0.000000000               0.000000000               0.500000000               0.000000000               0.000000000               0.132359569               0.013036280               0.000000000               0.155337096               0.016127762               0.000000000               0.178314623               0.019219245               0.000000000               0.201292150               0.022310727               0.000000000               0.224269676               0.025402210               0.000000000               0.247247203               0.028493692               0.000000000               0.270224730               0.031585175               0.000000000               0.293202257               0.034676657               0.000000000               0.316179784               0.037768140               0.000000000               0.339157311               0.040859622               0.000000000               0.362134838               0.043951105               0.000000000               0.385112365               0.047042587               0.000000000               0.408089892               0.050134070               0.000000000               0.431067419               0.053225552               0.000000000               0.454044946               0.056317035               0.000000000               0.477022473               0.059408517               0.000000000               0.500000000               0.062500000               0.000000000               0.130444442               0.025947013               0.000000000               0.153541665               0.032137825               0.000000000               0.176638887               0.038328636               0.000000000               0.199736109               0.044519448               0.000000000               0.222833332               0.050710260               0.000000000               0.245930554               0.056901071               0.000000000               0.269027776               0.063091883               0.000000000               0.292124999               0.069282695               0.000000000               0.315222221               0.075473506               0.000000000               0.338319444               0.081664318               0.000000000               0.361416666               0.087855130               0.000000000               0.384513888               0.094045942               0.000000000               0.407611111               0.100236753               0.000000000               0.430708333               0.106427565               0.000000000               0.453805555               0.112618377               0.000000000               0.476902778               0.118809188               0.000000000               0.500000000               0.125000000               0.000000000               0.127273065               0.038607862               0.000000000               0.150568498               0.047913621               0.000000000               0.173863932               0.057219379               0.000000000               0.197159365               0.066525138               0.000000000               0.220454798               0.075830897               0.000000000               0.243750232               0.085136655               0.000000000               0.267045665               0.094442414               0.000000000               0.290341099               0.103748172               0.000000000               0.313636532               0.113053931               0.000000000               0.336931966               0.122359690               0.000000000               0.360227399               0.131665448               0.000000000               0.383522833               0.140971207               0.000000000               0.406818266               0.150276966               0.000000000               0.430113700               0.159582724               0.000000000               0.453409133               0.168888483               0.000000000               0.476704567               0.178194241               0.000000000               0.500000000               0.187500000               0.000000000               0.122875978               0.050896897               0.000000000               0.146446229               0.063340840               0.000000000               0.170016481               0.075784784               0.000000000               0.193586732               0.088228728               0.000000000               0.217156983               0.100672672               0.000000000               0.240727235               0.113116616               0.000000000               0.264297486               0.125560560               0.000000000               0.287867738               0.138004504               0.000000000               0.311437989               0.150448448               0.000000000               0.335008240               0.162892392               0.000000000               0.358578492               0.175336336               0.000000000               0.382148743               0.187780280               0.000000000               0.405718994               0.200224224               0.000000000               0.429289246               0.212668168               0.000000000               0.452859497               0.225112112               0.000000000               0.476429749               0.237556056               0.000000000               0.500000000               0.250000000               0.000000000               0.117295528               0.062695766               0.000000000               0.141214558               0.078308531               0.000000000               0.165133587               0.093921295               0.000000000               0.189052617               0.109534060               0.000000000               0.212971646               0.125146824               0.000000000               0.236890676               0.140759589               0.000000000               0.260809705               0.156372354               0.000000000               0.284728735               0.171985118               0.000000000               0.308647764               0.187597883               0.000000000               0.332566794               0.203210648               0.000000000               0.356485823               0.218823412               0.000000000               0.380404853               0.234436177               0.000000000               0.404323882               0.250048941               0.000000000               0.428242912               0.265661706               0.000000000               0.452161941               0.281274471               0.000000000               0.476080971               0.296887235               0.000000000               0.500000000               0.312500000               0.000000000               0.110585458               0.073890841               0.000000000               0.134923867               0.092710163               0.000000000               0.159262276               0.111529486               0.000000000               0.183600685               0.130348808               0.000000000               0.207939094               0.149168131               0.000000000               0.232277503               0.167987453               0.000000000               0.256615912               0.186806776               0.000000000               0.280954320               0.205626098               0.000000000               0.305292729               0.224445420               0.000000000               0.329631138               0.243264743               0.000000000               0.353969547               0.262084065               0.000000000               0.378307956               0.280903388               0.000000000               0.402646365               0.299722710               0.000000000               0.426984773               0.318542033               0.000000000               0.451323182               0.337361355               0.000000000               0.475661591               0.356180678               0.000000000               0.500000000               0.375000000               0.000000000               0.102810390               0.084374307               0.000000000               0.127634741               0.106444663               0.000000000               0.152459092               0.128515018               0.000000000               0.177283442               0.150585374               0.000000000               0.202107793               0.172655730               0.000000000               0.226932143               0.194726086               0.000000000               0.251756494               0.216796442               0.000000000               0.276580845               0.238866798               0.000000000               0.301405195               0.260937153               0.000000000               0.326229546               0.283007509               0.000000000               0.351053896               0.305077865               0.000000000               0.375878247               0.327148221               0.000000000               0.400702598               0.349218577               0.000000000               0.425526948               0.371288933               0.000000000               0.450351299               0.393359288               0.000000000               0.475175649               0.415429644               0.000000000               0.500000000               0.437500000               0.000000000               0.094045202               0.094045202               0.000000000               0.119417377               0.119417377               0.000000000               0.144789552               0.144789552               0.000000000               0.170161727               0.170161727               0.000000000               0.195533901               0.195533901               0.000000000               0.220906076               0.220906076               0.000000000               0.246278251               0.246278251               0.000000000               0.271650426               0.271650426               0.000000000               0.297022601               0.297022601               0.000000000               0.322394776               0.322394776               0.000000000               0.347766951               0.347766951               0.000000000               0.373139126               0.373139126               0.000000000               0.398511300               0.398511300               0.000000000               0.423883475               0.423883475               0.000000000               0.449255650               0.449255650               0.000000000               0.474627825               0.474627825               0.000000000               0.500000000               0.500000000               0.000000000               0.084374307               0.102810390               0.000000000               0.106444663               0.127634741               0.000000000               0.128515018               0.152459092               0.000000000               0.150585374               0.177283442               0.000000000               0.172655730               0.202107793               0.000000000               0.194726086               0.226932143               0.000000000               0.216796442               0.251756494               0.000000000               0.238866798               0.276580845               0.000000000               0.260937153               0.301405195               0.000000000               0.283007509               0.326229546               0.000000000               0.305077865               0.351053896               0.000000000               0.327148221               0.375878247               0.000000000               0.349218577               0.400702598               0.000000000               0.371288933               0.425526948               0.000000000               0.393359288               0.450351299               0.000000000               0.415429644               0.475175649               0.000000000               0.437500000               0.500000000               0.000000000               0.073890841               0.110585458               0.000000000               0.092710163               0.134923867               0.000000000               0.111529486               0.159262276               0.000000000               0.130348808               0.183600685               0.000000000               0.149168131               0.207939094               0.000000000               0.167987453               0.232277503               0.000000000               0.186806776               0.256615912               0.000000000               0.205626098               0.280954320               0.000000000               0.224445420               0.305292729               0.000000000               0.243264743               0.329631138               0.000000000               0.262084065               0.353969547               0.000000000               0.280903388               0.378307956               0.000000000               0.299722710               0.402646365               0.000000000               0.318542033               0.426984773               0.000000000               0.337361355               0.451323182               0.000000000               0.356180678               0.475661591               0.000000000               0.375000000               0.500000000               0.000000000               0.062695766               0.117295528               0.000000000               0.078308531               0.141214558               0.000000000               0.093921295               0.165133587               0.000000000               0.109534060               0.189052617               0.000000000               0.125146824               0.212971646               0.000000000               0.140759589               0.236890676               0.000000000               0.156372354               0.260809705               0.000000000               0.171985118               0.284728735               0.000000000               0.187597883               0.308647764               0.000000000               0.203210648               0.332566794               0.000000000               0.218823412               0.356485823               0.000000000               0.234436177               0.380404853               0.000000000               0.250048941               0.404323882               0.000000000               0.265661706               0.428242912               0.000000000               0.281274471               0.452161941               0.000000000               0.296887235               0.476080971               0.000000000               0.312500000               0.500000000               0.000000000               0.050896897               0.122875978               0.000000000               0.063340840               0.146446229               0.000000000               0.075784784               0.170016481               0.000000000               0.088228728               0.193586732               0.000000000               0.100672672               0.217156983               0.000000000               0.113116616               0.240727235               0.000000000               0.125560560               0.264297486               0.000000000               0.138004504               0.287867738               0.000000000               0.150448448               0.311437989               0.000000000               0.162892392               0.335008240               0.000000000               0.175336336               0.358578492               0.000000000               0.187780280               0.382148743               0.000000000               0.200224224               0.405718994               0.000000000               0.212668168               0.429289246               0.000000000               0.225112112               0.452859497               0.000000000               0.237556056               0.476429749               0.000000000               0.250000000               0.500000000               0.000000000               0.038607862               0.127273065               0.000000000               0.047913621               0.150568498               0.000000000               0.057219379               0.173863932               0.000000000               0.066525138               0.197159365               0.000000000               0.075830897               0.220454798               0.000000000               0.085136655               0.243750232               0.000000000               0.094442414               0.267045665               0.000000000               0.103748172               0.290341099               0.000000000               0.113053931               0.313636532               0.000000000               0.122359690               0.336931966               0.000000000               0.131665448               0.360227399               0.000000000               0.140971207               0.383522833               0.000000000               0.150276966               0.406818266               0.000000000               0.159582724               0.430113700               0.000000000               0.168888483               0.453409133               0.000000000               0.178194241               0.476704567               0.000000000               0.187500000               0.500000000               0.000000000               0.025947013               0.130444442               0.000000000               0.032137825               0.153541665               0.000000000               0.038328636               0.176638887               0.000000000               0.044519448               0.199736109               0.000000000               0.050710260               0.222833332               0.000000000               0.056901071               0.245930554               0.000000000               0.063091883               0.269027776               0.000000000               0.069282695               0.292124999               0.000000000               0.075473506               0.315222221               0.000000000               0.081664318               0.338319444               0.000000000               0.087855130               0.361416666               0.000000000               0.094045942               0.384513888               0.000000000               0.100236753               0.407611111               0.000000000               0.106427565               0.430708333               0.000000000               0.112618377               0.453805555               0.000000000               0.118809188               0.476902778               0.000000000               0.125000000               0.500000000               0.000000000               0.013036280               0.132359569               0.000000000               0.016127762               0.155337096               0.000000000               0.019219245               0.178314623               0.000000000               0.022310727               0.201292150               0.000000000               0.025402210               0.224269676               0.000000000               0.028493692               0.247247203               0.000000000               0.031585175               0.270224730               0.000000000               0.034676657               0.293202257               0.000000000               0.037768140               0.316179784               0.000000000               0.040859622               0.339157311               0.000000000               0.043951105               0.362134838               0.000000000               0.047042587               0.385112365               0.000000000               0.050134070               0.408089892               0.000000000               0.053225552               0.431067419               0.000000000               0.056317035               0.454044946               0.000000000               0.059408517               0.477022473               0.000000000               0.062500000               0.500000000               0.000000000               0.000000000               0.133000000               0.000000000               0.000000000               0.155937500               0.000000000               0.000000000               0.178875000               0.000000000               0.000000000               0.201812500               0.000000000               0.000000000               0.224750000               0.000000000               0.000000000               0.247687500               0.000000000               0.000000000               0.270625000               0.000000000               0.000000000               0.293562500               0.000000000               0.000000000               0.316500000               0.000000000               0.000000000               0.339437500               0.000000000               0.000000000               0.362375000               0.000000000               0.000000000               0.385312500               0.000000000               0.000000000               0.408250000               0.000000000               0.000000000               0.431187500               0.000000000               0.000000000               0.454125000               0.000000000               0.000000000               0.477062500               0.000000000               0.000000000               0.500000000               0.000000000               0.133000000               0.000000000               0.000000000               0.155937500               0.000000000               0.000000000               0.178875000               0.000000000               0.000000000               0.201812500               0.000000000               0.000000000               0.224750000               0.000000000               0.000000000               0.247687500               0.000000000               0.000000000               0.270625000               0.000000000               0.000000000               0.293562500               0.000000000               0.000000000               0.316500000               0.000000000               0.000000000               0.339437500               0.000000000               0.000000000               0.362375000               0.000000000               0.000000000               0.385312500               0.000000000               0.000000000               0.408250000               0.000000000               0.000000000               0.431187500               0.000000000               0.000000000               0.454125000               0.000000000               0.000000000               0.477062500               0.000000000               0.000000000               0.500000000               0.000000000               0.000000000               0.132359569              -0.013036280               0.000000000               0.155337096              -0.016127762               0.000000000               0.178314623              -0.019219245               0.000000000               0.201292150              -0.022310727               0.000000000               0.224269676              -0.025402210               0.000000000               0.247247203              -0.028493692               0.000000000               0.270224730              -0.031585175               0.000000000               0.293202257              -0.034676657               0.000000000               0.316179784              -0.037768140               0.000000000               0.339157311              -0.040859622               0.000000000               0.362134838              -0.043951105               0.000000000               0.385112365              -0.047042587               0.000000000               0.408089892              -0.050134070               0.000000000               0.431067419              -0.053225552               0.000000000               0.454044946              -0.056317035               0.000000000               0.477022473              -0.059408517               0.000000000               0.500000000              -0.062500000               0.000000000               0.130444442              -0.025947013               0.000000000               0.153541665              -0.032137825               0.000000000               0.176638887              -0.038328636               0.000000000               0.199736109              -0.044519448               0.000000000               0.222833332              -0.050710260               0.000000000               0.245930554              -0.056901071               0.000000000               0.269027776              -0.063091883               0.000000000               0.292124999              -0.069282695               0.000000000               0.315222221              -0.075473506               0.000000000               0.338319444              -0.081664318               0.000000000               0.361416666              -0.087855130               0.000000000               0.384513888              -0.094045942               0.000000000               0.407611111              -0.100236753               0.000000000               0.430708333              -0.106427565               0.000000000               0.453805555              -0.112618377               0.000000000               0.476902778              -0.118809188               0.000000000               0.500000000              -0.125000000               0.000000000               0.127273065              -0.038607862               0.000000000               0.150568498              -0.047913621               0.000000000               0.173863932              -0.057219379               0.000000000               0.197159365              -0.066525138               0.000000000               0.220454798              -0.075830897               0.000000000               0.243750232              -0.085136655               0.000000000               0.267045665              -0.094442414               0.000000000               0.290341099              -0.103748172               0.000000000               0.313636532              -0.113053931               0.000000000               0.336931966              -0.122359690               0.000000000               0.360227399              -0.131665448               0.000000000               0.383522833              -0.140971207               0.000000000               0.406818266              -0.150276966               0.000000000               0.430113700              -0.159582724               0.000000000               0.453409133              -0.168888483               0.000000000               0.476704567              -0.178194241               0.000000000               0.500000000              -0.187500000               0.000000000               0.122875978              -0.050896897               0.000000000               0.146446229              -0.063340840               0.000000000               0.170016481              -0.075784784               0.000000000               0.193586732              -0.088228728               0.000000000               0.217156983              -0.100672672               0.000000000               0.240727235              -0.113116616               0.000000000               0.264297486              -0.125560560               0.000000000               0.287867738              -0.138004504               0.000000000               0.311437989              -0.150448448               0.000000000               0.335008240              -0.162892392               0.000000000               0.358578492              -0.175336336               0.000000000               0.382148743              -0.187780280               0.000000000               0.405718994              -0.200224224               0.000000000               0.429289246              -0.212668168               0.000000000               0.452859497              -0.225112112               0.000000000               0.476429749              -0.237556056               0.000000000               0.500000000              -0.250000000               0.000000000               0.117295528              -0.062695766               0.000000000               0.141214558              -0.078308531               0.000000000               0.165133587              -0.093921295               0.000000000               0.189052617              -0.109534060               0.000000000               0.212971646              -0.125146824               0.000000000               0.236890676              -0.140759589               0.000000000               0.260809705              -0.156372354               0.000000000               0.284728735              -0.171985118               0.000000000               0.308647764              -0.187597883               0.000000000               0.332566794              -0.203210648               0.000000000               0.356485823              -0.218823412               0.000000000               0.380404853              -0.234436177               0.000000000               0.404323882              -0.250048941               0.000000000               0.428242912              -0.265661706               0.000000000               0.452161941              -0.281274471               0.000000000               0.476080971              -0.296887235               0.000000000               0.500000000              -0.312500000               0.000000000               0.110585458              -0.073890841               0.000000000               0.134923867              -0.092710163               0.000000000               0.159262276              -0.111529486               0.000000000               0.183600685              -0.130348808               0.000000000               0.207939094              -0.149168131               0.000000000               0.232277503              -0.167987453               0.000000000               0.256615912              -0.186806776               0.000000000               0.280954320              -0.205626098               0.000000000               0.305292729              -0.224445420               0.000000000               0.329631138              -0.243264743               0.000000000               0.353969547              -0.262084065               0.000000000               0.378307956              -0.280903388               0.000000000               0.402646365              -0.299722710               0.000000000               0.426984773              -0.318542033               0.000000000               0.451323182              -0.337361355               0.000000000               0.475661591              -0.356180678               0.000000000               0.500000000              -0.375000000               0.000000000               0.102810390              -0.084374307               0.000000000               0.127634741              -0.106444663               0.000000000               0.152459092              -0.128515018               0.000000000               0.177283442              -0.150585374               0.000000000               0.202107793              -0.172655730               0.000000000               0.226932143              -0.194726086               0.000000000               0.251756494              -0.216796442               0.000000000               0.276580845              -0.238866798               0.000000000               0.301405195              -0.260937153               0.000000000               0.326229546              -0.283007509               0.000000000               0.351053896              -0.305077865               0.000000000               0.375878247              -0.327148221               0.000000000               0.400702598              -0.349218577               0.000000000               0.425526948              -0.371288933               0.000000000               0.450351299              -0.393359288               0.000000000               0.475175649              -0.415429644               0.000000000               0.500000000              -0.437500000               0.000000000               0.094045202              -0.094045202               0.000000000               0.119417377              -0.119417377               0.000000000               0.144789552              -0.144789552               0.000000000               0.170161727              -0.170161727               0.000000000               0.195533901              -0.195533901               0.000000000               0.220906076              -0.220906076               0.000000000               0.246278251              -0.246278251               0.000000000               0.271650426              -0.271650426               0.000000000               0.297022601              -0.297022601               0.000000000               0.322394776              -0.322394776               0.000000000               0.347766951              -0.347766951               0.000000000               0.373139126              -0.373139126               0.000000000               0.398511300              -0.398511300               0.000000000               0.423883475              -0.423883475               0.000000000               0.449255650              -0.449255650               0.000000000               0.474627825              -0.474627825               0.000000000               0.500000000              -0.500000000               0.000000000               0.084374307              -0.102810390               0.000000000               0.106444663              -0.127634741               0.000000000               0.128515018              -0.152459092               0.000000000               0.150585374              -0.177283442               0.000000000               0.172655730              -0.202107793               0.000000000               0.194726086              -0.226932143               0.000000000               0.216796442              -0.251756494               0.000000000               0.238866798              -0.276580845               0.000000000               0.260937153              -0.301405195               0.000000000               0.283007509              -0.326229546               0.000000000               0.305077865              -0.351053896               0.000000000               0.327148221              -0.375878247               0.000000000               0.349218577              -0.400702598               0.000000000               0.371288933              -0.425526948               0.000000000               0.393359288              -0.450351299               0.000000000               0.415429644              -0.475175649               0.000000000               0.437500000              -0.500000000               0.000000000               0.073890841              -0.110585458               0.000000000               0.092710163              -0.134923867               0.000000000               0.111529486              -0.159262276               0.000000000               0.130348808              -0.183600685               0.000000000               0.149168131              -0.207939094               0.000000000               0.167987453              -0.232277503               0.000000000               0.186806776              -0.256615912               0.000000000               0.205626098              -0.280954320               0.000000000               0.224445420              -0.305292729               0.000000000               0.243264743              -0.329631138               0.000000000               0.262084065              -0.353969547               0.000000000               0.280903388              -0.378307956               0.000000000               0.299722710              -0.402646365               0.000000000               0.318542033              -0.426984773               0.000000000               0.337361355              -0.451323182               0.000000000               0.356180678              -0.475661591               0.000000000               0.375000000              -0.500000000               0.000000000               0.062695766              -0.117295528               0.000000000               0.078308531              -0.141214558               0.000000000               0.093921295              -0.165133587               0.000000000               0.109534060              -0.189052617               0.000000000               0.125146824              -0.212971646               0.000000000               0.140759589              -0.236890676               0.000000000               0.156372354              -0.260809705               0.000000000               0.171985118              -0.284728735               0.000000000               0.187597883              -0.308647764               0.000000000               0.203210648              -0.332566794               0.000000000               0.218823412              -0.356485823               0.000000000               0.234436177              -0.380404853               0.000000000               0.250048941              -0.404323882               0.000000000               0.265661706              -0.428242912               0.000000000               0.281274471              -0.452161941               0.000000000               0.296887235              -0.476080971               0.000000000               0.312500000              -0.500000000               0.000000000               0.050896897              -0.122875978               0.000000000               0.063340840              -0.146446229               0.000000000               0.075784784              -0.170016481               0.000000000               0.088228728              -0.193586732               0.000000000               0.100672672              -0.217156983               0.000000000               0.113116616              -0.240727235               0.000000000               0.125560560              -0.264297486               0.000000000               0.138004504              -0.287867738               0.000000000               0.150448448              -0.311437989               0.000000000               0.162892392              -0.335008240               0.000000000               0.175336336              -0.358578492               0.000000000               0.187780280              -0.382148743               0.000000000               0.200224224              -0.405718994               0.000000000               0.212668168              -0.429289246               0.000000000               0.225112112              -0.452859497               0.000000000               0.237556056              -0.476429749               0.000000000               0.250000000              -0.500000000               0.000000000               0.038607862              -0.127273065               0.000000000               0.047913621              -0.150568498               0.000000000               0.057219379              -0.173863932               0.000000000               0.066525138              -0.197159365               0.000000000               0.075830897              -0.220454798               0.000000000               0.085136655              -0.243750232               0.000000000               0.094442414              -0.267045665               0.000000000               0.103748172              -0.290341099               0.000000000               0.113053931              -0.313636532               0.000000000               0.122359690              -0.336931966               0.000000000               0.131665448              -0.360227399               0.000000000               0.140971207              -0.383522833               0.000000000               0.150276966              -0.406818266               0.000000000               0.159582724              -0.430113700               0.000000000               0.168888483              -0.453409133               0.000000000               0.178194241              -0.476704567               0.000000000               0.187500000              -0.500000000               0.000000000               0.025947013              -0.130444442               0.000000000               0.032137825              -0.153541665               0.000000000               0.038328636              -0.176638887               0.000000000               0.044519448              -0.199736109               0.000000000               0.050710260              -0.222833332               0.000000000               0.056901071              -0.245930554               0.000000000               0.063091883              -0.269027776               0.000000000               0.069282695              -0.292124999               0.000000000               0.075473506              -0.315222221               0.000000000               0.081664318              -0.338319444               0.000000000               0.087855130              -0.361416666               0.000000000               0.094045942              -0.384513888               0.000000000               0.100236753              -0.407611111               0.000000000               0.106427565              -0.430708333               0.000000000               0.112618377              -0.453805555               0.000000000               0.118809188              -0.476902778               0.000000000               0.125000000              -0.500000000               0.000000000               0.013036280              -0.132359569               0.000000000               0.016127762              -0.155337096               0.000000000               0.019219245              -0.178314623               0.000000000               0.022310727              -0.201292150               0.000000000               0.025402210              -0.224269676               0.000000000               0.028493692              -0.247247203               0.000000000               0.031585175              -0.270224730               0.000000000               0.034676657              -0.293202257               0.000000000               0.037768140              -0.316179784               0.000000000               0.040859622              -0.339157311               0.000000000               0.043951105              -0.362134838               0.000000000               0.047042587              -0.385112365               0.000000000               0.050134070              -0.408089892               0.000000000               0.053225552              -0.431067419               0.000000000               0.056317035              -0.454044946               0.000000000               0.059408517              -0.477022473               0.000000000               0.062500000              -0.500000000               0.000000000               0.000000000              -0.133000000               0.000000000               0.000000000              -0.155937500               0.000000000               0.000000000              -0.178875000               0.000000000               0.000000000              -0.201812500               0.000000000               0.000000000              -0.224750000               0.000000000               0.000000000              -0.247687500               0.000000000               0.000000000              -0.270625000               0.000000000               0.000000000              -0.293562500               0.000000000               0.000000000              -0.316500000               0.000000000               0.000000000              -0.339437500               0.000000000               0.000000000              -0.362375000               0.000000000               0.000000000              -0.385312500               0.000000000               0.000000000              -0.408250000               0.000000000               0.000000000              -0.431187500               0.000000000               0.000000000              -0.454125000               0.000000000               0.000000000              -0.477062500               0.000000000               0.000000000              -0.500000000               0.000000000              -0.133000000               0.000000000               0.000000000              -0.155937500               0.000000000               0.000000000              -0.178875000               0.000000000               0.000000000              -0.201812500               0.000000000               0.000000000              -0.224750000               0.000000000               0.000000000              -0.247687500               0.000000000               0.000000000              -0.270625000               0.000000000               0.000000000              -0.293562500               0.000000000               0.000000000              -0.316500000               0.000000000               0.000000000              -0.339437500               0.000000000               0.000000000              -0.362375000               0.000000000               0.000000000              -0.385312500               0.000000000               0.000000000              -0.408250000               0.000000000               0.000000000              -0.431187500               0.000000000               0.000000000              -0.454125000               0.000000000               0.000000000              -0.477062500               0.000000000               0.000000000              -0.500000000               0.000000000               0.000000000              -0.132359569              -0.013036280               0.000000000              -0.155337096              -0.016127762               0.000000000              -0.178314623              -0.019219245               0.000000000              -0.201292150              -0.022310727               0.000000000              -0.224269676              -0.025402210               0.000000000              -0.247247203              -0.028493692               0.000000000              -0.270224730              -0.031585175               0.000000000              -0.293202257              -0.034676657               0.000000000              -0.316179784              -0.037768140               0.000000000              -0.339157311              -0.040859622               0.000000000              -0.362134838              -0.043951105               0.000000000              -0.385112365              -0.047042587               0.000000000              -0.408089892              -0.050134070               0.000000000              -0.431067419              -0.053225552               0.000000000              -0.454044946              -0.056317035               0.000000000              -0.477022473              -0.059408517               0.000000000              -0.500000000              -0.062500000               0.000000000              -0.130444442              -0.025947013               0.000000000              -0.153541665              -0.032137825               0.000000000              -0.176638887              -0.038328636               0.000000000              -0.199736109              -0.044519448               0.000000000              -0.222833332              -0.050710260               0.000000000              -0.245930554              -0.056901071               0.000000000              -0.269027776              -0.063091883               0.000000000              -0.292124999              -0.069282695               0.000000000              -0.315222221              -0.075473506               0.000000000              -0.338319444              -0.081664318               0.000000000              -0.361416666              -0.087855130               0.000000000              -0.384513888              -0.094045942               0.000000000              -0.407611111              -0.100236753               0.000000000              -0.430708333              -0.106427565               0.000000000              -0.453805555              -0.112618377               0.000000000              -0.476902778              -0.118809188               0.000000000              -0.500000000              -0.125000000               0.000000000              -0.127273065              -0.038607862               0.000000000              -0.150568498              -0.047913621               0.000000000              -0.173863932              -0.057219379               0.000000000              -0.197159365              -0.066525138               0.000000000              -0.220454798              -0.075830897               0.000000000              -0.243750232              -0.085136655               0.000000000              -0.267045665              -0.094442414               0.000000000              -0.290341099              -0.103748172               0.000000000              -0.313636532              -0.113053931               0.000000000              -0.336931966              -0.122359690               0.000000000              -0.360227399              -0.131665448               0.000000000              -0.383522833              -0.140971207               0.000000000              -0.406818266              -0.150276966               0.000000000              -0.430113700              -0.159582724               0.000000000              -0.453409133              -0.168888483               0.000000000              -0.476704567              -0.178194241               0.000000000              -0.500000000              -0.187500000               0.000000000              -0.122875978              -0.050896897               0.000000000              -0.146446229              -0.063340840               0.000000000              -0.170016481              -0.075784784               0.000000000              -0.193586732              -0.088228728               0.000000000              -0.217156983              -0.100672672               0.000000000              -0.240727235              -0.113116616               0.000000000              -0.264297486              -0.125560560               0.000000000              -0.287867738              -0.138004504               0.000000000              -0.311437989              -0.150448448               0.000000000              -0.335008240              -0.162892392               0.000000000              -0.358578492              -0.175336336               0.000000000              -0.382148743              -0.187780280               0.000000000              -0.405718994              -0.200224224               0.000000000              -0.429289246              -0.212668168               0.000000000              -0.452859497              -0.225112112               0.000000000              -0.476429749              -0.237556056               0.000000000              -0.500000000              -0.250000000               0.000000000              -0.117295528              -0.062695766               0.000000000              -0.141214558              -0.078308531               0.000000000              -0.165133587              -0.093921295               0.000000000              -0.189052617              -0.109534060               0.000000000              -0.212971646              -0.125146824               0.000000000              -0.236890676              -0.140759589               0.000000000              -0.260809705              -0.156372354               0.000000000              -0.284728735              -0.171985118               0.000000000              -0.308647764              -0.187597883               0.000000000              -0.332566794              -0.203210648               0.000000000              -0.356485823              -0.218823412               0.000000000              -0.380404853              -0.234436177               0.000000000              -0.404323882              -0.250048941               0.000000000              -0.428242912              -0.265661706               0.000000000              -0.452161941              -0.281274471               0.000000000              -0.476080971              -0.296887235               0.000000000              -0.500000000              -0.312500000               0.000000000              -0.110585458              -0.073890841               0.000000000              -0.134923867              -0.092710163               0.000000000              -0.159262276              -0.111529486               0.000000000              -0.183600685              -0.130348808               0.000000000              -0.207939094              -0.149168131               0.000000000              -0.232277503              -0.167987453               0.000000000              -0.256615912              -0.186806776               0.000000000              -0.280954320              -0.205626098               0.000000000              -0.305292729              -0.224445420               0.000000000              -0.329631138              -0.243264743               0.000000000              -0.353969547              -0.262084065               0.000000000              -0.378307956              -0.280903388               0.000000000              -0.402646365              -0.299722710               0.000000000              -0.426984773              -0.318542033               0.000000000              -0.451323182              -0.337361355               0.000000000              -0.475661591              -0.356180678               0.000000000              -0.500000000              -0.375000000               0.000000000              -0.102810390              -0.084374307               0.000000000              -0.127634741              -0.106444663               0.000000000              -0.152459092              -0.128515018               0.000000000              -0.177283442              -0.150585374               0.000000000              -0.202107793              -0.172655730               0.000000000              -0.226932143              -0.194726086               0.000000000              -0.251756494              -0.216796442               0.000000000              -0.276580845              -0.238866798               0.000000000              -0.301405195              -0.260937153               0.000000000              -0.326229546              -0.283007509               0.000000000              -0.351053896              -0.305077865               0.000000000              -0.375878247              -0.327148221               0.000000000              -0.400702598              -0.349218577               0.000000000              -0.425526948              -0.371288933               0.000000000              -0.450351299              -0.393359288               0.000000000              -0.475175649              -0.415429644               0.000000000              -0.500000000              -0.437500000               0.000000000              -0.094045202              -0.094045202               0.000000000              -0.119417377              -0.119417377               0.000000000              -0.144789552              -0.144789552               0.000000000              -0.170161727              -0.170161727               0.000000000              -0.195533901              -0.195533901               0.000000000              -0.220906076              -0.220906076               0.000000000              -0.246278251              -0.246278251               0.000000000              -0.271650426              -0.271650426               0.000000000              -0.297022601              -0.297022601               0.000000000              -0.322394776              -0.322394776               0.000000000              -0.347766951              -0.347766951               0.000000000              -0.373139126              -0.373139126               0.000000000              -0.398511300              -0.398511300               0.000000000              -0.423883475              -0.423883475               0.000000000              -0.449255650              -0.449255650               0.000000000              -0.474627825              -0.474627825               0.000000000              -0.500000000              -0.500000000               0.000000000              -0.084374307              -0.102810390               0.000000000              -0.106444663              -0.127634741               0.000000000              -0.128515018              -0.152459092               0.000000000              -0.150585374              -0.177283442               0.000000000              -0.172655730              -0.202107793               0.000000000              -0.194726086              -0.226932143               0.000000000              -0.216796442              -0.251756494               0.000000000              -0.238866798              -0.276580845               0.000000000              -0.260937153              -0.301405195               0.000000000              -0.283007509              -0.326229546               0.000000000              -0.305077865              -0.351053896               0.000000000              -0.327148221              -0.375878247               0.000000000              -0.349218577              -0.400702598               0.000000000              -0.371288933              -0.425526948               0.000000000              -0.393359288              -0.450351299               0.000000000              -0.415429644              -0.475175649               0.000000000              -0.437500000              -0.500000000               0.000000000              -0.073890841              -0.110585458               0.000000000              -0.092710163              -0.134923867               0.000000000              -0.111529486              -0.159262276               0.000000000              -0.130348808              -0.183600685               0.000000000              -0.149168131              -0.207939094               0.000000000              -0.167987453              -0.232277503               0.000000000              -0.186806776              -0.256615912               0.000000000              -0.205626098              -0.280954320               0.000000000              -0.224445420              -0.305292729               0.000000000              -0.243264743              -0.329631138               0.000000000              -0.262084065              -0.353969547               0.000000000              -0.280903388              -0.378307956               0.000000000              -0.299722710              -0.402646365               0.000000000              -0.318542033              -0.426984773               0.000000000              -0.337361355              -0.451323182               0.000000000              -0.356180678              -0.475661591               0.000000000              -0.375000000              -0.500000000               0.000000000              -0.062695766              -0.117295528               0.000000000              -0.078308531              -0.141214558               0.000000000              -0.093921295              -0.165133587               0.000000000              -0.109534060              -0.189052617               0.000000000              -0.125146824              -0.212971646               0.000000000              -0.140759589              -0.236890676               0.000000000              -0.156372354              -0.260809705               0.000000000              -0.171985118              -0.284728735               0.000000000              -0.187597883              -0.308647764               0.000000000              -0.203210648              -0.332566794               0.000000000              -0.218823412              -0.356485823               0.000000000              -0.234436177              -0.380404853               0.000000000              -0.250048941              -0.404323882               0.000000000              -0.265661706              -0.428242912               0.000000000              -0.281274471              -0.452161941               0.000000000              -0.296887235              -0.476080971               0.000000000              -0.312500000              -0.500000000               0.000000000              -0.050896897              -0.122875978               0.000000000              -0.063340840              -0.146446229               0.000000000              -0.075784784              -0.170016481               0.000000000              -0.088228728              -0.193586732               0.000000000              -0.100672672              -0.217156983               0.000000000              -0.113116616              -0.240727235               0.000000000              -0.125560560              -0.264297486               0.000000000              -0.138004504              -0.287867738               0.000000000              -0.150448448              -0.311437989               0.000000000              -0.162892392              -0.335008240               0.000000000              -0.175336336              -0.358578492               0.000000000              -0.187780280              -0.382148743               0.000000000              -0.200224224              -0.405718994               0.000000000              -0.212668168              -0.429289246               0.000000000              -0.225112112              -0.452859497               0.000000000              -0.237556056              -0.476429749               0.000000000              -0.250000000              -0.500000000               0.000000000              -0.038607862              -0.127273065               0.000000000              -0.047913621              -0.150568498               0.000000000              -0.057219379              -0.173863932               0.000000000              -0.066525138              -0.197159365               0.000000000              -0.075830897              -0.220454798               0.000000000              -0.085136655              -0.243750232               0.000000000              -0.094442414              -0.267045665               0.000000000              -0.103748172              -0.290341099               0.000000000              -0.113053931              -0.313636532               0.000000000              -0.122359690              -0.336931966               0.000000000              -0.131665448              -0.360227399               0.000000000              -0.140971207              -0.383522833               0.000000000              -0.150276966              -0.406818266               0.000000000              -0.159582724              -0.430113700               0.000000000              -0.168888483              -0.453409133               0.000000000              -0.178194241              -0.476704567               0.000000000              -0.187500000              -0.500000000               0.000000000              -0.025947013              -0.130444442               0.000000000              -0.032137825              -0.153541665               0.000000000              -0.038328636              -0.176638887               0.000000000              -0.044519448              -0.199736109               0.000000000              -0.050710260              -0.222833332               0.000000000              -0.056901071              -0.245930554               0.000000000              -0.063091883              -0.269027776               0.000000000              -0.069282695              -0.292124999               0.000000000              -0.075473506              -0.315222221               0.000000000              -0.081664318              -0.338319444               0.000000000              -0.087855130              -0.361416666               0.000000000              -0.094045942              -0.384513888               0.000000000              -0.100236753              -0.407611111               0.000000000              -0.106427565              -0.430708333               0.000000000              -0.112618377              -0.453805555               0.000000000              -0.118809188              -0.476902778               0.000000000              -0.125000000              -0.500000000               0.000000000              -0.013036280              -0.132359569               0.000000000              -0.016127762              -0.155337096               0.000000000              -0.019219245              -0.178314623               0.000000000              -0.022310727              -0.201292150               0.000000000              -0.025402210              -0.224269676               0.000000000              -0.028493692              -0.247247203               0.000000000              -0.031585175              -0.270224730               0.000000000              -0.034676657              -0.293202257               0.000000000              -0.037768140              -0.316179784               0.000000000              -0.040859622              -0.339157311               0.000000000              -0.043951105              -0.362134838               0.000000000              -0.047042587              -0.385112365               0.000000000              -0.050134070              -0.408089892               0.000000000              -0.053225552              -0.431067419               0.000000000              -0.056317035              -0.454044946               0.000000000              -0.059408517              -0.477022473               0.000000000              -0.062500000              -0.500000000               0.000000000               0.000000000              -0.133000000               0.000000000               0.000000000              -0.155937500               0.000000000               0.000000000              -0.178875000               0.000000000               0.000000000              -0.201812500               0.000000000               0.000000000              -0.224750000               0.000000000               0.000000000              -0.247687500               0.000000000               0.000000000              -0.270625000               0.000000000               0.000000000              -0.293562500               0.000000000               0.000000000              -0.316500000               0.000000000               0.000000000              -0.339437500               0.000000000               0.000000000              -0.362375000               0.000000000               0.000000000              -0.385312500               0.000000000               0.000000000              -0.408250000               0.000000000               0.000000000              -0.431187500               0.000000000               0.000000000              -0.454125000               0.000000000               0.000000000              -0.477062500               0.000000000               0.000000000              -0.500000000               0.000000000              -0.133000000               0.000000000               0.000000000              -0.155937500               0.000000000               0.000000000              -0.178875000               0.000000000               0.000000000              -0.201812500               0.000000000               0.000000000              -0.224750000               0.000000000               0.000000000              -0.247687500               0.000000000               0.000000000              -0.270625000               0.000000000               0.000000000              -0.293562500               0.000000000               0.000000000              -0.316500000               0.000000000               0.000000000              -0.339437500               0.000000000               0.000000000              -0.362375000               0.000000000               0.000000000              -0.385312500               0.000000000               0.000000000              -0.408250000               0.000000000               0.000000000              -0.431187500               0.000000000               0.000000000              -0.454125000               0.000000000               0.000000000              -0.477062500               0.000000000               0.000000000              -0.500000000               0.000000000               0.000000000              -0.132359569               0.013036280               0.000000000              -0.155337096               0.016127762               0.000000000              -0.178314623               0.019219245               0.000000000              -0.201292150               0.022310727               0.000000000              -0.224269676               0.025402210               0.000000000              -0.247247203               0.028493692               0.000000000              -0.270224730               0.031585175               0.000000000              -0.293202257               0.034676657               0.000000000              -0.316179784               0.037768140               0.000000000              -0.339157311               0.040859622               0.000000000              -0.362134838               0.043951105               0.000000000              -0.385112365               0.047042587               0.000000000              -0.408089892               0.050134070               0.000000000              -0.431067419               0.053225552               0.000000000              -0.454044946               0.056317035               0.000000000              -0.477022473               0.059408517               0.000000000              -0.500000000               0.062500000               0.000000000              -0.130444442               0.025947013               0.000000000              -0.153541665               0.032137825               0.000000000              -0.176638887               0.038328636               0.000000000              -0.199736109               0.044519448               0.000000000              -0.222833332               0.050710260               0.000000000              -0.245930554               0.056901071               0.000000000              -0.269027776               0.063091883               0.000000000              -0.292124999               0.069282695               0.000000000              -0.315222221               0.075473506               0.000000000              -0.338319444               0.081664318               0.000000000              -0.361416666               0.087855130               0.000000000              -0.384513888               0.094045942               0.000000000              -0.407611111               0.100236753               0.000000000              -0.430708333               0.106427565               0.000000000              -0.453805555               0.112618377               0.000000000              -0.476902778               0.118809188               0.000000000              -0.500000000               0.125000000               0.000000000              -0.127273065               0.038607862               0.000000000              -0.150568498               0.047913621               0.000000000              -0.173863932               0.057219379               0.000000000              -0.197159365               0.066525138               0.000000000              -0.220454798               0.075830897               0.000000000              -0.243750232               0.085136655               0.000000000              -0.267045665               0.094442414               0.000000000              -0.290341099               0.103748172               0.000000000              -0.313636532               0.113053931               0.000000000              -0.336931966               0.122359690               0.000000000              -0.360227399               0.131665448               0.000000000              -0.383522833               0.140971207               0.000000000              -0.406818266               0.150276966               0.000000000              -0.430113700               0.159582724               0.000000000              -0.453409133               0.168888483               0.000000000              -0.476704567               0.178194241               0.000000000              -0.500000000               0.187500000               0.000000000              -0.122875978               0.050896897               0.000000000              -0.146446229               0.063340840               0.000000000              -0.170016481               0.075784784               0.000000000              -0.193586732               0.088228728               0.000000000              -0.217156983               0.100672672               0.000000000              -0.240727235               0.113116616               0.000000000              -0.264297486               0.125560560               0.000000000              -0.287867738               0.138004504               0.000000000              -0.311437989               0.150448448               0.000000000              -0.335008240               0.162892392               0.000000000              -0.358578492               0.175336336               0.000000000              -0.382148743               0.187780280               0.000000000              -0.405718994               0.200224224               0.000000000              -0.429289246               0.212668168               0.000000000              -0.452859497               0.225112112               0.000000000              -0.476429749               0.237556056               0.000000000              -0.500000000               0.250000000               0.000000000              -0.117295528               0.062695766               0.000000000              -0.141214558               0.078308531               0.000000000              -0.165133587               0.093921295               0.000000000              -0.189052617               0.109534060               0.000000000              -0.212971646               0.125146824               0.000000000              -0.236890676               0.140759589               0.000000000              -0.260809705               0.156372354               0.000000000              -0.284728735               0.171985118               0.000000000              -0.308647764               0.187597883               0.000000000              -0.332566794               0.203210648               0.000000000              -0.356485823               0.218823412               0.000000000              -0.380404853               0.234436177               0.000000000              -0.404323882               0.250048941               0.000000000              -0.428242912               0.265661706               0.000000000              -0.452161941               0.281274471               0.000000000              -0.476080971               0.296887235               0.000000000              -0.500000000               0.312500000               0.000000000              -0.110585458               0.073890841               0.000000000              -0.134923867               0.092710163               0.000000000              -0.159262276               0.111529486               0.000000000              -0.183600685               0.130348808               0.000000000              -0.207939094               0.149168131               0.000000000              -0.232277503               0.167987453               0.000000000              -0.256615912               0.186806776               0.000000000              -0.280954320               0.205626098               0.000000000              -0.305292729               0.224445420               0.000000000              -0.329631138               0.243264743               0.000000000              -0.353969547               0.262084065               0.000000000              -0.378307956               0.280903388               0.000000000              -0.402646365               0.299722710               0.000000000              -0.426984773               0.318542033               0.000000000              -0.451323182               0.337361355               0.000000000              -0.475661591               0.356180678               0.000000000              -0.500000000               0.375000000               0.000000000              -0.102810390               0.084374307               0.000000000              -0.127634741               0.106444663               0.000000000              -0.152459092               0.128515018               0.000000000              -0.177283442               0.150585374               0.000000000              -0.202107793               0.172655730               0.000000000              -0.226932143               0.194726086               0.000000000              -0.251756494               0.216796442               0.000000000              -0.276580845               0.238866798               0.000000000              -0.301405195               0.260937153               0.000000000              -0.326229546               0.283007509               0.000000000              -0.351053896               0.305077865               0.000000000              -0.375878247               0.327148221               0.000000000              -0.400702598               0.349218577               0.000000000              -0.425526948               0.371288933               0.000000000              -0.450351299               0.393359288               0.000000000              -0.475175649               0.415429644               0.000000000              -0.500000000               0.437500000               0.000000000              -0.094045202               0.094045202               0.000000000              -0.119417377               0.119417377               0.000000000              -0.144789552               0.144789552               0.000000000              -0.170161727               0.170161727               0.000000000              -0.195533901               0.195533901               0.000000000              -0.220906076               0.220906076               0.000000000              -0.246278251               0.246278251               0.000000000              -0.271650426               0.271650426               0.000000000              -0.297022601               0.297022601               0.000000000              -0.322394776               0.322394776               0.000000000              -0.347766951               0.347766951               0.000000000              -0.373139126               0.373139126               0.000000000              -0.398511300               0.398511300               0.000000000              -0.423883475               0.423883475               0.000000000              -0.449255650               0.449255650               0.000000000              -0.474627825               0.474627825               0.000000000              -0.500000000               0.500000000               0.000000000              -0.084374307               0.102810390               0.000000000              -0.106444663               0.127634741               0.000000000              -0.128515018               0.152459092               0.000000000              -0.150585374               0.177283442               0.000000000              -0.172655730               0.202107793               0.000000000              -0.194726086               0.226932143               0.000000000              -0.216796442               0.251756494               0.000000000              -0.238866798               0.276580845               0.000000000              -0.260937153               0.301405195               0.000000000              -0.283007509               0.326229546               0.000000000              -0.305077865               0.351053896               0.000000000              -0.327148221               0.375878247               0.000000000              -0.349218577               0.400702598               0.000000000              -0.371288933               0.425526948               0.000000000              -0.393359288               0.450351299               0.000000000              -0.415429644               0.475175649               0.000000000              -0.437500000               0.500000000               0.000000000              -0.073890841               0.110585458               0.000000000              -0.092710163               0.134923867               0.000000000              -0.111529486               0.159262276               0.000000000              -0.130348808               0.183600685               0.000000000              -0.149168131               0.207939094               0.000000000              -0.167987453               0.232277503               0.000000000              -0.186806776               0.256615912               0.000000000              -0.205626098               0.280954320               0.000000000              -0.224445420               0.305292729               0.000000000              -0.243264743               0.329631138               0.000000000              -0.262084065               0.353969547               0.000000000              -0.280903388               0.378307956               0.000000000              -0.299722710               0.402646365               0.000000000              -0.318542033               0.426984773               0.000000000              -0.337361355               0.451323182               0.000000000              -0.356180678               0.475661591               0.000000000              -0.375000000               0.500000000               0.000000000              -0.062695766               0.117295528               0.000000000              -0.078308531               0.141214558               0.000000000              -0.093921295               0.165133587               0.000000000              -0.109534060               0.189052617               0.000000000              -0.125146824               0.212971646               0.000000000              -0.140759589               0.236890676               0.000000000              -0.156372354               0.260809705               0.000000000              -0.171985118               0.284728735               0.000000000              -0.187597883               0.308647764               0.000000000              -0.203210648               0.332566794               0.000000000              -0.218823412               0.356485823               0.000000000              -0.234436177               0.380404853               0.000000000              -0.250048941               0.404323882               0.000000000              -0.265661706               0.428242912               0.000000000              -0.281274471               0.452161941               0.000000000              -0.296887235               0.476080971               0.000000000              -0.312500000               0.500000000               0.000000000              -0.050896897               0.122875978               0.000000000              -0.063340840               0.146446229               0.000000000              -0.075784784               0.170016481               0.000000000              -0.088228728               0.193586732               0.000000000              -0.100672672               0.217156983               0.000000000              -0.113116616               0.240727235               0.000000000              -0.125560560               0.264297486               0.000000000              -0.138004504               0.287867738               0.000000000              -0.150448448               0.311437989               0.000000000              -0.162892392               0.335008240               0.000000000              -0.175336336               0.358578492               0.000000000              -0.187780280               0.382148743               0.000000000              -0.200224224               0.405718994               0.000000000              -0.212668168               0.429289246               0.000000000              -0.225112112               0.452859497               0.000000000              -0.237556056               0.476429749               0.000000000              -0.250000000               0.500000000               0.000000000              -0.038607862               0.127273065               0.000000000              -0.047913621               0.150568498               0.000000000              -0.057219379               0.173863932               0.000000000              -0.066525138               0.197159365               0.000000000              -0.075830897               0.220454798               0.000000000              -0.085136655               0.243750232               0.000000000              -0.094442414               0.267045665               0.000000000              -0.103748172               0.290341099               0.000000000              -0.113053931               0.313636532               0.000000000              -0.122359690               0.336931966               0.000000000              -0.131665448               0.360227399               0.000000000              -0.140971207               0.383522833               0.000000000              -0.150276966               0.406818266               0.000000000              -0.159582724               0.430113700               0.000000000              -0.168888483               0.453409133               0.000000000              -0.178194241               0.476704567               0.000000000              -0.187500000               0.500000000               0.000000000              -0.025947013               0.130444442               0.000000000              -0.032137825               0.153541665               0.000000000              -0.038328636               0.176638887               0.000000000              -0.044519448               0.199736109               0.000000000              -0.050710260               0.222833332               0.000000000              -0.056901071               0.245930554               0.000000000              -0.063091883               0.269027776               0.000000000              -0.069282695               0.292124999               0.000000000              -0.075473506               0.315222221               0.000000000              -0.081664318               0.338319444               0.000000000              -0.087855130               0.361416666               0.000000000              -0.094045942               0.384513888               0.000000000              -0.100236753               0.407611111               0.000000000              -0.106427565               0.430708333               0.000000000              -0.112618377               0.453805555               0.000000000              -0.118809188               0.476902778               0.000000000              -0.125000000               0.500000000               0.000000000              -0.013036280               0.132359569               0.000000000              -0.016127762               0.155337096               0.000000000              -0.019219245               0.178314623               0.000000000              -0.022310727               0.201292150               0.000000000              -0.025402210               0.224269676               0.000000000              -0.028493692               0.247247203               0.000000000              -0.031585175               0.270224730               0.000000000              -0.034676657               0.293202257               0.000000000              -0.037768140               0.316179784               0.000000000              -0.040859622               0.339157311               0.000000000              -0.043951105               0.362134838               0.000000000              -0.047042587               0.385112365               0.000000000              -0.050134070               0.408089892               0.000000000              -0.053225552               0.431067419               0.000000000              -0.056317035               0.454044946               0.000000000              -0.059408517               0.477022473               0.000000000              -0.062500000               0.500000000               0.000000000               0.000000000               0.133000000               0.000000000               0.000000000               0.155937500               0.000000000               0.000000000               0.178875000               0.000000000               0.000000000               0.201812500               0.000000000               0.000000000               0.224750000               0.000000000               0.000000000               0.247687500               0.000000000               0.000000000               0.270625000               0.000000000               0.000000000               0.293562500               0.000000000               0.000000000               0.316500000               0.000000000               0.000000000               0.339437500               0.000000000               0.000000000               0.362375000               0.000000000               0.000000000               0.385312500               0.000000000               0.000000000               0.408250000               0.000000000               0.000000000               0.431187500               0.000000000               0.000000000               0.454125000               0.000000000               0.000000000               0.477062500               0.000000000               0.000000000               0.500000000               0.000000000 </DataArray>
</Points>
<Cells>
<DataArray type="Int32"                                    Name="connectivity"                                                      NumberOfComponents=" 1" format="ascii">
         0          1         18         17          1          2         19         18          2          3         20         19          3          4         21         20          4          5         22         21          5          6         23         22          6          7         24         23          7          8         25         24          8          9         26         25          9         10         27         26         10         11         28         27         11         12         29         28         12         13         30         29         13         14         31         30         14         15         32         31         15         16         33         32         17         18         35         34         18         19         36         35         19         20         37         36         20         21         38         37         21         22         39         38         22         23         40         39         23         24         41         40         24         25         42         41         25         26         43         42         26         27         44         43         27         28         45         44         28         29         46         45         29         30         47         46         30         31         48         47         31         32         49         48         32         33         50         49         34         35         52         51         35         36         53         52         36         37         54         53         37         38         55         54         38         39         56         55         39         40         57         56         40         41         58         57         41         42         59         58         42         43         60         59         43         44         61         60         44         45         62         61         45         46         63         62         46         47         64         63         47         48         65         64         48         49         66         65         49         50         67         66         51         52         69         68         52         53         70         69         53         54         71         70         54         55         72         71         55         56         73         72         56         57         74         73         57         58         75         74         58         59         76         75         59         60         77         76         60         61         78         77         61         62         79         78         62         63         80         79         63         64         81         80         64         65         82         81         65         66         83         82         66         67         84         83         68         69         86         85         69         70         87         86         70         71         88         87         71         72         89         88         72         73         90         89         73         74         91         90         74         75         92         91         75         76         93         92         76         77         94         93         77         78         95         94         78         79         96         95         79         80         97         96         80         81         98         97         81         82         99         98         82         83        100         99         83         84        101        100         85         86        103        102         86         87        104        103         87         88        105        104         88         89        106        105         89         90        107        106         90         91        108        107         91         92        109        108         92         93        110        109         93         94        111        110         94         95        112        111         95         96        113        112         96         97        114        113         97         98        115        114         98         99        116        115         99        100        117        116        100        101        118        117        102        103        120        119        103        104        121        120        104        105        122        121        105        106        123        122        106        107        124        123        107        108        125        124        108        109        126        125        109        110        127        126        110        111        128        127        111        112        129        128        112        113        130        129        113        114        131        130        114        115        132        131        115        116        133        132        116        117        134        133        117        118        135        134        119        120        137        136        120        121        138        137        121        122        139        138        122        123        140        139        123        124        141        140        124        125        142        141        125        126        143        142        126        127        144        143        127        128        145        144        128        129        146        145        129        130        147        146        130        131        148        147        131        132        149        148        132        133        150        149        133        134        151        150        134        135        152        151        136        137        154        153        137        138        155        154        138        139        156        155        139        140        157        156        140        141        158        157        141        142        159        158        142        143        160        159        143        144        161        160        144        145        162        161        145        146        163        162        146        147        164        163        147        148        165        164        148        149        166        165        149        150        167        166        150        151        168        167        151        152        169        168        153        154        171        170        154        155        172        171        155        156        173        172        156        157        174        173        157        158        175        174        158        159        176        175        159        160        177        176        160        161        178        177        161        162        179        178        162        163        180        179        163        164        181        180        164        165        182        181        165        166        183        182        166        167        184        183        167        168        185        184        168        169        186        185        170        171        188        187        171        172        189        188        172        173        190        189        173        174        191        190        174        175        192        191        175        176        193        192        176        177        194        193        177        178        195        194        178        179        196        195        179        180        197        196        180        181        198        197        181        182        199        198        182        183        200        199        183        184        201        200        184        185        202        201        185        186        203        202        187        188        205        204        188        189        206        205        189        190        207        206        190        191        208        207        191        192        209        208        192        193        210        209        193        194        211        210        194        195        212        211        195        196        213        212        196        197        214        213        197        198        215        214        198        199        216        215        199        200        217        216        200        201        218        217        201        202        219        218        202        203        220        219        204        205        222        221        205        206        223        222        206        207        224        223        207        208        225        224        208        209        226        225        209        210        227        226        210        211        228        227        211        212        229        228        212        213        230        229        213        214        231        230        214        215        232        231        215        216        233        232        216        217        234        233        217        218        235        234        218        219        236        235        219        220        237        236        221        222        239        238        222        223        240        239        223        224        241        240        224        225        242        241        225        226        243        242        226        227        244        243        227        228        245        244        228        229        246        245        229        230        247        246        230        231        248        247        231        232        249        248        232        233        250        249        233        234        251        250        234        235        252        251        235        236        253        252        236        237        254        253        238        239        256        255        239        240        257        256        240        241        258        257        241        242        259        258        242        243        260        259        243        244        261        260        244        245        262        261        245        246        263        262        246        247        264        263        247        248        265        264        248        249        266        265        249        250        267        266        250        251        268        267        251        252        269        268        252        253        270        269        253        254        271        270        255        256        273        272        256        257        274        273        257        258        275        274        258        259        276        275        259        260        277        276        260        261        278        277        261        262        279        278        262        263        280        279        263        264        281        280        264        265        282        281        265        266        283        282        266        267        284        283        267        268        285        284        268        269        286        285        269        270        287        286        270        271        288        287        306        307          1          0        307        308          2          1        308        309          3          2        309        310          4          3        310        311          5          4        311        312          6          5        312        313          7          6        313        314          8          7        314        315          9          8        315        316         10          9        316        317         11         10        317        318         12         11        318        319         13         12        319        320         14         13        320        321         15         14        321        322         16         15        323        324        307        306        324        325        308        307        325        326        309        308        326        327        310        309        327        328        311        310        328        329        312        311        329        330        313        312        330        331        314        313        331        332        315        314        332        333        316        315        333        334        317        316        334        335        318        317        335        336        319        318        336        337        320        319        337        338        321        320        338        339        322        321        340        341        324        323        341        342        325        324        342        343        326        325        343        344        327        326        344        345        328        327        345        346        329        328        346        347        330        329        347        348        331        330        348        349        332        331        349        350        333        332        350        351        334        333        351        352        335        334        352        353        336        335        353        354        337        336        354        355        338        337        355        356        339        338        357        358        341        340        358        359        342        341        359        360        343        342        360        361        344        343        361        362        345        344        362        363        346        345        363        364        347        346        364        365        348        347        365        366        349        348        366        367        350        349        367        368        351        350        368        369        352        351        369        370        353        352        370        371        354        353        371        372        355        354        372        373        356        355        374        375        358        357        375        376        359        358        376        377        360        359        377        378        361        360        378        379        362        361        379        380        363        362        380        381        364        363        381        382        365        364        382        383        366        365        383        384        367        366        384        385        368        367        385        386        369        368        386        387        370        369        387        388        371        370        388        389        372        371        389        390        373        372        391        392        375        374        392        393        376        375        393        394        377        376        394        395        378        377        395        396        379        378        396        397        380        379        397        398        381        380        398        399        382        381        399        400        383        382        400        401        384        383        401        402        385        384        402        403        386        385        403        404        387        386        404        405        388        387        405        406        389        388        406        407        390        389        408        409        392        391        409        410        393        392        410        411        394        393        411        412        395        394        412        413        396        395        413        414        397        396        414        415        398        397        415        416        399        398        416        417        400        399        417        418        401        400        418        419        402        401        419        420        403        402        420        421        404        403        421        422        405        404        422        423        406        405        423        424        407        406        425        426        409        408        426        427        410        409        427        428        411        410        428        429        412        411        429        430        413        412        430        431        414        413        431        432        415        414        432        433        416        415        433        434        417        416        434        435        418        417        435        436        419        418        436        437        420        419        437        438        421        420        438        439        422        421        439        440        423        422        440        441        424        423        442        443        426        425        443        444        427        426        444        445        428        427        445        446        429        428        446        447        430        429        447        448        431        430        448        449        432        431        449        450        433        432        450        451        434        433        451        452        435        434        452        453        436        435        453        454        437        436        454        455        438        437        455        456        439        438        456        457        440        439        457        458        441        440        459        460        443        442        460        461        444        443        461        462        445        444        462        463        446        445        463        464        447        446        464        465        448        447        465        466        449        448        466        467        450        449        467        468        451        450        468        469        452        451        469        470        453        452        470        471        454        453        471        472        455        454        472        473        456        455        473        474        457        456        474        475        458        457        476        477        460        459        477        478        461        460        478        479        462        461        479        480        463        462        480        481        464        463        481        482        465        464        482        483        466        465        483        484        467        466        484        485        468        467        485        486        469        468        486        487        470        469        487        488        471        470        488        489        472        471        489        490        473        472        490        491        474        473        491        492        475        474        493        494        477        476        494        495        478        477        495        496        479        478        496        497        480        479        497        498        481        480        498        499        482        481        499        500        483        482        500        501        484        483        501        502        485        484        502        503        486        485        503        504        487        486        504        505        488        487        505        506        489        488        506        507        490        489        507        508        491        490        508        509        492        491        510        511        494        493        511        512        495        494        512        513        496        495        513        514        497        496        514        515        498        497        515        516        499        498        516        517        500        499        517        518        501        500        518        519        502        501        519        520        503        502        520        521        504        503        521        522        505        504        522        523        506        505        523        524        507        506        524        525        508        507        525        526        509        508        527        528        511        510        528        529        512        511        529        530        513        512        530        531        514        513        531        532        515        514        532        533        516        515        533        534        517        516        534        535        518        517        535        536        519        518        536        537        520        519        537        538        521        520        538        539        522        521        539        540        523        522        540        541        524        523        541        542        525        524        542        543        526        525        544        545        528        527        545        546        529        528        546        547        530        529        547        548        531        530        548        549        532        531        549        550        533        532        550        551        534        533        551        552        535        534        552        553        536        535        553        554        537        536        554        555        538        537        555        556        539        538        556        557        540        539        557        558        541        540        558        559        542        541        559        560        543        542        561        562        545        544        562        563        546        545        563        564        547        546        564        565        548        547        565        566        549        548        566        567        550        549        567        568        551        550        568        569        552        551        569        570        553        552        570        571        554        553        571        572        555        554        572        573        556        555        573        574        557        556        574        575        558        557        575        576        559        558        576        577        560        559        578        579        596        595        579        580        597        596        580        581        598        597        581        582        599        598        582        583        600        599        583        584        601        600        584        585        602        601        585        586        603        602        586        587        604        603        587        588        605        604        588        589        606        605        589        590        607        606        590        591        608        607        591        592        609        608        592        593        610        609        593        594        611        610        595        596        613        612        596        597        614        613        597        598        615        614        598        599        616        615        599        600        617        616        600        601        618        617        601        602        619        618        602        603        620        619        603        604        621        620        604        605        622        621        605        606        623        622        606        607        624        623        607        608        625        624        608        609        626        625        609        610        627        626        610        611        628        627        612        613        630        629        613        614        631        630        614        615        632        631        615        616        633        632        616        617        634        633        617        618        635        634        618        619        636        635        619        620        637        636        620        621        638        637        621        622        639        638        622        623        640        639        623        624        641        640        624        625        642        641        625        626        643        642        626        627        644        643        627        628        645        644        629        630        647        646        630        631        648        647        631        632        649        648        632        633        650        649        633        634        651        650        634        635        652        651        635        636        653        652        636        637        654        653        637        638        655        654        638        639        656        655        639        640        657        656        640        641        658        657        641        642        659        658        642        643        660        659        643        644        661        660        644        645        662        661        646        647        664        663        647        648        665        664        648        649        666        665        649        650        667        666        650        651        668        667        651        652        669        668        652        653        670        669        653        654        671        670        654        655        672        671        655        656        673        672        656        657        674        673        657        658        675        674        658        659        676        675        659        660        677        676        660        661        678        677        661        662        679        678        663        664        681        680        664        665        682        681        665        666        683        682        666        667        684        683        667        668        685        684        668        669        686        685        669        670        687        686        670        671        688        687        671        672        689        688        672        673        690        689        673        674        691        690        674        675        692        691        675        676        693        692        676        677        694        693        677        678        695        694        678        679        696        695        680        681        698        697        681        682        699        698        682        683        700        699        683        684        701        700        684        685        702        701        685        686        703        702        686        687        704        703        687        688        705        704        688        689        706        705        689        690        707        706        690        691        708        707        691        692        709        708        692        693        710        709        693        694        711        710        694        695        712        711        695        696        713        712        697        698        715        714        698        699        716        715        699        700        717        716        700        701        718        717        701        702        719        718        702        703        720        719        703        704        721        720        704        705        722        721        705        706        723        722        706        707        724        723        707        708        725        724        708        709        726        725        709        710        727        726        710        711        728        727        711        712        729        728        712        713        730        729        714        715        732        731        715        716        733        732        716        717        734        733        717        718        735        734        718        719        736        735        719        720        737        736        720        721        738        737        721        722        739        738        722        723        740        739        723        724        741        740        724        725        742        741        725        726        743        742        726        727        744        743        727        728        745        744        728        729        746        745        729        730        747        746        731        732        749        748        732        733        750        749        733        734        751        750        734        735        752        751        735        736        753        752        736        737        754        753        737        738        755        754        738        739        756        755        739        740        757        756        740        741        758        757        741        742        759        758        742        743        760        759        743        744        761        760        744        745        762        761        745        746        763        762        746        747        764        763        748        749        766        765        749        750        767        766        750        751        768        767        751        752        769        768        752        753        770        769        753        754        771        770        754        755        772        771        755        756        773        772        756        757        774        773        757        758        775        774        758        759        776        775        759        760        777        776        760        761        778        777        761        762        779        778        762        763        780        779        763        764        781        780        765        766        783        782        766        767        784        783        767        768        785        784        768        769        786        785        769        770        787        786        770        771        788        787        771        772        789        788        772        773        790        789        773        774        791        790        774        775        792        791        775        776        793        792        776        777        794        793        777        778        795        794        778        779        796        795        779        780        797        796        780        781        798        797        782        783        800        799        783        784        801        800        784        785        802        801        785        786        803        802        786        787        804        803        787        788        805        804        788        789        806        805        789        790        807        806        790        791        808        807        791        792        809        808        792        793        810        809        793        794        811        810        794        795        812        811        795        796        813        812        796        797        814        813        797        798        815        814        799        800        817        816        800        801        818        817        801        802        819        818        802        803        820        819        803        804        821        820        804        805        822        821        805        806        823        822        806        807        824        823        807        808        825        824        808        809        826        825        809        810        827        826        810        811        828        827        811        812        829        828        812        813        830        829        813        814        831        830        814        815        832        831        816        817        834        833        817        818        835        834        818        819        836        835        819        820        837        836        820        821        838        837        821        822        839        838        822        823        840        839        823        824        841        840        824        825        842        841        825        826        843        842        826        827        844        843        827        828        845        844        828        829        846        845        829        830        847        846        830        831        848        847        831        832        849        848        833        834        562        561        834        835        563        562        835        836        564        563        836        837        565        564        837        838        566        565        838        839        567        566        839        840        568        567        840        841        569        568        841        842        570        569        842        843        571        570        843        844        572        571        844        845        573        572        845        846        574        573        846        847        575        574        847        848        576        575        848        849        577        576        884        885        579        578        885        886        580        579        886        887        581        580        887        888        582        581        888        889        583        582        889        890        584        583        890        891        585        584        891        892        586        585        892        893        587        586        893        894        588        587        894        895        589        588        895        896        590        589        896        897        591        590        897        898        592        591        898        899        593        592        899        900        594        593        901        902        885        884        902        903        886        885        903        904        887        886        904        905        888        887        905        906        889        888        906        907        890        889        907        908        891        890        908        909        892        891        909        910        893        892        910        911        894        893        911        912        895        894        912        913        896        895        913        914        897        896        914        915        898        897        915        916        899        898        916        917        900        899        918        919        902        901        919        920        903        902        920        921        904        903        921        922        905        904        922        923        906        905        923        924        907        906        924        925        908        907        925        926        909        908        926        927        910        909        927        928        911        910        928        929        912        911        929        930        913        912        930        931        914        913        931        932        915        914        932        933        916        915        933        934        917        916        935        936        919        918        936        937        920        919        937        938        921        920        938        939        922        921        939        940        923        922        940        941        924        923        941        942        925        924        942        943        926        925        943        944        927        926        944        945        928        927        945        946        929        928        946        947        930        929        947        948        931        930        948        949        932        931        949        950        933        932        950        951        934        933        952        953        936        935        953        954        937        936        954        955        938        937        955        956        939        938        956        957        940        939        957        958        941        940        958        959        942        941        959        960        943        942        960        961        944        943        961        962        945        944        962        963        946        945        963        964        947        946        964        965        948        947        965        966        949        948        966        967        950        949        967        968        951        950        969        970        953        952        970        971        954        953        971        972        955        954        972        973        956        955        973        974        957        956        974        975        958        957        975        976        959        958        976        977        960        959        977        978        961        960        978        979        962        961        979        980        963        962        980        981        964        963        981        982        965        964        982        983        966        965        983        984        967        966        984        985        968        967        986        987        970        969        987        988        971        970        988        989        972        971        989        990        973        972        990        991        974        973        991        992        975        974        992        993        976        975        993        994        977        976        994        995        978        977        995        996        979        978        996        997        980        979        997        998        981        980        998        999        982        981        999       1000        983        982       1000       1001        984        983       1001       1002        985        984       1003       1004        987        986       1004       1005        988        987       1005       1006        989        988       1006       1007        990        989       1007       1008        991        990       1008       1009        992        991       1009       1010        993        992       1010       1011        994        993       1011       1012        995        994       1012       1013        996        995       1013       1014        997        996       1014       1015        998        997       1015       1016        999        998       1016       1017       1000        999       1017       1018       1001       1000       1018       1019       1002       1001       1020       1021       1004       1003       1021       1022       1005       1004       1022       1023       1006       1005       1023       1024       1007       1006       1024       1025       1008       1007       1025       1026       1009       1008       1026       1027       1010       1009       1027       1028       1011       1010       1028       1029       1012       1011       1029       1030       1013       1012       1030       1031       1014       1013       1031       1032       1015       1014       1032       1033       1016       1015       1033       1034       1017       1016       1034       1035       1018       1017       1035       1036       1019       1018       1037       1038       1021       1020       1038       1039       1022       1021       1039       1040       1023       1022       1040       1041       1024       1023       1041       1042       1025       1024       1042       1043       1026       1025       1043       1044       1027       1026       1044       1045       1028       1027       1045       1046       1029       1028       1046       1047       1030       1029       1047       1048       1031       1030       1048       1049       1032       1031       1049       1050       1033       1032       1050       1051       1034       1033       1051       1052       1035       1034       1052       1053       1036       1035       1054       1055       1038       1037       1055       1056       1039       1038       1056       1057       1040       1039       1057       1058       1041       1040       1058       1059       1042       1041       1059       1060       1043       1042       1060       1061       1044       1043       1061       1062       1045       1044       1062       1063       1046       1045       1063       1064       1047       1046       1064       1065       1048       1047       1065       1066       1049       1048       1066       1067       1050       1049       1067       1068       1051       1050       1068       1069       1052       1051       1069       1070       1053       1052       1071       1072       1055       1054       1072       1073       1056       1055       1073       1074       1057       1056       1074       1075       1058       1057       1075       1076       1059       1058       1076       1077       1060       1059       1077       1078       1061       1060       1078       1079       1062       1061       1079       1080       1063       1062       1080       1081       1064       1063       1081       1082       1065       1064       1082       1083       1066       1065       1083       1084       1067       1066       1084       1085       1068       1067       1085       1086       1069       1068       1086       1087       1070       1069       1088       1089       1072       1071       1089       1090       1073       1072       1090       1091       1074       1073       1091       1092       1075       1074       1092       1093       1076       1075       1093       1094       1077       1076       1094       1095       1078       1077       1095       1096       1079       1078       1096       1097       1080       1079       1097       1098       1081       1080       1098       1099       1082       1081       1099       1100       1083       1082       1100       1101       1084       1083       1101       1102       1085       1084       1102       1103       1086       1085       1103       1104       1087       1086       1105       1106       1089       1088       1106       1107       1090       1089       1107       1108       1091       1090       1108       1109       1092       1091       1109       1110       1093       1092       1110       1111       1094       1093       1111       1112       1095       1094       1112       1113       1096       1095       1113       1114       1097       1096       1114       1115       1098       1097       1115       1116       1099       1098       1116       1117       1100       1099       1117       1118       1101       1100       1118       1119       1102       1101       1119       1120       1103       1102       1120       1121       1104       1103       1122       1123       1106       1105       1123       1124       1107       1106       1124       1125       1108       1107       1125       1126       1109       1108       1126       1127       1110       1109       1127       1128       1111       1110       1128       1129       1112       1111       1129       1130       1113       1112       1130       1131       1114       1113       1131       1132       1115       1114       1132       1133       1116       1115       1133       1134       1117       1116       1134       1135       1118       1117       1135       1136       1119       1118       1136       1137       1120       1119       1137       1138       1121       1120        272        273       1123       1122        273        274       1124       1123        274        275       1125       1124        275        276       1126       1125        276        277       1127       1126        277        278       1128       1127        278        279       1129       1128        279        280       1130       1129        280        281       1131       1130        281        282       1132       1131        282        283       1133       1132        283        284       1134       1133        284        285       1135       1134        285        286       1136       1135        286        287       1137       1136        287        288       1138       1137 </DataArray>
<DataArray type="Int32"                                    Name="offsets"                                                      NumberOfComponents=" 1" format="ascii">
         4          8         12         16         20         24         28         32         36         40         44         48         52         56         60         64         68         72         76         80         84         88         92         96        100        104        108        112        116        120        124        128        132        136        140        144        148        152        156        160        164        168        172        176        180        184        188        192        196        200        204        208        212        216        220        224        228        232        236        240        244        248        252        256        260        264        268        272        276        280        284        288        292        296        300        304        308        312        316        320        324        328        332        336        340        344        348        352        356        360        364        368        372        376        380        384        388        392        396        400        404        408        412        416        420        424        428        432        436        440        444        448        452        456        460        464        468        472        476        480        484        488        492        496        500        504        508        512        516        520        524        528        532        536        540        544        548        552        556        560        564        568        572        576        580        584        588        592        596        600        604        608        612        616        620        624        628        632        636        640        644        648        652        656        660        664        668        672        676        680        684        688        692        696        700        704        708        712        716        720        724        728        732        736        740        744        748        752        756        760        764        768        772        776        780        784        788        792        796        800        804        808        812        816        820        824        828        832        836        840        844        848        852        856        860        864        868        872        876        880        884        888        892        896        900        904        908        912        916        920        924        928        932        936        940        944        948        952        956        960        964        968        972        976        980        984        988        992        996       1000       1004       1008       1012       1016       1020       1024       1028       1032       1036       1040       1044       1048       1052       1056       1060       1064       1068       1072       1076       1080       1084       1088       1092       1096       1100       1104       1108       1112       1116       1120       1124       1128       1132       1136       1140       1144       1148       1152       1156       1160       1164       1168       1172       1176       1180       1184       1188       1192       1196       1200       1204       1208       1212       1216       1220       1224       1228       1232       1236       1240       1244       1248       1252       1256       1260       1264       1268       1272       1276       1280       1284       1288       1292       1296       1300       1304       1308       1312       1316       1320       1324       1328       1332       1336       1340       1344       1348       1352       1356       1360       1364       1368       1372       1376       1380       1384       1388       1392       1396       1400       1404       1408       1412       1416       1420       1424       1428       1432       1436       1440       1444       1448       1452       1456       1460       1464       1468       1472       1476       1480       1484       1488       1492       1496       1500       1504       1508       1512       1516       1520       1524       1528       1532       1536       1540       1544       1548       1552       1556       1560       1564       1568       1572       1576       1580       1584       1588       1592       1596       1600       1604       1608       1612       1616       1620       1624       1628       1632       1636       1640       1644       1648       1652       1656       1660       1664       1668       1672       1676       1680       1684       1688       1692       1696       1700       1704       1708       1712       1716       1720       1724       1728       1732       1736       1740       1744       1748       1752       1756       1760       1764       1768       1772       1776       1780       1784       1788       1792       1796       1800       1804       1808       1812       1816       1820       1824       1828       1832       1836       1840       1844       1848       1852       1856       1860       1864       1868       1872       1876       1880       1884       1888       1892       1896       1900       1904       1908       1912       1916       1920       1924       1928       1932       1936       1940       1944       1948       1952       1956       1960       1964       1968       1972       1976       1980       1984       1988       1992       1996       2000       2004       2008       2012       2016       2020       2024       2028       2032       2036       2040       2044       2048       2052       2056       2060       2064       2068       2072       2076       2080       2084       2088       2092       2096       2100       2104       2108       2112       2116       2120       2124       2128       2132       2136       2140       2144       2148       2152       2156       2160       2164       2168       2172       2176       2180       2184       2188       2192       2196       2200       2204       2208       2212       2216       2220       2224       2228       2232       2236       2240       2244       2248       2252       2256       2260       2264       2268       2272       2276       2280       2284       2288       2292       2296       2300       2304       2308       2312       2316       2320       2324       2328       2332       2336       2340       2344       2348       2352       2356       2360       2364       2368       2372       2376       2380       2384       2388       2392       2396       2400       2404       2408       2412       2416       2420       2424       2428       2432       2436       2440       2444       2448       2452       2456       2460       2464       2468       2472       2476       2480       2484       2488       2492       2496       2500       2504       2508       2512       2516       2520       2524       2528       2532       2536       2540       2544       2548       2552       2556       2560       2564       2568       2572       2576       2580       2584       2588       2592       2596       2600       2604       2608       2612       2616       2620       2624       2628       2632       2636       2640       2644       2648       2652       2656       2660       2664       2668       2672       2676       2680       2684       2688       2692       2696       2700       2704       2708       2712       2716       2720       2724       2728       2732       2736       2740       2744       2748       2752       2756       2760       2764       2768       2772       2776       2780       2784       2788       2792       2796       2800       2804       2808       2812       2816       2820       2824       2828       2832       2836       2840       2844       2848       2852       2856       2860       2864       2868       2872       2876       2880       2884       2888       2892       2896       2900       2904       2908       2912       2916       2920       2924       2928       2932       2936       2940       2944       2948       2952       2956       2960       2964       2968       2972       2976       2980       2984       2988       2992       2996       3000       3004       3008       3012       3016       3020       3024       3028       3032       3036       3040       3044       3048       3052       3056       3060       3064       3068       3072       3076       3080       3084       3088       3092       3096       3100       3104       3108       3112       3116       3120       3124       3128       3132       3136       3140       3144       3148       3152       3156       3160       3164       3168       3172       3176       3180       3184       3188       3192       3196       3200       3204       3208       3212       3216       3220       3224       3228       3232       3236       3240       3244       3248       3252       3256       3260       3264       3268       3272       3276       3280       3284       3288       3292       3296       3300       3304       3308       3312       3316       3320       3324       3328       3332       3336       3340       3344       3348       3352       3356       3360       3364       3368       3372       3376       3380       3384       3388       3392       3396       3400       3404       3408       3412       3416       3420       3424       3428       3432       3436       3440       3444       3448       3452       3456       3460       3464       3468       3472       3476       3480       3484       3488       3492       3496       3500       3504       3508       3512       3516       3520       3524       3528       3532       3536       3540       3544       3548       3552       3556       3560       3564       3568       3572       3576       3580       3584       3588       3592       3596       3600       3604       3608       3612       3616       3620       3624       3628       3632       3636       3640       3644       3648       3652       3656       3660       3664       3668       3672       3676       3680       3684       3688       3692       3696       3700       3704       3708       3712       3716       3720       3724       3728       3732       3736       3740       3744       3748       3752       3756       3760       3764       3768       3772       3776       3780       3784       3788       3792       3796       3800       3804       3808       3812       3816       3820       3824       3828       3832       3836       3840       3844       3848       3852       3856       3860       3864       3868       3872       3876       3880       3884       3888       3892       3896       3900       3904       3908       3912       3916       3920       3924       3928       3932       3936       3940       3944       3948       3952       3956       3960       3964       3968       3972       3976       3980       3984       3988       3992       3996       4000       4004       4008       4012       4016       4020       4024       4028       4032       4036       4040       4044       4048       4052       4056       4060       4064       4068       4072       4076       4080       4084       4088       4092       4096 </DataArray>
<DataArray type="UInt8"                                    Name="types"                                                      NumberOfComponents=" 1" format="ascii">
         9          9          9          9          9          9          9          9          9          9          9          9          9          9          9          9          9          9          9          9          9          9          9          9          9          9          9          9          9          9          9          9          9          9          9          9          9          9          9          9          9          9          9          9          9          9          9          9          9          9          9          9          9          9          9          9          9          9          9          9          9          9          9          9          9          9          9          9          9          9          9          9          9          9          9          9          9          9          9          9          9          9          9          9          9          9          9          9          9          9          9          9          9          9          9          9          9          9          9          9          9          9          9          9          9          9          9          9          9          9          9          9          9          9          9          9          9          9          9          9          9          9          9          9          9          9          9          9          9          9          9          9          9          9          9          9          9          9          9          9          9          9          9          9          9          9          9          9          9          9          9          9          9          9          9          9          9          9          9          9          9          9          9          9          9          9          9          9          9          9          9          9          9          9          9          9          9          9          9          9          9          9          9          9          9          9          9          9          9          9          9          9          9          9          9          9          9          9          9          9          9          9          9          9          9          9          9          9          9          9          9          9          9          9          9          9          9          9          9          9          9          9          9          9          9          9          9          9          9          9          9          9          9          9          9          9          9          9          9          9          9          9          9          9          9          9          9          9          9          9          9          9          9          9          9          9          9          9          9          9          9          9          9          9          9          9          9          9          9          9          9          9          9          9          9          9          9          9          9          9          9          9          9          9          9          9          9          9          9          9          9          9          9          9          9          9          9          9          9          9          9          9          9          9          9          9          9          9          9          9          9          9          9          9          9          9          9          9          9          9          9          9          9          9          9          9          9          9          9          9          9          9          9          9          9          9          9          9          9          9          9          9          9          9          9          9          9          9          9          9          9          9          9          9          9          9          9          9          9          9          9          9          9          9          9          9          9          9          9          9          9          9          9          9          9          9          9          9          9          9          9          9          9          9          9          9          9          9          9          9          9          9          9          9          9          9          9          9          9          9          9          9          9          9          9          9          9          9          9          9          9          9          9          9          9          9          9          9          9          9          9          9          9          9          9          9          9          9          9          9          9          9          9          9          9          9          9          9          9          9          9          9          9          9          9          9          9          9          9          9          9          9          9          9          9          9          9          9          9          9          9          9          9          9          9          9          9          9          9          9          9          9          9          9          9          9          9          9          9          9          9          9          9          9          9          9          9          9          9          9          9          9          9          9          9          9          9          9          9          9          9          9          9          9          9          9          9          9          9          9          9          9          9          9          9          9          9          9          9          9          9          9          9          9          9          9          9          9          9          9          9          9          9          9          9          9          9          9          9          9          9          9          9          9          9          9          9          9          9          9          9          9          9          9          9          9          9          9          9          9          9          9          9          9          9          9          9          9          9          9          9          9          9          9          9          9          9          9          9          9          9          9          9          9          9          9          9          9          9          9          9          9          9          9          9          9          9          9          9          9          9          9          9          9          9          9          9          9          9          9          9          9          9          9          9          9          9          9          9          9          9          9          9          9          9          9          9          9          9          9          9          9          9          9          9          9          9          9          9          9          9          9          9          9          9          9          9          9          9          9          9          9          9          9          9          9          9          9          9          9          9          9          9          9          9          9          9          9          9          9          9          9          9          9          9          9          9          9          9          9          9          9          9          9          9          9          9          9          9          9          9          9          9          9          9          9          9          9          9          9          9          9          9          9          9          9          9          9          9          9          9          9          9          9          9          9          9          9          9          9          9          9          9          9          9          9          9          9          9          9          9          9          9          9          9          9          9          9          9          9          9          9          9          9          9          9          9          9          9          9          9          9          9          9          9          9          9          9          9          9          9          9          9          9          9          9          9          9          9          9          9          9          9          9          9          9          9          9          9          9          9          9          9          9          9          9          9          9          9          9          9          9          9          9          9          9          9          9          9          9          9          9          9          9          9          9          9          9          9          9          9          9          9          9          9          9          9          9          9          9          9          9          9          9          9          9          9          9          9          9          9          9          9          9          9          9          9          9          9          9          9          9          9          9          9          9          9          9          9          9          9          9          9          9          9          9          9          9          9          9          9          9          9          9          9          9          9          9          9          9          9          9          9          9          9          9          9          9          9          9          9          9          9          9          9          9          9          9          9          9          9          9          9          9          9          9          9          9          9          9          9          9          9          9          9          9          9          9          9          9          9          9          9          9          9          9          9          9          9          9          9          9          9          9          9          9          9          9          9          9          9          9          9          9          9          9          9          9          9          9          9          9          9          9          9          9          9          9          9          9          9          9          9          9          9          9          9          9          9          9          9          9          9          9          9          9          9          9          9          9          9          9          9          9          9          9          9          9          9          9          9          9          9          9          9          9          9          9          9          9          9          9          9          9          9          9          9          9          9          9          9          9          9          9          9          9          9          9          9          9          9          9          9          9          9          9          9          9          9          9          9          9          9          9 </DataArray>
</Cells>
<CellData>
<DataArray type="Int32"                                    Name="material"                                                      NumberOfComponents=" 1" format="ascii">
         1          1          1          1          1          1          1          1          1          1          1          1          1          1          1          1          1          1          1          1          1          1          1          1          1          1          1          1          1          1          1          1          1          1          1          1          1          1          1          1          1          1          1          1          1          1          1          1          1          1          1          1          1          1          1          1          1          1          1          1          1          1          1          1          1          1          1          1          1          1          1          1          1          1          1          1          1          1          1          1          1          1          1          1          1          1          1          1          1          1          1          1          1          1          1          1          1          1          1          1          1          1          1          1          1          1          1          1          1          1          1          1          1          1          1          1          1          1          1          1          1          1          1          1          1          1          1          1          1          1          1          1          1          1          1          1          1          1          1          1          1          1          1          1          1          1          1          1          1          1          1          1          1          1          1          1          1          1          1          1          1          1          1          1          1          1          1          1          1          1          1          1          1          1          1          1          1          1          1          1          1          1          1          1          1          1          1          1          1          1          1          1          1          1          1          1          1          1          1          1          1          1          1          1          1          1          1          1          1          1          1          1          1          1          1          1          1          1          1          1          1          1          1          1          1          1          1          1          1          1          1          1          1          1          1          1          1          1          1          1          1          1          1          1          1          1          1          1          1          1          1          1          1          1          1          1          1          1          1          1          1          1          1          1          1          1          1          1          1          1          1          1          1          1          1          1          1          1          1          1          1          1          1          1          1          1          1          1          1          1          1          1          1          1          1          1          1          1          1          1          1          1          1          1          1          1          1          1          1          1          1          1          1          1          1          1          1          1          1          1          1          1          1          1          1          1          1          1          1          1          1          1          1          1          1          1          1          1          1          1          1          1          1          1          1          1          1          1          1          1          1          1          1          1          1          1          1          1          1          1          1          1          1          1          1          1          1          1          1          1          1          1          1          1          1          1          1          1          1          1          1          1          1          1          1          1          1          1          1          1          1          1          1          1          1          1          1          1          1          1          1          1          1          1          1          1          1          1          1          1          1          1          1          1          1          1          1          1          1          1          1          1          1          1          1          1          1          1          1          1          1          1          1          1          1          1          1          1          1          1          1          1          1          1          1          1          1          1          1          1          1          1          1          1          1          1          1          1          1          1          1          1          1          1          1          1          1          1          1          1          1          1          1          1          1          1          1          1          1          1          1          1          1          1          1          1          1          1          1          1          1          1          1          1          1          1          1          1          1          1          1          1          1          1          1          1          1          1          1          1          1          1          1          1          1          1          1          1          1          1          1          1          1          1          1          1          1          1          1          1          1          1          1          1          1          1          1          1          1          1          1          1          1          1          1          1          1          1          1          1          1          1          1          1          1          1          1          1          1          1          1          1          1          1          1          1          1          1          1          1          1          1          1          1          1          1          1          1          1          1          1          1          1          1          1          1          1          1          1          1          1          1          1          1          1          1          1          1          1          1          1          1          1          1          1          1          1          1          1          1          1          1          1          1          1          1          1          1          1          1          1          1          1          1          1          1          1          1          1          1          1          1          1          1          1          1          1          1          1          1          1          1          1          1          1          1          1          1          1          1          1          1          1          1          1          1          1          1          1          1          1          1          1          1          1          1          1          1          1          1          1          1          1          1          1          1          1          1          1          1          1          1          1          1          1          1          1          1          1          1          1          1          1          1          1          1          1          1          1          1          1          1          1          1          1          1          1          1          1          1          1          1          1          1          1          1          1          1          1          1          1          1          1          1          1          1          1          1          1          1          1          1          1          1          1          1          1          1          1          1          1          1          1          1          1          1          1          1          1          1          1          1          1          1          1          1          1          1          1          1          1          1          1          1          1          1          1          1          1          1          1          1          1          1          1          1          1          1          1          1          1          1          1          1          1          1          1          1          1          1          1          1          1          1          1          1          1          1          1          1          1          1          1          1          1          1          1          1          1          1          1          1          1          1          1          1          1          1          1          1          1          1          1          1          1          1          1          1          1          1          1          1          1          1          1          1          1          1          1          1          1          1          1          1          1          1          1          1          1          1          1          1          1          1          1          1          1          1          1          1          1          1          1          1          1          1          1          1          1          1          1          1          1          1          1          1          1          1          1          1          1          1          1          1          1          1          1          1          1          1          1          1          1          1          1          1          1          1          1          1          1          1          1          1          1          1          1          1          1          1          1          1          1          1          1          1          1          1          1          1          1          1          1          1          1          1          1          1          1          1          1          1          1          1          1          1          1          1          1          1          1          1          1          1          1          1          1          1          1          1          1          1          1          1          1          1          1          1          1          1          1          1          1          1          1          1          1          1          1          1          1          1          1          1          1          1          1          1          1          1          1          1          1          1          1          1          1          1          1          1          1          1          1          1          1          1          1          1          1          1          1          1          1          1          1          1          1          1          1          1          1          1          1          1          1          1          1          1          1          1          1          1          1          1 </DataArray>
</CellData>
<PointData>
<DataArray type="Float64"                                    Name="u"                                                      NumberOfComponents=" 3" format="ascii">
             -0.000674646              -0.000000000               0.999999984              -0.000723636               0.000000000               0.999999984              -0.000744974               0.000000000               0.999999984              -0.000756696               0.000000000               0.999999984              -0.000765734               0.000000000               0.999999984              -0.000774831               0.000000000               0.999999984              -0.000784900              -0.000000000               0.999999984              -0.000796204               0.000000000               0.999999984              -0.000808574               0.000000000               0.999999984              -0.000821771               0.000000000               0.999999984              -0.000835509              -0.000000000               0.999999984              -0.000849682              -0.000000000               0.999999984              -0.000864200              -0.000000000               0.999999984              -0.000878751               0.000000000               0.999999984              -0.000892871              -0.000000000               0.999999984              -0.000906113               0.000000000               0.999999984              -0.000917783               0.000000000               0.999999984              -0.000670887               0.000126637               0.999999984              -0.000716261               0.000103447               0.999999984              -0.000735189               0.000093532               0.999999984              -0.000745460               0.000090326               0.999999984              -0.000753566               0.000090761               0.999999984              -0.000761913               0.000093069               0.999999984              -0.000771395               0.000096215               0.999999984              -0.000782120               0.000099678               0.999999984              -0.000793871               0.000102962               0.999999984              -0.000806408               0.000105641               0.999999984              -0.000819446               0.000107513               0.999999984              -0.000832764               0.000108628               0.999999984              -0.000846112               0.000108644               0.999999984              -0.000859172               0.000107064               0.999999984              -0.000871637               0.000103279               0.999999984              -0.000883065               0.000096688               0.999999984              -0.000892898               0.000086064               0.999999984              -0.000659730               0.000252219               0.999999984              -0.000694626               0.000206373               0.999999984              -0.000707151               0.000187648               0.999999984              -0.000713609               0.000182255               0.999999984              -0.000719303               0.000183733               0.999999984              -0.000725981               0.000188725               0.999999984              -0.000734043               0.000195230               0.999999984              -0.000743401               0.000202190               0.999999984              -0.000753574               0.000208752               0.999999984              -0.000764151               0.000214160               0.999999984              -0.000774989               0.000218002               0.999999984              -0.000785708               0.000220196               0.999999984              -0.000796012               0.000220217               0.999999984              -0.000805575               0.000217262               0.999999984              -0.000813987               0.000210498               0.999999984              -0.000820959               0.000198772               0.999999984              -0.000826185               0.000180875               0.999999984              -0.000641446               0.000375554               0.999999984              -0.000659710               0.000308328               0.999999984              -0.000662999               0.000282808               0.999999984              -0.000664397               0.000276804               0.999999984              -0.000667182               0.000280417               0.999999984              -0.000672006               0.000288672               0.999999984              -0.000678468               0.000298760               0.999999984              -0.000685956               0.000309229               0.999999984              -0.000693877               0.000318901               0.999999984              -0.000701827               0.000326862               0.999999984              -0.000709381               0.000332653               0.999999984              -0.000716180               0.000335947               0.999999984              -0.000721773               0.000336164               0.999999984              -0.000725852               0.000332452               0.999999984              -0.000728194               0.000323744               0.999999984              -0.000728612               0.000309218               0.999999984              -0.000727233               0.000288282               0.999999984              -0.000616350               0.000495393               0.999999984              -0.000613285               0.000409023               0.999999984              -0.000606403               0.000379150               0.999999984              -0.000602982               0.000374196               0.999999984              -0.000603404               0.000380889               0.999999984              -0.000606734               0.000392874               0.999999984              -0.000611704               0.000406704               0.999999984              -0.000617406               0.000420406               0.999999984              -0.000623025               0.000432834               0.999999984              -0.000627818               0.000442926               0.999999984              -0.000631317               0.000450219               0.999999984              -0.000633064               0.000454329               0.999999984              -0.000632711               0.000454685               0.999999984              -0.000630037               0.000450529               0.999999984              -0.000624984               0.000441093               0.999999984              -0.000617814               0.000426173               0.999999984              -0.000609093               0.000406036               0.999999984              -0.000584955               0.000610568               0.999999984              -0.000557893               0.000508368               0.999999984              -0.000541653               0.000476526               0.999999984              -0.000534792               0.000473954               0.999999984              -0.000534030               0.000484262               0.999999984              -0.000536701               0.000500016               0.999999984              -0.000540756               0.000517220               0.999999984              -0.000544676               0.000533672               0.999999984              -0.000547407               0.000548223               0.999999984              -0.000548310               0.000559945               0.999999984              -0.000546909               0.000568405               0.999999984              -0.000542836               0.000573034               0.999999984              -0.000535768               0.000573301               0.999999984              -0.000525672               0.000568844               0.999999984              -0.000512962               0.000559511               0.999999984              -0.000498275               0.000545904               0.999999984              -0.000482413               0.000529019               0.999999984              -0.000547761               0.000720025               0.999999984              -0.000496232               0.000606387               0.999999984              -0.000472923               0.000574525               0.999999984              -0.000464910               0.000575033               0.999999984              -0.000464550               0.000588908               0.999999984              -0.000467412               0.000607982               0.999999984              -0.000470671               0.000627879               0.999999984              -0.000472522               0.000646430               0.999999984              -0.000471919               0.000662565               0.999999984              -0.000468234               0.000675564               0.999999984              -0.000461154               0.000684815               0.999999984              -0.000450345               0.000689601               0.999999984              -0.000435849               0.000689592               0.999999984              -0.000418120               0.000685154               0.999999984              -0.000397920               0.000676816               0.999999984              -0.000376018               0.000665524               0.999999984              -0.000353110               0.000652367               0.999999984              -0.000505598               0.000822507               0.999999984              -0.000431322               0.000702735               0.999999984              -0.000404190               0.000672321               0.999999984              -0.000397536               0.000675775               0.999999984              -0.000398743               0.000692702               0.999999984              -0.000402153               0.000714484               0.999999984              -0.000404375               0.000736607               0.999999984              -0.000403630               0.000756772               0.999999984              -0.000398971               0.000774094               0.999999984              -0.000389975               0.000787796               0.999999984              -0.000376295               0.000797322               0.999999984              -0.000357984               0.000801829               0.999999984              -0.000335605               0.000801746               0.999999984              -0.000310009               0.000797946               0.999999984              -0.000282145               0.000791337               0.999999984              -0.000252789               0.000782763               0.999999984              -0.000222634               0.000773156               0.999999984              -0.000459843               0.000916225               0.999999984              -0.000365442               0.000797298               0.999999984              -0.000339164               0.000768517               0.999999984              -0.000335557               0.000774157               0.999999984              -0.000338977               0.000793504               0.999999984              -0.000342780               0.000817456               0.999999984              -0.000343362               0.000841419               0.999999984              -0.000339197               0.000863057               0.999999984              -0.000329744               0.000881106               0.999999984              -0.000314451               0.000894982               0.999999984              -0.000293172               0.000904093               0.999999984              -0.000266510               0.000908516               0.999999984              -0.000235592               0.000908936               0.999999984              -0.000201585               0.000906551               0.999999984              -0.000165621               0.000902335               0.999999984              -0.000128668               0.000897041               0.999999984              -0.000091346               0.000891247               0.999999984              -0.000412701               0.001004651               0.999999984              -0.000310827               0.000901974               0.999999984              -0.000281305               0.000868221               0.999999984              -0.000276551               0.000867432               0.999999984              -0.000279688               0.000881940               0.999999984              -0.000283956               0.000902993               0.999999984              -0.000285774               0.000926019               0.999999984              -0.000283645               0.000948375               0.999999984              -0.000276772               0.000968651               0.999999984              -0.000264572               0.000985935               0.999999984              -0.000246587               0.000999863               0.999999984              -0.000223127               0.001010072               0.999999984              -0.000194799               0.001016954               0.999999984              -0.000162258               0.001020895               0.999999984              -0.000126871               0.001022888               0.999999984              -0.000089521               0.001023548               0.999999984              -0.000051192               0.001023593               0.999999984              -0.000361157               0.001084900               0.999999984              -0.000259206               0.001003024               0.999999984              -0.000226566               0.000970327               0.999999984              -0.000219668               0.000965519               0.999999984              -0.000221679               0.000976155               0.999999984              -0.000225616               0.000994720               0.999999984              -0.000228198               0.001016774               0.999999984              -0.000227714               0.001039653               0.999999984              -0.000223033               0.001061774               0.999999984              -0.000213554               0.001082066               0.999999984              -0.000198712               0.001100030               0.999999984              -0.000178413               0.001115204               0.999999984              -0.000152950               0.001127605               0.999999984              -0.000122643               0.001137381               0.999999984              -0.000088191               0.001145104               0.999999984              -0.000050572               0.001151348               0.999999984              -0.000010911               0.001156914               0.999999984              -0.000306232               0.001155133               0.999999984              -0.000210531               0.001097388               0.999999984              -0.000176494               0.001070193               0.999999984              -0.000167113               0.001064747               0.999999984              -0.000167283               0.001073181               0.999999984              -0.000170337               0.001090064               0.999999984              -0.000172933               0.001111518               0.999999984              -0.000173451               0.001135084               0.999999984              -0.000170420               0.001158998               0.999999984              -0.000163218               0.001182154               0.999999984              -0.000151281               0.001203848               0.999999984              -0.000134258               0.001223637               0.999999984              -0.000111988               0.001241145               0.999999984              -0.000084364               0.001256401               0.999999984              -0.000051458               0.001269658               0.999999984              -0.000013751               0.001281374               0.999999984               0.000027792               0.001292144               0.999999984              -0.000248409               0.001214125               0.999999984              -0.000164755               0.001181171               0.999999984              -0.000131880               0.001162798               0.999999984              -0.000120847               0.001159545               0.999999984              -0.000119171               0.001167767               0.999999984              -0.000120802               0.001184150               0.999999984              -0.000122833               0.001205694               0.999999984              -0.000123662               0.001230188               0.999999984              -0.000121831               0.001256020               0.999999984              -0.000116464               0.001282140               0.999999984              -0.000107069               0.001307662               0.999999984              -0.000093390               0.001332046               0.999999984              -0.000074736               0.001354791               0.999999984              -0.000050468               0.001375626               0.999999984              -0.000020254               0.001394503               0.999999984               0.000016286               0.001411810               0.999999984               0.000059078               0.001427898               0.999999984              -0.000188351               0.001260843               0.999999984              -0.000121484               0.001250508               0.999999984              -0.000092900               0.001242532               0.999999984              -0.000081831               0.001243461               0.999999984              -0.000078901               0.001253239               0.999999984              -0.000079255               0.001270173               0.999999984              -0.000080502               0.001292434               0.999999984              -0.000081097               0.001318260               0.999999984              -0.000079939               0.001346155               0.999999984              -0.000076197               0.001375139               0.999999984              -0.000069295               0.001404366               0.999999984              -0.000058824               0.001433309               0.999999984              -0.000044168               0.001461349               0.999999984              -0.000024473               0.001488125               0.999999984               0.000001353               0.001513225               0.999999984               0.000034274               0.001536643               0.999999984               0.000075348               0.001558519               0.999999984              -0.000126560               0.001294832               0.999999984              -0.000080028               0.001302405               0.999999984              -0.000058860               0.001304007               0.999999984              -0.000049872               0.001309788               0.999999984              -0.000046833               0.001321909               0.999999984              -0.000046454               0.001340138               0.999999984              -0.000046914               0.001363471               0.999999984              -0.000047200               0.001390708               0.999999984              -0.000046541               0.001420518               0.999999984              -0.000044195               0.001452113               0.999999984              -0.000039715               0.001484772               0.999999984              -0.000032567               0.001517765               0.999999984              -0.000022301               0.001550645               0.999999984              -0.000008194               0.001583018               0.999999984               0.000011021               0.001614308               0.999999984               0.000036624               0.001644103               0.999999984               0.000070360               0.001671999               0.999999984              -0.000063569               0.001315457               0.999999984              -0.000039747               0.001334581               0.999999984              -0.000028442               0.001342815               0.999999984              -0.000023475               0.001352406               0.999999984              -0.000021576               0.001366714               0.999999984              -0.000021092               0.001386231               0.999999984              -0.000021143               0.001410526               0.999999984              -0.000021168               0.001438754               0.999999984              -0.000020928               0.001469947               0.999999984              -0.000019835               0.001503331               0.999999984              -0.000017634               0.001538411               0.999999984              -0.000014066               0.001574536               0.999999984              -0.000008694               0.001611071               0.999999984              -0.000001162               0.001647651               0.999999984               0.000009118               0.001683640               0.999999984               0.000023372               0.001718327               0.999999984               0.000042853               0.001750934               0.999999984               0.000000000               0.001322240               0.999999984               0.000000000               0.001345396               0.999999984              -0.000000000               0.001356039               0.999999984              -0.000000000               0.001366995               0.999999984              -0.000000000               0.001382236               0.999999984              -0.000000000               0.001402348               0.999999984               0.000000000               0.001427030               0.999999984               0.000000000               0.001455629               0.999999984               0.000000000               0.001487355               0.999999984               0.000000000               0.001521470               0.999999984              -0.000000000               0.001557410               0.999999984              -0.000000000               0.001594654               0.999999984              -0.000000000               0.001632599               0.999999984               0.000000000               0.001670671               0.999999984               0.000000000               0.001708323               0.999999984              -0.000000000               0.001744899               0.999999984              -0.000000000               0.001779322               0.999999984              -0.000674646              -0.000000000               0.999999984              -0.000723636               0.000000000               0.999999984              -0.000744974               0.000000000               0.999999984              -0.000756696               0.000000000               0.999999984              -0.000765734               0.000000000               0.999999984              -0.000774831               0.000000000               0.999999984              -0.000784900              -0.000000000               0.999999984              -0.000796204               0.000000000               0.999999984              -0.000808574               0.000000000               0.999999984              -0.000821771               0.000000000               0.999999984              -0.000835509              -0.000000000               0.999999984              -0.000849682              -0.000000000               0.999999984              -0.000864200              -0.000000000               0.999999984              -0.000878751               0.000000000               0.999999984              -0.000892871              -0.000000000               0.999999984              -0.000906113               0.000000000               0.999999984              -0.000917783               0.000000000               0.999999984              -0.000670887              -0.000126637               0.999999984              -0.000716261              -0.000103447               0.999999984              -0.000735189              -0.000093532               0.999999984              -0.000745460              -0.000090326               0.999999984              -0.000753566              -0.000090761               0.999999984              -0.000761913              -0.000093069               0.999999984              -0.000771395              -0.000096215               0.999999984              -0.000782120              -0.000099678               0.999999984              -0.000793871              -0.000102962               0.999999984              -0.000806408              -0.000105641               0.999999984              -0.000819446              -0.000107513               0.999999984              -0.000832764              -0.000108628               0.999999984              -0.000846112              -0.000108644               0.999999984              -0.000859172              -0.000107064               0.999999984              -0.000871637              -0.000103279               0.999999984              -0.000883065              -0.000096688               0.999999984              -0.000892898              -0.000086064               0.999999984              -0.000659730              -0.000252219               0.999999984              -0.000694626              -0.000206373               0.999999984              -0.000707151              -0.000187648               0.999999984              -0.000713609              -0.000182255               0.999999984              -0.000719303              -0.000183733               0.999999984              -0.000725981              -0.000188725               0.999999984              -0.000734043              -0.000195230               0.999999984              -0.000743401              -0.000202190               0.999999984              -0.000753574              -0.000208752               0.999999984              -0.000764151              -0.000214160               0.999999984              -0.000774989              -0.000218002               0.999999984              -0.000785708              -0.000220196               0.999999984              -0.000796012              -0.000220217               0.999999984              -0.000805575              -0.000217262               0.999999984              -0.000813987              -0.000210498               0.999999984              -0.000820959              -0.000198772               0.999999984              -0.000826185              -0.000180875               0.999999984              -0.000641446              -0.000375554               0.999999984              -0.000659710              -0.000308328               0.999999984              -0.000662999              -0.000282808               0.999999984              -0.000664397              -0.000276804               0.999999984              -0.000667182              -0.000280417               0.999999984              -0.000672006              -0.000288672               0.999999984              -0.000678468              -0.000298760               0.999999984              -0.000685956              -0.000309229               0.999999984              -0.000693877              -0.000318901               0.999999984              -0.000701827              -0.000326862               0.999999984              -0.000709381              -0.000332653               0.999999984              -0.000716180              -0.000335947               0.999999984              -0.000721773              -0.000336164               0.999999984              -0.000725852              -0.000332452               0.999999984              -0.000728194              -0.000323744               0.999999984              -0.000728612              -0.000309218               0.999999984              -0.000727233              -0.000288282               0.999999984              -0.000616350              -0.000495393               0.999999984              -0.000613285              -0.000409023               0.999999984              -0.000606403              -0.000379150               0.999999984              -0.000602982              -0.000374196               0.999999984              -0.000603404              -0.000380889               0.999999984              -0.000606734              -0.000392874               0.999999984              -0.000611704              -0.000406704               0.999999984              -0.000617406              -0.000420406               0.999999984              -0.000623025              -0.000432834               0.999999984              -0.000627818              -0.000442926               0.999999984              -0.000631317              -0.000450219               0.999999984              -0.000633064              -0.000454329               0.999999984              -0.000632711              -0.000454685               0.999999984              -0.000630037              -0.000450529               0.999999984              -0.000624984              -0.000441093               0.999999984              -0.000617814              -0.000426173               0.999999984              -0.000609093              -0.000406036               0.999999984              -0.000584955              -0.000610568               0.999999984              -0.000557893              -0.000508368               0.999999984              -0.000541653              -0.000476526               0.999999984              -0.000534792              -0.000473954               0.999999984              -0.000534030              -0.000484262               0.999999984              -0.000536701              -0.000500016               0.999999984              -0.000540756              -0.000517220               0.999999984              -0.000544676              -0.000533672               0.999999984              -0.000547407              -0.000548223               0.999999984              -0.000548310              -0.000559945               0.999999984              -0.000546909              -0.000568405               0.999999984              -0.000542836              -0.000573034               0.999999984              -0.000535768              -0.000573301               0.999999984              -0.000525672              -0.000568844               0.999999984              -0.000512962              -0.000559511               0.999999984              -0.000498275              -0.000545904               0.999999984              -0.000482413              -0.000529019               0.999999984              -0.000547761              -0.000720025               0.999999984              -0.000496232              -0.000606387               0.999999984              -0.000472923              -0.000574525               0.999999984              -0.000464910              -0.000575033               0.999999984              -0.000464550              -0.000588908               0.999999984              -0.000467412              -0.000607982               0.999999984              -0.000470671              -0.000627879               0.999999984              -0.000472522              -0.000646430               0.999999984              -0.000471919              -0.000662565               0.999999984              -0.000468234              -0.000675564               0.999999984              -0.000461154              -0.000684815               0.999999984              -0.000450345              -0.000689601               0.999999984              -0.000435849              -0.000689592               0.999999984              -0.000418120              -0.000685154               0.999999984              -0.000397920              -0.000676816               0.999999984              -0.000376018              -0.000665524               0.999999984              -0.000353110              -0.000652367               0.999999984              -0.000505598              -0.000822507               0.999999984              -0.000431322              -0.000702735               0.999999984              -0.000404190              -0.000672321               0.999999984              -0.000397536              -0.000675775               0.999999984              -0.000398743              -0.000692702               0.999999984              -0.000402153              -0.000714484               0.999999984              -0.000404375              -0.000736607               0.999999984              -0.000403630              -0.000756772               0.999999984              -0.000398971              -0.000774094               0.999999984              -0.000389975              -0.000787796               0.999999984              -0.000376295              -0.000797322               0.999999984              -0.000357984              -0.000801829               0.999999984              -0.000335605              -0.000801746               0.999999984              -0.000310009              -0.000797946               0.999999984              -0.000282145              -0.000791337               0.999999984              -0.000252789              -0.000782763               0.999999984              -0.000222634              -0.000773156               0.999999984              -0.000459843              -0.000916225               0.999999984              -0.000365442              -0.000797298               0.999999984              -0.000339164              -0.000768517               0.999999984              -0.000335557              -0.000774157               0.999999984              -0.000338977              -0.000793504               0.999999984              -0.000342780              -0.000817456               0.999999984              -0.000343362              -0.000841419               0.999999984              -0.000339197              -0.000863057               0.999999984              -0.000329744              -0.000881106               0.999999984              -0.000314451              -0.000894982               0.999999984              -0.000293172              -0.000904093               0.999999984              -0.000266510              -0.000908516               0.999999984              -0.000235592              -0.000908936               0.999999984              -0.000201585              -0.000906551               0.999999984              -0.000165621              -0.000902335               0.999999984              -0.000128668              -0.000897041               0.999999984              -0.000091346              -0.000891247               0.999999984              -0.000412701              -0.001004651               0.999999984              -0.000310827              -0.000901974               0.999999984              -0.000281305              -0.000868221               0.999999984              -0.000276551              -0.000867432               0.999999984              -0.000279688              -0.000881940               0.999999984              -0.000283956              -0.000902993               0.999999984              -0.000285774              -0.000926019               0.999999984              -0.000283645              -0.000948375               0.999999984              -0.000276772              -0.000968651               0.999999984              -0.000264572              -0.000985935               0.999999984              -0.000246587              -0.000999863               0.999999984              -0.000223127              -0.001010072               0.999999984              -0.000194799              -0.001016954               0.999999984              -0.000162258              -0.001020895               0.999999984              -0.000126871              -0.001022888               0.999999984              -0.000089521              -0.001023548               0.999999984              -0.000051192              -0.001023593               0.999999984              -0.000361157              -0.001084900               0.999999984              -0.000259206              -0.001003024               0.999999984              -0.000226566              -0.000970327               0.999999984              -0.000219668              -0.000965519               0.999999984              -0.000221679              -0.000976155               0.999999984              -0.000225616              -0.000994720               0.999999984              -0.000228198              -0.001016774               0.999999984              -0.000227714              -0.001039653               0.999999984              -0.000223033              -0.001061774               0.999999984              -0.000213554              -0.001082066               0.999999984              -0.000198712              -0.001100030               0.999999984              -0.000178413              -0.001115204               0.999999984              -0.000152950              -0.001127605               0.999999984              -0.000122643              -0.001137381               0.999999984              -0.000088191              -0.001145104               0.999999984              -0.000050572              -0.001151348               0.999999984              -0.000010911              -0.001156914               0.999999984              -0.000306232              -0.001155133               0.999999984              -0.000210531              -0.001097388               0.999999984              -0.000176494              -0.001070193               0.999999984              -0.000167113              -0.001064747               0.999999984              -0.000167283              -0.001073181               0.999999984              -0.000170337              -0.001090064               0.999999984              -0.000172933              -0.001111518               0.999999984              -0.000173451              -0.001135084               0.999999984              -0.000170420              -0.001158998               0.999999984              -0.000163218              -0.001182154               0.999999984              -0.000151281              -0.001203848               0.999999984              -0.000134258              -0.001223637               0.999999984              -0.000111988              -0.001241145               0.999999984              -0.000084364              -0.001256401               0.999999984              -0.000051458              -0.001269658               0.999999984              -0.000013751              -0.001281374               0.999999984               0.000027792              -0.001292144               0.999999984              -0.000248409              -0.001214125               0.999999984              -0.000164755              -0.001181171               0.999999984              -0.000131880              -0.001162798               0.999999984              -0.000120847              -0.001159545               0.999999984              -0.000119171              -0.001167767               0.999999984              -0.000120802              -0.001184150               0.999999984              -0.000122833              -0.001205694               0.999999984              -0.000123662              -0.001230188               0.999999984              -0.000121831              -0.001256020               0.999999984              -0.000116464              -0.001282140               0.999999984              -0.000107069              -0.001307662               0.999999984              -0.000093390              -0.001332046               0.999999984              -0.000074736              -0.001354791               0.999999984              -0.000050468              -0.001375626               0.999999984              -0.000020254              -0.001394503               0.999999984               0.000016286              -0.001411810               0.999999984               0.000059078              -0.001427898               0.999999984              -0.000188351              -0.001260843               0.999999984              -0.000121484              -0.001250508               0.999999984              -0.000092900              -0.001242532               0.999999984              -0.000081831              -0.001243461               0.999999984              -0.000078901              -0.001253239               0.999999984              -0.000079255              -0.001270173               0.999999984              -0.000080502              -0.001292434               0.999999984              -0.000081097              -0.001318260               0.999999984              -0.000079939              -0.001346155               0.999999984              -0.000076197              -0.001375139               0.999999984              -0.000069295              -0.001404366               0.999999984              -0.000058824              -0.001433309               0.999999984              -0.000044168              -0.001461349               0.999999984              -0.000024473              -0.001488125               0.999999984               0.000001353              -0.001513225               0.999999984               0.000034274              -0.001536643               0.999999984               0.000075348              -0.001558519               0.999999984              -0.000126560              -0.001294832               0.999999984              -0.000080028              -0.001302405               0.999999984              -0.000058860              -0.001304007               0.999999984              -0.000049872              -0.001309788               0.999999984              -0.000046833              -0.001321909               0.999999984              -0.000046454              -0.001340138               0.999999984              -0.000046914              -0.001363471               0.999999984              -0.000047200              -0.001390708               0.999999984              -0.000046541              -0.001420518               0.999999984              -0.000044195              -0.001452113               0.999999984              -0.000039715              -0.001484772               0.999999984              -0.000032567              -0.001517765               0.999999984              -0.000022301              -0.001550645               0.999999984              -0.000008194              -0.001583018               0.999999984               0.000011021              -0.001614308               0.999999984               0.000036624              -0.001644103               0.999999984               0.000070360              -0.001671999               0.999999984              -0.000063569              -0.001315457               0.999999984              -0.000039747              -0.001334581               0.999999984              -0.000028442              -0.001342815               0.999999984              -0.000023475              -0.001352406               0.999999984              -0.000021576              -0.001366714               0.999999984              -0.000021092              -0.001386231               0.999999984              -0.000021143              -0.001410526               0.999999984              -0.000021168              -0.001438754               0.999999984              -0.000020928              -0.001469947               0.999999984              -0.000019835              -0.001503331               0.999999984              -0.000017634              -0.001538411               0.999999984              -0.000014066              -0.001574536               0.999999984              -0.000008694              -0.001611071               0.999999984              -0.000001162              -0.001647651               0.999999984               0.000009118              -0.001683640               0.999999984               0.000023372              -0.001718327               0.999999984               0.000042853              -0.001750934               0.999999984               0.000000000              -0.001322240               0.999999984               0.000000000              -0.001345396               0.999999984              -0.000000000              -0.001356039               0.999999984               0.000000000              -0.001366995               0.999999984               0.000000000              -0.001382236               0.999999984              -0.000000000              -0.001402348               0.999999984               0.000000000              -0.001427030               0.999999984               0.000000000              -0.001455629               0.999999984               0.000000000              -0.001487355               0.999999984              -0.000000000              -0.001521470               0.999999984               0.000000000              -0.001557410               0.999999984               0.000000000              -0.001594654               0.999999984              -0.000000000              -0.001632599               0.999999984              -0.000000000              -0.001670671               0.999999984              -0.000000000              -0.001708323               0.999999984              -0.000000000              -0.001744899               0.999999984               0.000000000              -0.001779322               0.999999984               0.000674646              -0.000000000               0.999999984               0.000723636               0.000000000               0.999999984               0.000744974               0.000000000               0.999999984               0.000756696               0.000000000               0.999999984               0.000765734               0.000000000               0.999999984               0.000774831               0.000000000               0.999999984               0.000784900               0.000000000               0.999999984               0.000796204              -0.000000000               0.999999984               0.000808574               0.000000000               0.999999984               0.000821771               0.000000000               0.999999984               0.000835509               0.000000000               0.999999984               0.000849682              -0.000000000               0.999999984               0.000864200               0.000000000               0.999999984               0.000878751               0.000000000               0.999999984               0.000892871               0.000000000               0.999999984               0.000906113               0.000000000               0.999999984               0.000917783               0.000000000               0.999999984               0.000670887              -0.000126637               0.999999984               0.000716261              -0.000103447               0.999999984               0.000735189              -0.000093532               0.999999984               0.000745460              -0.000090326               0.999999984               0.000753566              -0.000090761               0.999999984               0.000761913              -0.000093069               0.999999984               0.000771395              -0.000096215               0.999999984               0.000782120              -0.000099678               0.999999984               0.000793871              -0.000102962               0.999999984               0.000806408              -0.000105641               0.999999984               0.000819446              -0.000107513               0.999999984               0.000832764              -0.000108628               0.999999984               0.000846112              -0.000108644               0.999999984               0.000859172              -0.000107064               0.999999984               0.000871637              -0.000103279               0.999999984               0.000883065              -0.000096688               0.999999984               0.000892898              -0.000086064               0.999999984               0.000659730              -0.000252219               0.999999984               0.000694626              -0.000206373               0.999999984               0.000707151              -0.000187648               0.999999984               0.000713609              -0.000182255               0.999999984               0.000719303              -0.000183733               0.999999984               0.000725981              -0.000188725               0.999999984               0.000734043              -0.000195230               0.999999984               0.000743401              -0.000202190               0.999999984               0.000753574              -0.000208752               0.999999984               0.000764151              -0.000214160               0.999999984               0.000774989              -0.000218002               0.999999984               0.000785708              -0.000220196               0.999999984               0.000796012              -0.000220217               0.999999984               0.000805575              -0.000217262               0.999999984               0.000813987              -0.000210498               0.999999984               0.000820959              -0.000198772               0.999999984               0.000826185              -0.000180875               0.999999984               0.000641446              -0.000375554               0.999999984               0.000659710              -0.000308328               0.999999984               0.000662999              -0.000282808               0.999999984               0.000664397              -0.000276804               0.999999984               0.000667182              -0.000280417               0.999999984               0.000672006              -0.000288672               0.999999984               0.000678468              -0.000298760               0.999999984               0.000685956              -0.000309229               0.999999984               0.000693877              -0.000318901               0.999999984               0.000701827              -0.000326862               0.999999984               0.000709381              -0.000332653               0.999999984               0.000716180              -0.000335947               0.999999984               0.000721773              -0.000336164               0.999999984               0.000725852              -0.000332452               0.999999984               0.000728194              -0.000323744               0.999999984               0.000728612              -0.000309218               0.999999984               0.000727233              -0.000288282               0.999999984               0.000616350              -0.000495393               0.999999984               0.000613285              -0.000409023               0.999999984               0.000606403              -0.000379150               0.999999984               0.000602982              -0.000374196               0.999999984               0.000603404              -0.000380889               0.999999984               0.000606734              -0.000392874               0.999999984               0.000611704              -0.000406704               0.999999984               0.000617406              -0.000420406               0.999999984               0.000623025              -0.000432834               0.999999984               0.000627818              -0.000442926               0.999999984               0.000631317              -0.000450219               0.999999984               0.000633064              -0.000454329               0.999999984               0.000632711              -0.000454685               0.999999984               0.000630037              -0.000450529               0.999999984               0.000624984              -0.000441093               0.999999984               0.000617814              -0.000426173               0.999999984               0.000609093              -0.000406036               0.999999984               0.000584955              -0.000610568               0.999999984               0.000557893              -0.000508368               0.999999984               0.000541653              -0.000476526               0.999999984               0.000534792              -0.000473954               0.999999984               0.000534030              -0.000484262               0.999999984               0.000536701              -0.000500016               0.999999984               0.000540756              -0.000517220               0.999999984               0.000544676              -0.000533672               0.999999984               0.000547407              -0.000548223               0.999999984               0.000548310              -0.000559945               0.999999984               0.000546909              -0.000568405               0.999999984               0.000542836              -0.000573034               0.999999984               0.000535768              -0.000573301               0.999999984               0.000525672              -0.000568844               0.999999984               0.000512962              -0.000559511               0.999999984               0.000498275              -0.000545904               0.999999984               0.000482413              -0.000529019               0.999999984               0.000547761              -0.000720025               0.999999984               0.000496232              -0.000606387               0.999999984               0.000472923              -0.000574525               0.999999984               0.000464910              -0.000575033               0.999999984               0.000464550              -0.000588908               0.999999984               0.000467412              -0.000607982               0.999999984               0.000470671              -0.000627879               0.999999984               0.000472522              -0.000646430               0.999999984               0.000471919              -0.000662565               0.999999984               0.000468234              -0.000675564               0.999999984               0.000461154              -0.000684815               0.999999984               0.000450345              -0.000689601               0.999999984               0.000435849              -0.000689592               0.999999984               0.000418120              -0.000685154               0.999999984               0.000397920              -0.000676816               0.999999984               0.000376018              -0.000665524               0.999999984               0.000353110              -0.000652367               0.999999984               0.000505598              -0.000822507               0.999999984               0.000431322              -0.000702735               0.999999984               0.000404190              -0.000672321               0.999999984               0.000397536              -0.000675775               0.999999984               0.000398743              -0.000692702               0.999999984               0.000402153              -0.000714484               0.999999984               0.000404375              -0.000736607               0.999999984               0.000403630              -0.000756772               0.999999984               0.000398971              -0.000774094               0.999999984               0.000389975              -0.000787796               0.999999984               0.000376295              -0.000797322               0.999999984               0.000357984              -0.000801829               0.999999984               0.000335605              -0.000801746               0.999999984               0.000310009              -0.000797946               0.999999984               0.000282145              -0.000791337               0.999999984               0.000252789              -0.000782763               0.999999984               0.000222634              -0.000773156               0.999999984               0.000459843              -0.000916225               0.999999984               0.000365442              -0.000797298               0.999999984               0.000339164              -0.000768517               0.999999984               0.000335557              -0.000774157               0.999999984               0.000338977              -0.000793504               0.999999984               0.000342780              -0.000817456               0.999999984               0.000343362              -0.000841419               0.999999984               0.000339197              -0.000863057               0.999999984               0.000329744              -0.000881106               0.999999984               0.000314451              -0.000894982               0.999999984               0.000293172              -0.000904093               0.999999984               0.000266510              -0.000908516               0.999999984               0.000235592              -0.000908936               0.999999984               0.000201585              -0.000906551               0.999999984               0.000165621              -0.000902335               0.999999984               0.000128668              -0.000897041               0.999999984               0.000091346              -0.000891247               0.999999984               0.000412701              -0.001004651               0.999999984               0.000310827              -0.000901974               0.999999984               0.000281305              -0.000868221               0.999999984               0.000276551              -0.000867432               0.999999984               0.000279688              -0.000881940               0.999999984               0.000283956              -0.000902993               0.999999984               0.000285774              -0.000926019               0.999999984               0.000283645              -0.000948375               0.999999984               0.000276772              -0.000968651               0.999999984               0.000264572              -0.000985935               0.999999984               0.000246587              -0.000999863               0.999999984               0.000223127              -0.001010072               0.999999984               0.000194799              -0.001016954               0.999999984               0.000162258              -0.001020895               0.999999984               0.000126871              -0.001022888               0.999999984               0.000089521              -0.001023548               0.999999984               0.000051192              -0.001023593               0.999999984               0.000361157              -0.001084900               0.999999984               0.000259206              -0.001003024               0.999999984               0.000226566              -0.000970327               0.999999984               0.000219668              -0.000965519               0.999999984               0.000221679              -0.000976155               0.999999984               0.000225616              -0.000994720               0.999999984               0.000228198              -0.001016774               0.999999984               0.000227714              -0.001039653               0.999999984               0.000223033              -0.001061774               0.999999984               0.000213554              -0.001082066               0.999999984               0.000198712              -0.001100030               0.999999984               0.000178413              -0.001115204               0.999999984               0.000152950              -0.001127605               0.999999984               0.000122643              -0.001137381               0.999999984               0.000088191              -0.001145104               0.999999984               0.000050572              -0.001151348               0.999999984               0.000010911              -0.001156914               0.999999984               0.000306232              -0.001155133               0.999999984               0.000210531              -0.001097388               0.999999984               0.000176494              -0.001070193               0.999999984               0.000167113              -0.001064747               0.999999984               0.000167283              -0.001073181               0.999999984               0.000170337              -0.001090064               0.999999984               0.000172933              -0.001111518               0.999999984               0.000173451              -0.001135084               0.999999984               0.000170420              -0.001158998               0.999999984               0.000163218              -0.001182154               0.999999984               0.000151281              -0.001203848               0.999999984               0.000134258              -0.001223637               0.999999984               0.000111988              -0.001241145               0.999999984               0.000084364              -0.001256401               0.999999984               0.000051458              -0.001269658               0.999999984               0.000013751              -0.001281374               0.999999984              -0.000027792              -0.001292144               0.999999984               0.000248409              -0.001214125               0.999999984               0.000164755              -0.001181171               0.999999984               0.000131880              -0.001162798               0.999999984               0.000120847              -0.001159545               0.999999984               0.000119171              -0.001167767               0.999999984               0.000120802              -0.001184150               0.999999984               0.000122833              -0.001205694               0.999999984               0.000123662              -0.001230188               0.999999984               0.000121831              -0.001256020               0.999999984               0.000116464              -0.001282140               0.999999984               0.000107069              -0.001307662               0.999999984               0.000093390              -0.001332046               0.999999984               0.000074736              -0.001354791               0.999999984               0.000050468              -0.001375626               0.999999984               0.000020254              -0.001394503               0.999999984              -0.000016286              -0.001411810               0.999999984              -0.000059078              -0.001427898               0.999999984               0.000188351              -0.001260843               0.999999984               0.000121484              -0.001250508               0.999999984               0.000092900              -0.001242532               0.999999984               0.000081831              -0.001243461               0.999999984               0.000078901              -0.001253239               0.999999984               0.000079255              -0.001270173               0.999999984               0.000080502              -0.001292434               0.999999984               0.000081097              -0.001318260               0.999999984               0.000079939              -0.001346155               0.999999984               0.000076197              -0.001375139               0.999999984               0.000069295              -0.001404366               0.999999984               0.000058824              -0.001433309               0.999999984               0.000044168              -0.001461349               0.999999984               0.000024473              -0.001488125               0.999999984              -0.000001353              -0.001513225               0.999999984              -0.000034274              -0.001536643               0.999999984              -0.000075348              -0.001558519               0.999999984               0.000126560              -0.001294832               0.999999984               0.000080028              -0.001302405               0.999999984               0.000058860              -0.001304007               0.999999984               0.000049872              -0.001309788               0.999999984               0.000046833              -0.001321909               0.999999984               0.000046454              -0.001340138               0.999999984               0.000046914              -0.001363471               0.999999984               0.000047200              -0.001390708               0.999999984               0.000046541              -0.001420518               0.999999984               0.000044195              -0.001452113               0.999999984               0.000039715              -0.001484772               0.999999984               0.000032567              -0.001517765               0.999999984               0.000022301              -0.001550645               0.999999984               0.000008194              -0.001583018               0.999999984              -0.000011021              -0.001614308               0.999999984              -0.000036624              -0.001644103               0.999999984              -0.000070360              -0.001671999               0.999999984               0.000063569              -0.001315457               0.999999984               0.000039747              -0.001334581               0.999999984               0.000028442              -0.001342815               0.999999984               0.000023475              -0.001352406               0.999999984               0.000021576              -0.001366714               0.999999984               0.000021092              -0.001386231               0.999999984               0.000021143              -0.001410526               0.999999984               0.000021168              -0.001438754               0.999999984               0.000020928              -0.001469947               0.999999984               0.000019835              -0.001503331               0.999999984               0.000017634              -0.001538411               0.999999984               0.000014066              -0.001574536               0.999999984               0.000008694              -0.001611071               0.999999984               0.000001162              -0.001647651               0.999999984              -0.000009118              -0.001683640               0.999999984              -0.000023372              -0.001718327               0.999999984              -0.000042853              -0.001750934               0.999999984               0.000000000              -0.001322240               0.999999984               0.000000000              -0.001345396               0.999999984              -0.000000000              -0.001356039               0.999999984               0.000000000              -0.001366995               0.999999984               0.000000000              -0.001382236               0.999999984              -0.000000000              -0.001402348               0.999999984               0.000000000              -0.001427030               0.999999984               0.000000000              -0.001455629               0.999999984               0.000000000              -0.001487355               0.999999984              -0.000000000              -0.001521470               0.999999984               0.000000000              -0.001557410               0.999999984               0.000000000              -0.001594654               0.999999984              -0.000000000              -0.001632599               0.999999984              -0.000000000              -0.001670671               0.999999984              -0.000000000              -0.001708323               0.999999984              -0.000000000              -0.001744899               0.999999984               0.000000000              -0.001779322               0.999999984               0.000674646              -0.000000000               0.999999984               0.000723636               0.000000000               0.999999984               0.000744974               0.000000000               0.999999984               0.000756696               0.000000000               0.999999984               0.000765734               0.000000000               0.999999984               0.000774831               0.000000000               0.999999984               0.000784900               0.000000000               0.999999984               0.000796204              -0.000000000               0.999999984               0.000808574               0.000000000               0.999999984               0.000821771               0.000000000               0.999999984               0.000835509               0.000000000               0.999999984               0.000849682              -0.000000000               0.999999984               0.000864200               0.000000000               0.999999984               0.000878751               0.000000000               0.999999984               0.000892871               0.000000000               0.999999984               0.000906113               0.000000000               0.999999984               0.000917783               0.000000000               0.999999984               0.000670887               0.000126637               0.999999984               0.000716261               0.000103447               0.999999984               0.000735189               0.000093532               0.999999984               0.000745460               0.000090326               0.999999984               0.000753566               0.000090761               0.999999984               0.000761913               0.000093069               0.999999984               0.000771395               0.000096215               0.999999984               0.000782120               0.000099678               0.999999984               0.000793871               0.000102962               0.999999984               0.000806408               0.000105641               0.999999984               0.000819446               0.000107513               0.999999984               0.000832764               0.000108628               0.999999984               0.000846112               0.000108644               0.999999984               0.000859172               0.000107064               0.999999984               0.000871637               0.000103279               0.999999984               0.000883065               0.000096688               0.999999984               0.000892898               0.000086064               0.999999984               0.000659730               0.000252219               0.999999984               0.000694626               0.000206373               0.999999984               0.000707151               0.000187648               0.999999984               0.000713609               0.000182255               0.999999984               0.000719303               0.000183733               0.999999984               0.000725981               0.000188725               0.999999984               0.000734043               0.000195230               0.999999984               0.000743401               0.000202190               0.999999984               0.000753574               0.000208752               0.999999984               0.000764151               0.000214160               0.999999984               0.000774989               0.000218002               0.999999984               0.000785708               0.000220196               0.999999984               0.000796012               0.000220217               0.999999984               0.000805575               0.000217262               0.999999984               0.000813987               0.000210498               0.999999984               0.000820959               0.000198772               0.999999984               0.000826185               0.000180875               0.999999984               0.000641446               0.000375554               0.999999984               0.000659710               0.000308328               0.999999984               0.000662999               0.000282808               0.999999984               0.000664397               0.000276804               0.999999984               0.000667182               0.000280417               0.999999984               0.000672006               0.000288672               0.999999984               0.000678468               0.000298760               0.999999984               0.000685956               0.000309229               0.999999984               0.000693877               0.000318901               0.999999984               0.000701827               0.000326862               0.999999984               0.000709381               0.000332653               0.999999984               0.000716180               0.000335947               0.999999984               0.000721773               0.000336164               0.999999984               0.000725852               0.000332452               0.999999984               0.000728194               0.000323744               0.999999984               0.000728612               0.000309218               0.999999984               0.000727233               0.000288282               0.999999984               0.000616350               0.000495393               0.999999984               0.000613285               0.000409023               0.999999984               0.000606403               0.000379150               0.999999984               0.000602982               0.000374196               0.999999984               0.000603404               0.000380889               0.999999984               0.000606734               0.000392874               0.999999984               0.000611704               0.000406704               0.999999984               0.000617406               0.000420406               0.999999984               0.000623025               0.000432834               0.999999984               0.000627818               0.000442926               0.999999984               0.000631317               0.000450219               0.999999984               0.000633064               0.000454329               0.999999984               0.000632711               0.000454685               0.999999984               0.000630037               0.000450529               0.999999984               0.000624984               0.000441093               0.999999984               0.000617814               0.000426173               0.999999984               0.000609093               0.000406036               0.999999984               0.000584955               0.000610568               0.999999984               0.000557893               0.000508368               0.999999984               0.000541653               0.000476526               0.999999984               0.000534792               0.000473954               0.999999984               0.000534030               0.000484262               0.999999984               0.000536701               0.000500016               0.999999984               0.000540756               0.000517220               0.999999984               0.000544676               0.000533672               0.999999984               0.000547407               0.000548223               0.999999984               0.000548310               0.000559945               0.999999984               0.000546909               0.000568405               0.999999984               0.000542836               0.000573034               0.999999984               0.000535768               0.000573301               0.999999984               0.000525672               0.000568844               0.999999984               0.000512962               0.000559511               0.999999984               0.000498275               0.000545904               0.999999984               0.000482413               0.000529019               0.999999984               0.000547761               0.000720025               0.999999984               0.000496232               0.000606387               0.999999984               0.000472923               0.000574525               0.999999984               0.000464910               0.000575033               0.999999984               0.000464550               0.000588908               0.999999984               0.000467412               0.000607982               0.999999984               0.000470671               0.000627879               0.999999984               0.000472522               0.000646430               0.999999984               0.000471919               0.000662565               0.999999984               0.000468234               0.000675564               0.999999984               0.000461154               0.000684815               0.999999984               0.000450345               0.000689601               0.999999984               0.000435849               0.000689592               0.999999984               0.000418120               0.000685154               0.999999984               0.000397920               0.000676816               0.999999984               0.000376018               0.000665524               0.999999984               0.000353110               0.000652367               0.999999984               0.000505598               0.000822507               0.999999984               0.000431322               0.000702735               0.999999984               0.000404190               0.000672321               0.999999984               0.000397536               0.000675775               0.999999984               0.000398743               0.000692702               0.999999984               0.000402153               0.000714484               0.999999984               0.000404375               0.000736607               0.999999984               0.000403630               0.000756772               0.999999984               0.000398971               0.000774094               0.999999984               0.000389975               0.000787796               0.999999984               0.000376295               0.000797322               0.999999984               0.000357984               0.000801829               0.999999984               0.000335605               0.000801746               0.999999984               0.000310009               0.000797946               0.999999984               0.000282145               0.000791337               0.999999984               0.000252789               0.000782763               0.999999984               0.000222634               0.000773156               0.999999984               0.000459843               0.000916225               0.999999984               0.000365442               0.000797298               0.999999984               0.000339164               0.000768517               0.999999984               0.000335557               0.000774157               0.999999984               0.000338977               0.000793504               0.999999984               0.000342780               0.000817456               0.999999984               0.000343362               0.000841419               0.999999984               0.000339197               0.000863057               0.999999984               0.000329744               0.000881106               0.999999984               0.000314451               0.000894982               0.999999984               0.000293172               0.000904093               0.999999984               0.000266510               0.000908516               0.999999984               0.000235592               0.000908936               0.999999984               0.000201585               0.000906551               0.999999984               0.000165621               0.000902335               0.999999984               0.000128668               0.000897041               0.999999984               0.000091346               0.000891247               0.999999984               0.000412701               0.001004651               0.999999984               0.000310827               0.000901974               0.999999984               0.000281305               0.000868221               0.999999984               0.000276551               0.000867432               0.999999984               0.000279688               0.000881940               0.999999984               0.000283956               0.000902993               0.999999984               0.000285774               0.000926019               0.999999984               0.000283645               0.000948375               0.999999984               0.000276772               0.000968651               0.999999984               0.000264572               0.000985935               0.999999984               0.000246587               0.000999863               0.999999984               0.000223127               0.001010072               0.999999984               0.000194799               0.001016954               0.999999984               0.000162258               0.001020895               0.999999984               0.000126871               0.001022888               0.999999984               0.000089521               0.001023548               0.999999984               0.000051192               0.001023593               0.999999984               0.000361157               0.001084900               0.999999984               0.000259206               0.001003024               0.999999984               0.000226566               0.000970327               0.999999984               0.000219668               0.000965519               0.999999984               0.000221679               0.000976155               0.999999984               0.000225616               0.000994720               0.999999984               0.000228198               0.001016774               0.999999984               0.000227714               0.001039653               0.999999984               0.000223033               0.001061774               0.999999984               0.000213554               0.001082066               0.999999984               0.000198712               0.001100030               0.999999984               0.000178413               0.001115204               0.999999984               0.000152950               0.001127605               0.999999984               0.000122643               0.001137381               0.999999984               0.000088191               0.001145104               0.999999984               0.000050572               0.001151348               0.999999984               0.000010911               0.001156914               0.999999984               0.000306232               0.001155133               0.999999984               0.000210531               0.001097388               0.999999984               0.000176494               0.001070193               0.999999984               0.000167113               0.001064747               0.999999984               0.000167283               0.001073181               0.999999984               0.000170337               0.001090064               0.999999984               0.000172933               0.001111518               0.999999984               0.000173451               0.001135084               0.999999984               0.000170420               0.001158998               0.999999984               0.000163218               0.001182154               0.999999984               0.000151281               0.001203848               0.999999984               0.000134258               0.001223637               0.999999984               0.000111988               0.001241145               0.999999984               0.000084364               0.001256401               0.999999984               0.000051458               0.001269658               0.999999984               0.000013751               0.001281374               0.999999984              -0.000027792               0.001292144               0.999999984               0.000248409               0.001214125               0.999999984               0.000164755               0.001181171               0.999999984               0.000131880               0.001162798               0.999999984               0.000120847               0.001159545               0.999999984               0.000119171               0.001167767               0.999999984               0.000120802               0.001184150               0.999999984               0.000122833               0.001205694               0.999999984               0.000123662               0.001230188               0.999999984               0.000121831               0.001256020               0.999999984               0.000116464               0.001282140               0.999999984               0.000107069               0.001307662               0.999999984               0.000093390               0.001332046               0.999999984               0.000074736               0.001354791               0.999999984               0.000050468               0.001375626               0.999999984               0.000020254               0.001394503               0.999999984              -0.000016286               0.001411810               0.999999984              -0.000059078               0.001427898               0.999999984               0.000188351               0.001260843               0.999999984               0.000121484               0.001250508               0.999999984               0.000092900               0.001242532               0.999999984               0.000081831               0.001243461               0.999999984               0.000078901               0.001253239               0.999999984               0.000079255               0.001270173               0.999999984               0.000080502               0.001292434               0.999999984               0.000081097               0.001318260               0.999999984               0.000079939               0.001346155               0.999999984               0.000076197               0.001375139               0.999999984               0.000069295               0.001404366               0.999999984               0.000058824               0.001433309               0.999999984               0.000044168               0.001461349               0.999999984               0.000024473               0.001488125               0.999999984              -0.000001353               0.001513225               0.999999984              -0.000034274               0.001536643               0.999999984              -0.000075348               0.001558519               0.999999984               0.000126560               0.001294832               0.999999984               0.000080028               0.001302405               0.999999984               0.000058860               0.001304007               0.999999984               0.000049872               0.001309788               0.999999984               0.000046833               0.001321909               0.999999984               0.000046454               0.001340138               0.999999984               0.000046914               0.001363471               0.999999984               0.000047200               0.001390708               0.999999984               0.000046541               0.001420518               0.999999984               0.000044195               0.001452113               0.999999984               0.000039715               0.001484772               0.999999984               0.000032567               0.001517765               0.999999984               0.000022301               0.001550645               0.999999984               0.000008194               0.001583018               0.999999984              -0.000011021               0.001614308               0.999999984              -0.000036624               0.001644103               0.999999984              -0.000070360               0.001671999               0.999999984               0.000063569               0.001315457               0.999999984               0.000039747               0.001334581               0.999999984               0.000028442               0.001342815               0.999999984               0.000023475               0.001352406               0.999999984               0.000021576               0.001366714               0.999999984               0.000021092               0.001386231               0.999999984               0.000021143               0.001410526               0.999999984               0.000021168               0.001438754               0.999999984               0.000020928               0.001469947               0.999999984               0.000019835               0.001503331               0.999999984               0.000017634               0.001538411               0.999999984               0.000014066               0.001574536               0.999999984               0.000008694               0.001611071               0.999999984               0.000001162               0.001647651               0.999999984              -0.000009118               0.001683640               0.999999984              -0.000023372               0.001718327               0.999999984              -0.000042853               0.001750934               0.999999984               0.000000000               0.001322240               0.999999984               0.000000000               0.001345396               0.999999984              -0.000000000               0.001356039               0.999999984              -0.000000000               0.001366995               0.999999984              -0.000000000               0.001382236               0.999999984              -0.000000000               0.001402348               0.999999984               0.000000000               0.001427030               0.999999984               0.000000000               0.001455629               0.999999984               0.000000000               0.001487355               0.999999984               0.000000000               0.001521470               0.999999984              -0.000000000               0.001557410               0.999999984              -0.000000000               0.001594654               0.999999984              -0.000000000               0.001632599               0.999999984               0.000000000               0.001670671               0.999999984               0.000000000               0.001708323               0.999999984              -0.000000000               0.001744899               0.999999984              -0.000000000               0.001779322               0.999999984 </DataArray>
<DataArray type="Float64"                                    Name="defo"                                                      NumberOfComponents=" 3" format="ascii">
             -0.000674646              -0.000000000               0.999999984              -0.000723636               0.000000000               0.999999984              -0.000744974               0.000000000               0.999999984              -0.000756696               0.000000000               0.999999984              -0.000765734               0.000000000               0.999999984              -0.000774831               0.000000000               0.999999984              -0.000784900              -0.000000000               0.999999984              -0.000796204               0.000000000               0.999999984              -0.000808574               0.000000000               0.999999984              -0.000821771               0.000000000               0.999999984              -0.000835509              -0.000000000               0.999999984              -0.000849682              -0.000000000               0.999999984              -0.000864200              -0.000000000               0.999999984              -0.000878751               0.000000000               0.999999984              -0.000892871              -0.000000000               0.999999984              -0.000906113               0.000000000               0.999999984              -0.000917783               0.000000000               0.999999984              -0.000670887               0.000126637               0.999999984              -0.000716261               0.000103447               0.999999984              -0.000735189               0.000093532               0.999999984              -0.000745460               0.000090326               0.999999984              -0.000753566               0.000090761               0.999999984              -0.000761913               0.000093069               0.999999984              -0.000771395               0.000096215               0.999999984              -0.000782120               0.000099678               0.999999984              -0.000793871               0.000102962               0.999999984              -0.000806408               0.000105641               0.999999984              -0.000819446               0.000107513               0.999999984              -0.000832764               0.000108628               0.999999984              -0.000846112               0.000108644               0.999999984              -0.000859172               0.000107064               0.999999984              -0.000871637               0.000103279               0.999999984              -0.000883065               0.000096688               0.999999984              -0.000892898               0.000086064               0.999999984              -0.000659730               0.000252219               0.999999984              -0.000694626               0.000206373               0.999999984              -0.000707151               0.000187648               0.999999984              -0.000713609               0.000182255               0.999999984              -0.000719303               0.000183733               0.999999984              -0.000725981               0.000188725               0.999999984              -0.000734043               0.000195230               0.999999984              -0.000743401               0.000202190               0.999999984              -0.000753574               0.000208752               0.999999984              -0.000764151               0.000214160               0.999999984              -0.000774989               0.000218002               0.999999984              -0.000785708               0.000220196               0.999999984              -0.000796012               0.000220217               0.999999984              -0.000805575               0.000217262               0.999999984              -0.000813987               0.000210498               0.999999984              -0.000820959               0.000198772               0.999999984              -0.000826185               0.000180875               0.999999984              -0.000641446               0.000375554               0.999999984              -0.000659710               0.000308328               0.999999984              -0.000662999               0.000282808               0.999999984              -0.000664397               0.000276804               0.999999984              -0.000667182               0.000280417               0.999999984              -0.000672006               0.000288672               0.999999984              -0.000678468               0.000298760               0.999999984              -0.000685956               0.000309229               0.999999984              -0.000693877               0.000318901               0.999999984              -0.000701827               0.000326862               0.999999984              -0.000709381               0.000332653               0.999999984              -0.000716180               0.000335947               0.999999984              -0.000721773               0.000336164               0.999999984              -0.000725852               0.000332452               0.999999984              -0.000728194               0.000323744               0.999999984              -0.000728612               0.000309218               0.999999984              -0.000727233               0.000288282               0.999999984              -0.000616350               0.000495393               0.999999984              -0.000613285               0.000409023               0.999999984              -0.000606403               0.000379150               0.999999984              -0.000602982               0.000374196               0.999999984              -0.000603404               0.000380889               0.999999984              -0.000606734               0.000392874               0.999999984              -0.000611704               0.000406704               0.999999984              -0.000617406               0.000420406               0.999999984              -0.000623025               0.000432834               0.999999984              -0.000627818               0.000442926               0.999999984              -0.000631317               0.000450219               0.999999984              -0.000633064               0.000454329               0.999999984              -0.000632711               0.000454685               0.999999984              -0.000630037               0.000450529               0.999999984              -0.000624984               0.000441093               0.999999984              -0.000617814               0.000426173               0.999999984              -0.000609093               0.000406036               0.999999984              -0.000584955               0.000610568               0.999999984              -0.000557893               0.000508368               0.999999984              -0.000541653               0.000476526               0.999999984              -0.000534792               0.000473954               0.999999984              -0.000534030               0.000484262               0.999999984              -0.000536701               0.000500016               0.999999984              -0.000540756               0.000517220               0.999999984              -0.000544676               0.000533672               0.999999984              -0.000547407               0.000548223               0.999999984              -0.000548310               0.000559945               0.999999984              -0.000546909               0.000568405               0.999999984              -0.000542836               0.000573034               0.999999984              -0.000535768               0.000573301               0.999999984              -0.000525672               0.000568844               0.999999984              -0.000512962               0.000559511               0.999999984              -0.000498275               0.000545904               0.999999984              -0.000482413               0.000529019               0.999999984              -0.000547761               0.000720025               0.999999984              -0.000496232               0.000606387               0.999999984              -0.000472923               0.000574525               0.999999984              -0.000464910               0.000575033               0.999999984              -0.000464550               0.000588908               0.999999984              -0.000467412               0.000607982               0.999999984              -0.000470671               0.000627879               0.999999984              -0.000472522               0.000646430               0.999999984              -0.000471919               0.000662565               0.999999984              -0.000468234               0.000675564               0.999999984              -0.000461154               0.000684815               0.999999984              -0.000450345               0.000689601               0.999999984              -0.000435849               0.000689592               0.999999984              -0.000418120               0.000685154               0.999999984              -0.000397920               0.000676816               0.999999984              -0.000376018               0.000665524               0.999999984              -0.000353110               0.000652367               0.999999984              -0.000505598               0.000822507               0.999999984              -0.000431322               0.000702735               0.999999984              -0.000404190               0.000672321               0.999999984              -0.000397536               0.000675775               0.999999984              -0.000398743               0.000692702               0.999999984              -0.000402153               0.000714484               0.999999984              -0.000404375               0.000736607               0.999999984              -0.000403630               0.000756772               0.999999984              -0.000398971               0.000774094               0.999999984              -0.000389975               0.000787796               0.999999984              -0.000376295               0.000797322               0.999999984              -0.000357984               0.000801829               0.999999984              -0.000335605               0.000801746               0.999999984              -0.000310009               0.000797946               0.999999984              -0.000282145               0.000791337               0.999999984              -0.000252789               0.000782763               0.999999984              -0.000222634               0.000773156               0.999999984              -0.000459843               0.000916225               0.999999984              -0.000365442               0.000797298               0.999999984              -0.000339164               0.000768517               0.999999984              -0.000335557               0.000774157               0.999999984              -0.000338977               0.000793504               0.999999984              -0.000342780               0.000817456               0.999999984              -0.000343362               0.000841419               0.999999984              -0.000339197               0.000863057               0.999999984              -0.000329744               0.000881106               0.999999984              -0.000314451               0.000894982               0.999999984              -0.000293172               0.000904093               0.999999984              -0.000266510               0.000908516               0.999999984              -0.000235592               0.000908936               0.999999984              -0.000201585               0.000906551               0.999999984              -0.000165621               0.000902335               0.999999984              -0.000128668               0.000897041               0.999999984              -0.000091346               0.000891247               0.999999984              -0.000412701               0.001004651               0.999999984              -0.000310827               0.000901974               0.999999984              -0.000281305               0.000868221               0.999999984              -0.000276551               0.000867432               0.999999984              -0.000279688               0.000881940               0.999999984              -0.000283956               0.000902993               0.999999984              -0.000285774               0.000926019               0.999999984              -0.000283645               0.000948375               0.999999984              -0.000276772               0.000968651               0.999999984              -0.000264572               0.000985935               0.999999984              -0.000246587               0.000999863               0.999999984              -0.000223127               0.001010072               0.999999984              -0.000194799               0.001016954               0.999999984              -0.000162258               0.001020895               0.999999984              -0.000126871               0.001022888               0.999999984              -0.000089521               0.001023548               0.999999984              -0.000051192               0.001023593               0.999999984              -0.000361157               0.001084900               0.999999984              -0.000259206               0.001003024               0.999999984              -0.000226566               0.000970327               0.999999984              -0.000219668               0.000965519               0.999999984              -0.000221679               0.000976155               0.999999984              -0.000225616               0.000994720               0.999999984              -0.000228198               0.001016774               0.999999984              -0.000227714               0.001039653               0.999999984              -0.000223033               0.001061774               0.999999984              -0.000213554               0.001082066               0.999999984              -0.000198712               0.001100030               0.999999984              -0.000178413               0.001115204               0.999999984              -0.000152950               0.001127605               0.999999984              -0.000122643               0.001137381               0.999999984              -0.000088191               0.001145104               0.999999984              -0.000050572               0.001151348               0.999999984              -0.000010911               0.001156914               0.999999984              -0.000306232               0.001155133               0.999999984              -0.000210531               0.001097388               0.999999984              -0.000176494               0.001070193               0.999999984              -0.000167113               0.001064747               0.999999984              -0.000167283               0.001073181               0.999999984              -0.000170337               0.001090064               0.999999984              -0.000172933               0.001111518               0.999999984              -0.000173451               0.001135084               0.999999984              -0.000170420               0.001158998               0.999999984              -0.000163218               0.001182154               0.999999984              -0.000151281               0.001203848               0.999999984              -0.000134258               0.001223637               0.999999984              -0.000111988               0.001241145               0.999999984              -0.000084364               0.001256401               0.999999984              -0.000051458               0.001269658               0.999999984              -0.000013751               0.001281374               0.999999984               0.000027792               0.001292144               0.999999984              -0.000248409               0.001214125               0.999999984              -0.000164755               0.001181171               0.999999984              -0.000131880               0.001162798               0.999999984              -0.000120847               0.001159545               0.999999984              -0.000119171               0.001167767               0.999999984              -0.000120802               0.001184150               0.999999984              -0.000122833               0.001205694               0.999999984              -0.000123662               0.001230188               0.999999984              -0.000121831               0.001256020               0.999999984              -0.000116464               0.001282140               0.999999984              -0.000107069               0.001307662               0.999999984              -0.000093390               0.001332046               0.999999984              -0.000074736               0.001354791               0.999999984              -0.000050468               0.001375626               0.999999984              -0.000020254               0.001394503               0.999999984               0.000016286               0.001411810               0.999999984               0.000059078               0.001427898               0.999999984              -0.000188351               0.001260843               0.999999984              -0.000121484               0.001250508               0.999999984              -0.000092900               0.001242532               0.999999984              -0.000081831               0.001243461               0.999999984              -0.000078901               0.001253239               0.999999984              -0.000079255               0.001270173               0.999999984              -0.000080502               0.001292434               0.999999984              -0.000081097               0.001318260               0.999999984              -0.000079939               0.001346155               0.999999984              -0.000076197               0.001375139               0.999999984              -0.000069295               0.001404366               0.999999984              -0.000058824               0.001433309               0.999999984              -0.000044168               0.001461349               0.999999984              -0.000024473               0.001488125               0.999999984               0.000001353               0.001513225               0.999999984               0.000034274               0.001536643               0.999999984               0.000075348               0.001558519               0.999999984              -0.000126560               0.001294832               0.999999984              -0.000080028               0.001302405               0.999999984              -0.000058860               0.001304007               0.999999984              -0.000049872               0.001309788               0.999999984              -0.000046833               0.001321909               0.999999984              -0.000046454               0.001340138               0.999999984              -0.000046914               0.001363471               0.999999984              -0.000047200               0.001390708               0.999999984              -0.000046541               0.001420518               0.999999984              -0.000044195               0.001452113               0.999999984              -0.000039715               0.001484772               0.999999984              -0.000032567               0.001517765               0.999999984              -0.000022301               0.001550645               0.999999984              -0.000008194               0.001583018               0.999999984               0.000011021               0.001614308               0.999999984               0.000036624               0.001644103               0.999999984               0.000070360               0.001671999               0.999999984              -0.000063569               0.001315457               0.999999984              -0.000039747               0.001334581               0.999999984              -0.000028442               0.001342815               0.999999984              -0.000023475               0.001352406               0.999999984              -0.000021576               0.001366714               0.999999984              -0.000021092               0.001386231               0.999999984              -0.000021143               0.001410526               0.999999984              -0.000021168               0.001438754               0.999999984              -0.000020928               0.001469947               0.999999984              -0.000019835               0.001503331               0.999999984              -0.000017634               0.001538411               0.999999984              -0.000014066               0.001574536               0.999999984              -0.000008694               0.001611071               0.999999984              -0.000001162               0.001647651               0.999999984               0.000009118               0.001683640               0.999999984               0.000023372               0.001718327               0.999999984               0.000042853               0.001750934               0.999999984               0.000000000               0.001322240               0.999999984               0.000000000               0.001345396               0.999999984              -0.000000000               0.001356039               0.999999984              -0.000000000               0.001366995               0.999999984              -0.000000000               0.001382236               0.999999984              -0.000000000               0.001402348               0.999999984               0.000000000               0.001427030               0.999999984               0.000000000               0.001455629               0.999999984               0.000000000               0.001487355               0.999999984               0.000000000               0.001521470               0.999999984              -0.000000000               0.001557410               0.999999984              -0.000000000               0.001594654               0.999999984              -0.000000000               0.001632599               0.999999984               0.000000000               0.001670671               0.999999984               0.000000000               0.001708323               0.999999984              -0.000000000               0.001744899               0.999999984              -0.000000000               0.001779322               0.999999984              -0.000674646              -0.000000000               0.999999984              -0.000723636               0.000000000               0.999999984              -0.000744974               0.000000000               0.999999984              -0.000756696               0.000000000               0.999999984              -0.000765734               0.000000000               0.999999984              -0.000774831               0.000000000               0.999999984              -0.000784900              -0.000000000               0.999999984              -0.000796204               0.000000000               0.999999984              -0.000808574               0.000000000               0.999999984              -0.000821771               0.000000000               0.999999984              -0.000835509              -0.000000000               0.999999984              -0.000849682              -0.000000000               0.999999984              -0.000864200              -0.000000000               0.999999984              -0.000878751               0.000000000               0.999999984              -0.000892871              -0.000000000               0.999999984              -0.000906113               0.000000000               0.999999984              -0.000917783               0.000000000               0.999999984              -0.000670887              -0.000126637               0.999999984              -0.000716261              -0.000103447               0.999999984              -0.000735189              -0.000093532               0.999999984              -0.000745460              -0.000090326               0.999999984              -0.000753566              -0.000090761               0.999999984              -0.000761913              -0.000093069               0.999999984              -0.000771395              -0.000096215               0.999999984              -0.000782120              -0.000099678               0.999999984              -0.000793871              -0.000102962               0.999999984              -0.000806408              -0.000105641               0.999999984              -0.000819446              -0.000107513               0.999999984              -0.000832764              -0.000108628               0.999999984              -0.000846112              -0.000108644               0.999999984              -0.000859172              -0.000107064               0.999999984              -0.000871637              -0.000103279               0.999999984              -0.000883065              -0.000096688               0.999999984              -0.000892898              -0.000086064               0.999999984              -0.000659730              -0.000252219               0.999999984              -0.000694626              -0.000206373               0.999999984              -0.000707151              -0.000187648               0.999999984              -0.000713609              -0.000182255               0.999999984              -0.000719303              -0.000183733               0.999999984              -0.000725981              -0.000188725               0.999999984              -0.000734043              -0.000195230               0.999999984              -0.000743401              -0.000202190               0.999999984              -0.000753574              -0.000208752               0.999999984              -0.000764151              -0.000214160               0.999999984              -0.000774989              -0.000218002               0.999999984              -0.000785708              -0.000220196               0.999999984              -0.000796012              -0.000220217               0.999999984              -0.000805575              -0.000217262               0.999999984              -0.000813987              -0.000210498               0.999999984              -0.000820959              -0.000198772               0.999999984              -0.000826185              -0.000180875               0.999999984              -0.000641446              -0.000375554               0.999999984              -0.000659710              -0.000308328               0.999999984              -0.000662999              -0.000282808               0.999999984              -0.000664397              -0.000276804               0.999999984              -0.000667182              -0.000280417               0.999999984              -0.000672006              -0.000288672               0.999999984              -0.000678468              -0.000298760               0.999999984              -0.000685956              -0.000309229               0.999999984              -0.000693877              -0.000318901               0.999999984              -0.000701827              -0.000326862               0.999999984              -0.000709381              -0.000332653               0.999999984              -0.000716180              -0.000335947               0.999999984              -0.000721773              -0.000336164               0.999999984              -0.000725852              -0.000332452               0.999999984              -0.000728194              -0.000323744               0.999999984              -0.000728612              -0.000309218               0.999999984              -0.000727233              -0.000288282               0.999999984              -0.000616350              -0.000495393               0.999999984              -0.000613285              -0.000409023               0.999999984              -0.000606403              -0.000379150               0.999999984              -0.000602982              -0.000374196               0.999999984              -0.000603404              -0.000380889               0.999999984              -0.000606734              -0.000392874               0.999999984              -0.000611704              -0.000406704               0.999999984              -0.000617406              -0.000420406               0.999999984              -0.000623025              -0.000432834               0.999999984              -0.000627818              -0.000442926               0.999999984              -0.000631317              -0.000450219               0.999999984              -0.000633064              -0.000454329               0.999999984              -0.000632711              -0.000454685               0.999999984              -0.000630037              -0.000450529               0.999999984              -0.000624984              -0.000441093               0.999999984              -0.000617814              -0.000426173               0.999999984              -0.000609093              -0.000406036               0.999999984              -0.000584955              -0.000610568               0.999999984              -0.000557893              -0.000508368               0.999999984              -0.000541653              -0.000476526               0.999999984              -0.000534792              -0.000473954               0.999999984              -0.000534030              -0.000484262               0.999999984              -0.000536701              -0.000500016               0.999999984              -0.000540756              -0.000517220               0.999999984              -0.000544676              -0.000533672               0.999999984              -0.000547407              -0.000548223               0.999999984              -0.000548310              -0.000559945               0.999999984              -0.000546909              -0.000568405               0.999999984              -0.000542836              -0.000573034               0.999999984              -0.000535768              -0.000573301               0.999999984              -0.000525672              -0.000568844               0.999999984              -0.000512962              -0.000559511               0.999999984              -0.000498275              -0.000545904               0.999999984              -0.000482413              -0.000529019               0.999999984              -0.000547761              -0.000720025               0.999999984              -0.000496232              -0.000606387               0.999999984              -0.000472923              -0.000574525               0.999999984              -0.000464910              -0.000575033               0.999999984              -0.000464550              -0.000588908               0.999999984              -0.000467412              -0.000607982               0.999999984              -0.000470671              -0.000627879               0.999999984              -0.000472522              -0.000646430               0.999999984              -0.000471919              -0.000662565               0.999999984              -0.000468234              -0.000675564               0.999999984              -0.000461154              -0.000684815               0.999999984              -0.000450345              -0.000689601               0.999999984              -0.000435849              -0.000689592               0.999999984              -0.000418120              -0.000685154               0.999999984              -0.000397920              -0.000676816               0.999999984              -0.000376018              -0.000665524               0.999999984              -0.000353110              -0.000652367               0.999999984              -0.000505598              -0.000822507               0.999999984              -0.000431322              -0.000702735               0.999999984              -0.000404190              -0.000672321               0.999999984              -0.000397536              -0.000675775               0.999999984              -0.000398743              -0.000692702               0.999999984              -0.000402153              -0.000714484               0.999999984              -0.000404375              -0.000736607               0.999999984              -0.000403630              -0.000756772               0.999999984              -0.000398971              -0.000774094               0.999999984              -0.000389975              -0.000787796               0.999999984              -0.000376295              -0.000797322               0.999999984              -0.000357984              -0.000801829               0.999999984              -0.000335605              -0.000801746               0.999999984              -0.000310009              -0.000797946               0.999999984              -0.000282145              -0.000791337               0.999999984              -0.000252789              -0.000782763               0.999999984              -0.000222634              -0.000773156               0.999999984              -0.000459843              -0.000916225               0.999999984              -0.000365442              -0.000797298               0.999999984              -0.000339164              -0.000768517               0.999999984              -0.000335557              -0.000774157               0.999999984              -0.000338977              -0.000793504               0.999999984              -0.000342780              -0.000817456               0.999999984              -0.000343362              -0.000841419               0.999999984              -0.000339197              -0.000863057               0.999999984              -0.000329744              -0.000881106               0.999999984              -0.000314451              -0.000894982               0.999999984              -0.000293172              -0.000904093               0.999999984              -0.000266510              -0.000908516               0.999999984              -0.000235592              -0.000908936               0.999999984              -0.000201585              -0.000906551               0.999999984              -0.000165621              -0.000902335               0.999999984              -0.000128668              -0.000897041               0.999999984              -0.000091346              -0.000891247               0.999999984              -0.000412701              -0.001004651               0.999999984              -0.000310827              -0.000901974               0.999999984              -0.000281305              -0.000868221               0.999999984              -0.000276551              -0.000867432               0.999999984              -0.000279688              -0.000881940               0.999999984              -0.000283956              -0.000902993               0.999999984              -0.000285774              -0.000926019               0.999999984              -0.000283645              -0.000948375               0.999999984              -0.000276772              -0.000968651               0.999999984              -0.000264572              -0.000985935               0.999999984              -0.000246587              -0.000999863               0.999999984              -0.000223127              -0.001010072               0.999999984              -0.000194799              -0.001016954               0.999999984              -0.000162258              -0.001020895               0.999999984              -0.000126871              -0.001022888               0.999999984              -0.000089521              -0.001023548               0.999999984              -0.000051192              -0.001023593               0.999999984              -0.000361157              -0.001084900               0.999999984              -0.000259206              -0.001003024               0.999999984              -0.000226566              -0.000970327               0.999999984              -0.000219668              -0.000965519               0.999999984              -0.000221679              -0.000976155               0.999999984              -0.000225616              -0.000994720               0.999999984              -0.000228198              -0.001016774               0.999999984              -0.000227714              -0.001039653               0.999999984              -0.000223033              -0.001061774               0.999999984              -0.000213554              -0.001082066               0.999999984              -0.000198712              -0.001100030               0.999999984              -0.000178413              -0.001115204               0.999999984              -0.000152950              -0.001127605               0.999999984              -0.000122643              -0.001137381               0.999999984              -0.000088191              -0.001145104               0.999999984              -0.000050572              -0.001151348               0.999999984              -0.000010911              -0.001156914               0.999999984              -0.000306232              -0.001155133               0.999999984              -0.000210531              -0.001097388               0.999999984              -0.000176494              -0.001070193               0.999999984              -0.000167113              -0.001064747               0.999999984              -0.000167283              -0.001073181               0.999999984              -0.000170337              -0.001090064               0.999999984              -0.000172933              -0.001111518               0.999999984              -0.000173451              -0.001135084               0.999999984              -0.000170420              -0.001158998               0.999999984              -0.000163218              -0.001182154               0.999999984              -0.000151281              -0.001203848               0.999999984              -0.000134258              -0.001223637               0.999999984              -0.000111988              -0.001241145               0.999999984              -0.000084364              -0.001256401               0.999999984              -0.000051458              -0.001269658               0.999999984              -0.000013751              -0.001281374               0.999999984               0.000027792              -0.001292144               0.999999984              -0.000248409              -0.001214125               0.999999984              -0.000164755              -0.001181171               0.999999984              -0.000131880              -0.001162798               0.999999984              -0.000120847              -0.001159545               0.999999984              -0.000119171              -0.001167767               0.999999984              -0.000120802              -0.001184150               0.999999984              -0.000122833              -0.001205694               0.999999984              -0.000123662              -0.001230188               0.999999984              -0.000121831              -0.001256020               0.999999984              -0.000116464              -0.001282140               0.999999984              -0.000107069              -0.001307662               0.999999984              -0.000093390              -0.001332046               0.999999984              -0.000074736              -0.001354791               0.999999984              -0.000050468              -0.001375626               0.999999984              -0.000020254              -0.001394503               0.999999984               0.000016286              -0.001411810               0.999999984               0.000059078              -0.001427898               0.999999984              -0.000188351              -0.001260843               0.999999984              -0.000121484              -0.001250508               0.999999984              -0.000092900              -0.001242532               0.999999984              -0.000081831              -0.001243461               0.999999984              -0.000078901              -0.001253239               0.999999984              -0.000079255              -0.001270173               0.999999984              -0.000080502              -0.001292434               0.999999984              -0.000081097              -0.001318260               0.999999984              -0.000079939              -0.001346155               0.999999984              -0.000076197              -0.001375139               0.999999984              -0.000069295              -0.001404366               0.999999984              -0.000058824              -0.001433309               0.999999984              -0.000044168              -0.001461349               0.999999984              -0.000024473              -0.001488125               0.999999984               0.000001353              -0.001513225               0.999999984               0.000034274              -0.001536643               0.999999984               0.000075348              -0.001558519               0.999999984              -0.000126560              -0.001294832               0.999999984              -0.000080028              -0.001302405               0.999999984              -0.000058860              -0.001304007               0.999999984              -0.000049872              -0.001309788               0.999999984              -0.000046833              -0.001321909               0.999999984              -0.000046454              -0.001340138               0.999999984              -0.000046914              -0.001363471               0.999999984              -0.000047200              -0.001390708               0.999999984              -0.000046541              -0.001420518               0.999999984              -0.000044195              -0.001452113               0.999999984              -0.000039715              -0.001484772               0.999999984              -0.000032567              -0.001517765               0.999999984              -0.000022301              -0.001550645               0.999999984              -0.000008194              -0.001583018               0.999999984               0.000011021              -0.001614308               0.999999984               0.000036624              -0.001644103               0.999999984               0.000070360              -0.001671999               0.999999984              -0.000063569              -0.001315457               0.999999984              -0.000039747              -0.001334581               0.999999984              -0.000028442              -0.001342815               0.999999984              -0.000023475              -0.001352406               0.999999984              -0.000021576              -0.001366714               0.999999984              -0.000021092              -0.001386231               0.999999984              -0.000021143              -0.001410526               0.999999984              -0.000021168              -0.001438754               0.999999984              -0.000020928              -0.001469947               0.999999984              -0.000019835              -0.001503331               0.999999984              -0.000017634              -0.001538411               0.999999984              -0.000014066              -0.001574536               0.999999984              -0.000008694              -0.001611071               0.999999984              -0.000001162              -0.001647651               0.999999984               0.000009118              -0.001683640               0.999999984               0.000023372              -0.001718327               0.999999984               0.000042853              -0.001750934               0.999999984               0.000000000              -0.001322240               0.999999984               0.000000000              -0.001345396               0.999999984              -0.000000000              -0.001356039               0.999999984               0.000000000              -0.001366995               0.999999984               0.000000000              -0.001382236               0.999999984              -0.000000000              -0.001402348               0.999999984               0.000000000              -0.001427030               0.999999984               0.000000000              -0.001455629               0.999999984               0.000000000              -0.001487355               0.999999984              -0.000000000              -0.001521470               0.999999984               0.000000000              -0.001557410               0.999999984               0.000000000              -0.001594654               0.999999984              -0.000000000              -0.001632599               0.999999984              -0.000000000              -0.001670671               0.999999984              -0.000000000              -0.001708323               0.999999984              -0.000000000              -0.001744899               0.999999984               0.000000000              -0.001779322               0.999999984               0.000674646              -0.000000000               0.999999984               0.000723636               0.000000000               0.999999984               0.000744974               0.000000000               0.999999984               0.000756696               0.000000000               0.999999984               0.000765734               0.000000000               0.999999984               0.000774831               0.000000000               0.999999984               0.000784900               0.000000000               0.999999984               0.000796204              -0.000000000               0.999999984               0.000808574               0.000000000               0.999999984               0.000821771               0.000000000               0.999999984               0.000835509               0.000000000               0.999999984               0.000849682              -0.000000000               0.999999984               0.000864200               0.000000000               0.999999984               0.000878751               0.000000000               0.999999984               0.000892871               0.000000000               0.999999984               0.000906113               0.000000000               0.999999984               0.000917783               0.000000000               0.999999984               0.000670887              -0.000126637               0.999999984               0.000716261              -0.000103447               0.999999984               0.000735189              -0.000093532               0.999999984               0.000745460              -0.000090326               0.999999984               0.000753566              -0.000090761               0.999999984               0.000761913              -0.000093069               0.999999984               0.000771395              -0.000096215               0.999999984               0.000782120              -0.000099678               0.999999984               0.000793871              -0.000102962               0.999999984               0.000806408              -0.000105641               0.999999984               0.000819446              -0.000107513               0.999999984               0.000832764              -0.000108628               0.999999984               0.000846112              -0.000108644               0.999999984               0.000859172              -0.000107064               0.999999984               0.000871637              -0.000103279               0.999999984               0.000883065              -0.000096688               0.999999984               0.000892898              -0.000086064               0.999999984               0.000659730              -0.000252219               0.999999984               0.000694626              -0.000206373               0.999999984               0.000707151              -0.000187648               0.999999984               0.000713609              -0.000182255               0.999999984               0.000719303              -0.000183733               0.999999984               0.000725981              -0.000188725               0.999999984               0.000734043              -0.000195230               0.999999984               0.000743401              -0.000202190               0.999999984               0.000753574              -0.000208752               0.999999984               0.000764151              -0.000214160               0.999999984               0.000774989              -0.000218002               0.999999984               0.000785708              -0.000220196               0.999999984               0.000796012              -0.000220217               0.999999984               0.000805575              -0.000217262               0.999999984               0.000813987              -0.000210498               0.999999984               0.000820959              -0.000198772               0.999999984               0.000826185              -0.000180875               0.999999984               0.000641446              -0.000375554               0.999999984               0.000659710              -0.000308328               0.999999984               0.000662999              -0.000282808               0.999999984               0.000664397              -0.000276804               0.999999984               0.000667182              -0.000280417               0.999999984               0.000672006              -0.000288672               0.999999984               0.000678468              -0.000298760               0.999999984               0.000685956              -0.000309229               0.999999984               0.000693877              -0.000318901               0.999999984               0.000701827              -0.000326862               0.999999984               0.000709381              -0.000332653               0.999999984               0.000716180              -0.000335947               0.999999984               0.000721773              -0.000336164               0.999999984               0.000725852              -0.000332452               0.999999984               0.000728194              -0.000323744               0.999999984               0.000728612              -0.000309218               0.999999984               0.000727233              -0.000288282               0.999999984               0.000616350              -0.000495393               0.999999984               0.000613285              -0.000409023               0.999999984               0.000606403              -0.000379150               0.999999984               0.000602982              -0.000374196               0.999999984               0.000603404              -0.000380889               0.999999984               0.000606734              -0.000392874               0.999999984               0.000611704              -0.000406704               0.999999984               0.000617406              -0.000420406               0.999999984               0.000623025              -0.000432834               0.999999984               0.000627818              -0.000442926               0.999999984               0.000631317              -0.000450219               0.999999984               0.000633064              -0.000454329               0.999999984               0.000632711              -0.000454685               0.999999984               0.000630037              -0.000450529               0.999999984               0.000624984              -0.000441093               0.999999984               0.000617814              -0.000426173               0.999999984               0.000609093              -0.000406036               0.999999984               0.000584955              -0.000610568               0.999999984               0.000557893              -0.000508368               0.999999984               0.000541653              -0.000476526               0.999999984               0.000534792              -0.000473954               0.999999984               0.000534030              -0.000484262               0.999999984               0.000536701              -0.000500016               0.999999984               0.000540756              -0.000517220               0.999999984               0.000544676              -0.000533672               0.999999984               0.000547407              -0.000548223               0.999999984               0.000548310              -0.000559945               0.999999984               0.000546909              -0.000568405               0.999999984               0.000542836              -0.000573034               0.999999984               0.000535768              -0.000573301               0.999999984               0.000525672              -0.000568844               0.999999984               0.000512962              -0.000559511               0.999999984               0.000498275              -0.000545904               0.999999984               0.000482413              -0.000529019               0.999999984               0.000547761              -0.000720025               0.999999984               0.000496232              -0.000606387               0.999999984               0.000472923              -0.000574525               0.999999984               0.000464910              -0.000575033               0.999999984               0.000464550              -0.000588908               0.999999984               0.000467412              -0.000607982               0.999999984               0.000470671              -0.000627879               0.999999984               0.000472522              -0.000646430               0.999999984               0.000471919              -0.000662565               0.999999984               0.000468234              -0.000675564               0.999999984               0.000461154              -0.000684815               0.999999984               0.000450345              -0.000689601               0.999999984               0.000435849              -0.000689592               0.999999984               0.000418120              -0.000685154               0.999999984               0.000397920              -0.000676816               0.999999984               0.000376018              -0.000665524               0.999999984               0.000353110              -0.000652367               0.999999984               0.000505598              -0.000822507               0.999999984               0.000431322              -0.000702735               0.999999984               0.000404190              -0.000672321               0.999999984               0.000397536              -0.000675775               0.999999984               0.000398743              -0.000692702               0.999999984               0.000402153              -0.000714484               0.999999984               0.000404375              -0.000736607               0.999999984               0.000403630              -0.000756772               0.999999984               0.000398971              -0.000774094               0.999999984               0.000389975              -0.000787796               0.999999984               0.000376295              -0.000797322               0.999999984               0.000357984              -0.000801829               0.999999984               0.000335605              -0.000801746               0.999999984               0.000310009              -0.000797946               0.999999984               0.000282145              -0.000791337               0.999999984               0.000252789              -0.000782763               0.999999984               0.000222634              -0.000773156               0.999999984               0.000459843              -0.000916225               0.999999984               0.000365442              -0.000797298               0.999999984               0.000339164              -0.000768517               0.999999984               0.000335557              -0.000774157               0.999999984               0.000338977              -0.000793504               0.999999984               0.000342780              -0.000817456               0.999999984               0.000343362              -0.000841419               0.999999984               0.000339197              -0.000863057               0.999999984               0.000329744              -0.000881106               0.999999984               0.000314451              -0.000894982               0.999999984               0.000293172              -0.000904093               0.999999984               0.000266510              -0.000908516               0.999999984               0.000235592              -0.000908936               0.999999984               0.000201585              -0.000906551               0.999999984               0.000165621              -0.000902335               0.999999984               0.000128668              -0.000897041               0.999999984               0.000091346              -0.000891247               0.999999984               0.000412701              -0.001004651               0.999999984               0.000310827              -0.000901974               0.999999984               0.000281305              -0.000868221               0.999999984               0.000276551              -0.000867432               0.999999984               0.000279688              -0.000881940               0.999999984               0.000283956              -0.000902993               0.999999984               0.000285774              -0.000926019               0.999999984               0.000283645              -0.000948375               0.999999984               0.000276772              -0.000968651               0.999999984               0.000264572              -0.000985935               0.999999984               0.000246587              -0.000999863               0.999999984               0.000223127              -0.001010072               0.999999984               0.000194799              -0.001016954               0.999999984               0.000162258              -0.001020895               0.999999984               0.000126871              -0.001022888               0.999999984               0.000089521              -0.001023548               0.999999984               0.000051192              -0.001023593               0.999999984               0.000361157              -0.001084900               0.999999984               0.000259206              -0.001003024               0.999999984               0.000226566              -0.000970327               0.999999984               0.000219668              -0.000965519               0.999999984               0.000221679              -0.000976155               0.999999984               0.000225616              -0.000994720               0.999999984               0.000228198              -0.001016774               0.999999984               0.000227714              -0.001039653               0.999999984               0.000223033              -0.001061774               0.999999984               0.000213554              -0.001082066               0.999999984               0.000198712              -0.001100030               0.999999984               0.000178413              -0.001115204               0.999999984               0.000152950              -0.001127605               0.999999984               0.000122643              -0.001137381               0.999999984               0.000088191              -0.001145104               0.999999984               0.000050572              -0.001151348               0.999999984               0.000010911              -0.001156914               0.999999984               0.000306232              -0.001155133               0.999999984               0.000210531              -0.001097388               0.999999984               0.000176494              -0.001070193               0.999999984               0.000167113              -0.001064747               0.999999984               0.000167283              -0.001073181               0.999999984               0.000170337              -0.001090064               0.999999984               0.000172933              -0.001111518               0.999999984               0.000173451              -0.001135084               0.999999984               0.000170420              -0.001158998               0.999999984               0.000163218              -0.001182154               0.999999984               0.000151281              -0.001203848               0.999999984               0.000134258              -0.001223637               0.999999984               0.000111988              -0.001241145               0.999999984               0.000084364              -0.001256401               0.999999984               0.000051458              -0.001269658               0.999999984               0.000013751              -0.001281374               0.999999984              -0.000027792              -0.001292144               0.999999984               0.000248409              -0.001214125               0.999999984               0.000164755              -0.001181171               0.999999984               0.000131880              -0.001162798               0.999999984               0.000120847              -0.001159545               0.999999984               0.000119171              -0.001167767               0.999999984               0.000120802              -0.001184150               0.999999984               0.000122833              -0.001205694               0.999999984               0.000123662              -0.001230188               0.999999984               0.000121831              -0.001256020               0.999999984               0.000116464              -0.001282140               0.999999984               0.000107069              -0.001307662               0.999999984               0.000093390              -0.001332046               0.999999984               0.000074736              -0.001354791               0.999999984               0.000050468              -0.001375626               0.999999984               0.000020254              -0.001394503               0.999999984              -0.000016286              -0.001411810               0.999999984              -0.000059078              -0.001427898               0.999999984               0.000188351              -0.001260843               0.999999984               0.000121484              -0.001250508               0.999999984               0.000092900              -0.001242532               0.999999984               0.000081831              -0.001243461               0.999999984               0.000078901              -0.001253239               0.999999984               0.000079255              -0.001270173               0.999999984               0.000080502              -0.001292434               0.999999984               0.000081097              -0.001318260               0.999999984               0.000079939              -0.001346155               0.999999984               0.000076197              -0.001375139               0.999999984               0.000069295              -0.001404366               0.999999984               0.000058824              -0.001433309               0.999999984               0.000044168              -0.001461349               0.999999984               0.000024473              -0.001488125               0.999999984              -0.000001353              -0.001513225               0.999999984              -0.000034274              -0.001536643               0.999999984              -0.000075348              -0.001558519               0.999999984               0.000126560              -0.001294832               0.999999984               0.000080028              -0.001302405               0.999999984               0.000058860              -0.001304007               0.999999984               0.000049872              -0.001309788               0.999999984               0.000046833              -0.001321909               0.999999984               0.000046454              -0.001340138               0.999999984               0.000046914              -0.001363471               0.999999984               0.000047200              -0.001390708               0.999999984               0.000046541              -0.001420518               0.999999984               0.000044195              -0.001452113               0.999999984               0.000039715              -0.001484772               0.999999984               0.000032567              -0.001517765               0.999999984               0.000022301              -0.001550645               0.999999984               0.000008194              -0.001583018               0.999999984              -0.000011021              -0.001614308               0.999999984              -0.000036624              -0.001644103               0.999999984              -0.000070360              -0.001671999               0.999999984               0.000063569              -0.001315457               0.999999984               0.000039747              -0.001334581               0.999999984               0.000028442              -0.001342815               0.999999984               0.000023475              -0.001352406               0.999999984               0.000021576              -0.001366714               0.999999984               0.000021092              -0.001386231               0.999999984               0.000021143              -0.001410526               0.999999984               0.000021168              -0.001438754               0.999999984               0.000020928              -0.001469947               0.999999984               0.000019835              -0.001503331               0.999999984               0.000017634              -0.001538411               0.999999984               0.000014066              -0.001574536               0.999999984               0.000008694              -0.001611071               0.999999984               0.000001162              -0.001647651               0.999999984              -0.000009118              -0.001683640               0.999999984              -0.000023372              -0.001718327               0.999999984              -0.000042853              -0.001750934               0.999999984               0.000000000              -0.001322240               0.999999984               0.000000000              -0.001345396               0.999999984              -0.000000000              -0.001356039               0.999999984               0.000000000              -0.001366995               0.999999984               0.000000000              -0.001382236               0.999999984              -0.000000000              -0.001402348               0.999999984               0.000000000              -0.001427030               0.999999984               0.000000000              -0.001455629               0.999999984               0.000000000              -0.001487355               0.999999984              -0.000000000              -0.001521470               0.999999984               0.000000000              -0.001557410               0.999999984               0.000000000              -0.001594654               0.999999984              -0.000000000              -0.001632599               0.999999984              -0.000000000              -0.001670671               0.999999984              -0.000000000              -0.001708323               0.999999984              -0.000000000              -0.001744899               0.999999984               0.000000000              -0.001779322               0.999999984               0.000674646              -0.000000000               0.999999984               0.000723636               0.000000000               0.999999984               0.000744974               0.000000000               0.999999984               0.000756696               0.000000000               0.999999984               0.000765734               0.000000000               0.999999984               0.000774831               0.000000000               0.999999984               0.000784900               0.000000000               0.999999984               0.000796204              -0.000000000               0.999999984               0.000808574               0.000000000               0.999999984               0.000821771               0.000000000               0.999999984               0.000835509               0.000000000               0.999999984               0.000849682              -0.000000000               0.999999984               0.000864200               0.000000000               0.999999984               0.000878751               0.000000000               0.999999984               0.000892871               0.000000000               0.999999984               0.000906113               0.000000000               0.999999984               0.000917783               0.000000000               0.999999984               0.000670887               0.000126637               0.999999984               0.000716261               0.000103447               0.999999984               0.000735189               0.000093532               0.999999984               0.000745460               0.000090326               0.999999984               0.000753566               0.000090761               0.999999984               0.000761913               0.000093069               0.999999984               0.000771395               0.000096215               0.999999984               0.000782120               0.000099678               0.999999984               0.000793871               0.000102962               0.999999984               0.000806408               0.000105641               0.999999984               0.000819446               0.000107513               0.999999984               0.000832764               0.000108628               0.999999984               0.000846112               0.000108644               0.999999984               0.000859172               0.000107064               0.999999984               0.000871637               0.000103279               0.999999984               0.000883065               0.000096688               0.999999984               0.000892898               0.000086064               0.999999984               0.000659730               0.000252219               0.999999984               0.000694626               0.000206373               0.999999984               0.000707151               0.000187648               0.999999984               0.000713609               0.000182255               0.999999984               0.000719303               0.000183733               0.999999984               0.000725981               0.000188725               0.999999984               0.000734043               0.000195230               0.999999984               0.000743401               0.000202190               0.999999984               0.000753574               0.000208752               0.999999984               0.000764151               0.000214160               0.999999984               0.000774989               0.000218002               0.999999984               0.000785708               0.000220196               0.999999984               0.000796012               0.000220217               0.999999984               0.000805575               0.000217262               0.999999984               0.000813987               0.000210498               0.999999984               0.000820959               0.000198772               0.999999984               0.000826185               0.000180875               0.999999984               0.000641446               0.000375554               0.999999984               0.000659710               0.000308328               0.999999984               0.000662999               0.000282808               0.999999984               0.000664397               0.000276804               0.999999984               0.000667182               0.000280417               0.999999984               0.000672006               0.000288672               0.999999984               0.000678468               0.000298760               0.999999984               0.000685956               0.000309229               0.999999984               0.000693877               0.000318901               0.999999984               0.000701827               0.000326862               0.999999984               0.000709381               0.000332653               0.999999984               0.000716180               0.000335947               0.999999984               0.000721773               0.000336164               0.999999984               0.000725852               0.000332452               0.999999984               0.000728194               0.000323744               0.999999984               0.000728612               0.000309218               0.999999984               0.000727233               0.000288282               0.999999984               0.000616350               0.000495393               0.999999984               0.000613285               0.000409023               0.999999984               0.000606403               0.000379150               0.999999984               0.000602982               0.000374196               0.999999984               0.000603404               0.000380889               0.999999984               0.000606734               0.000392874               0.999999984               0.000611704               0.000406704               0.999999984               0.000617406               0.000420406               0.999999984               0.000623025               0.000432834               0.999999984               0.000627818               0.000442926               0.999999984               0.000631317               0.000450219               0.999999984               0.000633064               0.000454329               0.999999984               0.000632711               0.000454685               0.999999984               0.000630037               0.000450529               0.999999984               0.000624984               0.000441093               0.999999984               0.000617814               0.000426173               0.999999984               0.000609093               0.000406036               0.999999984               0.000584955               0.000610568               0.999999984               0.000557893               0.000508368               0.999999984               0.000541653               0.000476526               0.999999984               0.000534792               0.000473954               0.999999984               0.000534030               0.000484262               0.999999984               0.000536701               0.000500016               0.999999984               0.000540756               0.000517220               0.999999984               0.000544676               0.000533672               0.999999984               0.000547407               0.000548223               0.999999984               0.000548310               0.000559945               0.999999984               0.000546909               0.000568405               0.999999984               0.000542836               0.000573034               0.999999984               0.000535768               0.000573301               0.999999984               0.000525672               0.000568844               0.999999984               0.000512962               0.000559511               0.999999984               0.000498275               0.000545904               0.999999984               0.000482413               0.000529019               0.999999984               0.000547761               0.000720025               0.999999984               0.000496232               0.000606387               0.999999984               0.000472923               0.000574525               0.999999984               0.000464910               0.000575033               0.999999984               0.000464550               0.000588908               0.999999984               0.000467412               0.000607982               0.999999984               0.000470671               0.000627879               0.999999984               0.000472522               0.000646430               0.999999984               0.000471919               0.000662565               0.999999984               0.000468234               0.000675564               0.999999984               0.000461154               0.000684815               0.999999984               0.000450345               0.000689601               0.999999984               0.000435849               0.000689592               0.999999984               0.000418120               0.000685154               0.999999984               0.000397920               0.000676816               0.999999984               0.000376018               0.000665524               0.999999984               0.000353110               0.000652367               0.999999984               0.000505598               0.000822507               0.999999984               0.000431322               0.000702735               0.999999984               0.000404190               0.000672321               0.999999984               0.000397536               0.000675775               0.999999984               0.000398743               0.000692702               0.999999984               0.000402153               0.000714484               0.999999984               0.000404375               0.000736607               0.999999984               0.000403630               0.000756772               0.999999984               0.000398971               0.000774094               0.999999984               0.000389975               0.000787796               0.999999984               0.000376295               0.000797322               0.999999984               0.000357984               0.000801829               0.999999984               0.000335605               0.000801746               0.999999984               0.000310009               0.000797946               0.999999984               0.000282145               0.000791337               0.999999984               0.000252789               0.000782763               0.999999984               0.000222634               0.000773156               0.999999984               0.000459843               0.000916225               0.999999984               0.000365442               0.000797298               0.999999984               0.000339164               0.000768517               0.999999984               0.000335557               0.000774157               0.999999984               0.000338977               0.000793504               0.999999984               0.000342780               0.000817456               0.999999984               0.000343362               0.000841419               0.999999984               0.000339197               0.000863057               0.999999984               0.000329744               0.000881106               0.999999984               0.000314451               0.000894982               0.999999984               0.000293172               0.000904093               0.999999984               0.000266510               0.000908516               0.999999984               0.000235592               0.000908936               0.999999984               0.000201585               0.000906551               0.999999984               0.000165621               0.000902335               0.999999984               0.000128668               0.000897041               0.999999984               0.000091346               0.000891247               0.999999984               0.000412701               0.001004651               0.999999984               0.000310827               0.000901974               0.999999984               0.000281305               0.000868221               0.999999984               0.000276551               0.000867432               0.999999984               0.000279688               0.000881940               0.999999984               0.000283956               0.000902993               0.999999984               0.000285774               0.000926019               0.999999984               0.000283645               0.000948375               0.999999984               0.000276772               0.000968651               0.999999984               0.000264572               0.000985935               0.999999984               0.000246587               0.000999863               0.999999984               0.000223127               0.001010072               0.999999984               0.000194799               0.001016954               0.999999984               0.000162258               0.001020895               0.999999984               0.000126871               0.001022888               0.999999984               0.000089521               0.001023548               0.999999984               0.000051192               0.001023593               0.999999984               0.000361157               0.001084900               0.999999984               0.000259206               0.001003024               0.999999984               0.000226566               0.000970327               0.999999984               0.000219668               0.000965519               0.999999984               0.000221679               0.000976155               0.999999984               0.000225616               0.000994720               0.999999984               0.000228198               0.001016774               0.999999984               0.000227714               0.001039653               0.999999984               0.000223033               0.001061774               0.999999984               0.000213554               0.001082066               0.999999984               0.000198712               0.001100030               0.999999984               0.000178413               0.001115204               0.999999984               0.000152950               0.001127605               0.999999984               0.000122643               0.001137381               0.999999984               0.000088191               0.001145104               0.999999984               0.000050572               0.001151348               0.999999984               0.000010911               0.001156914               0.999999984               0.000306232               0.001155133               0.999999984               0.000210531               0.001097388               0.999999984               0.000176494               0.001070193               0.999999984               0.000167113               0.001064747               0.999999984               0.000167283               0.001073181               0.999999984               0.000170337               0.001090064               0.999999984               0.000172933               0.001111518               0.999999984               0.000173451               0.001135084               0.999999984               0.000170420               0.001158998               0.999999984               0.000163218               0.001182154               0.999999984               0.000151281               0.001203848               0.999999984               0.000134258               0.001223637               0.999999984               0.000111988               0.001241145               0.999999984               0.000084364               0.001256401               0.999999984               0.000051458               0.001269658               0.999999984               0.000013751               0.001281374               0.999999984              -0.000027792               0.001292144               0.999999984               0.000248409               0.001214125               0.999999984               0.000164755               0.001181171               0.999999984               0.000131880               0.001162798               0.999999984               0.000120847               0.001159545               0.999999984               0.000119171               0.001167767               0.999999984               0.000120802               0.001184150               0.999999984               0.000122833               0.001205694               0.999999984               0.000123662               0.001230188               0.999999984               0.000121831               0.001256020               0.999999984               0.000116464               0.001282140               0.999999984               0.000107069               0.001307662               0.999999984               0.000093390               0.001332046               0.999999984               0.000074736               0.001354791               0.999999984               0.000050468               0.001375626               0.999999984               0.000020254               0.001394503               0.999999984              -0.000016286               0.001411810               0.999999984              -0.000059078               0.001427898               0.999999984               0.000188351               0.001260843               0.999999984               0.000121484               0.001250508               0.999999984               0.000092900               0.001242532               0.999999984               0.000081831               0.001243461               0.999999984               0.000078901               0.001253239               0.999999984               0.000079255               0.001270173               0.999999984               0.000080502               0.001292434               0.999999984               0.000081097               0.001318260               0.999999984               0.000079939               0.001346155               0.999999984               0.000076197               0.001375139               0.999999984               0.000069295               0.001404366               0.999999984               0.000058824               0.001433309               0.999999984               0.000044168               0.001461349               0.999999984               0.000024473               0.001488125               0.999999984              -0.000001353               0.001513225               0.999999984              -0.000034274               0.001536643               0.999999984              -0.000075348               0.001558519               0.999999984               0.000126560               0.001294832               0.999999984               0.000080028               0.001302405               0.999999984               0.000058860               0.001304007               0.999999984               0.000049872               0.001309788               0.999999984               0.000046833               0.001321909               0.999999984               0.000046454               0.001340138               0.999999984               0.000046914               0.001363471               0.999999984               0.000047200               0.001390708               0.999999984               0.000046541               0.001420518               0.999999984               0.000044195               0.001452113               0.999999984               0.000039715               0.001484772               0.999999984               0.000032567               0.001517765               0.999999984               0.000022301               0.001550645               0.999999984               0.000008194               0.001583018               0.999999984              -0.000011021               0.001614308               0.999999984              -0.000036624               0.001644103               0.999999984              -0.000070360               0.001671999               0.999999984               0.000063569               0.001315457               0.999999984               0.000039747               0.001334581               0.999999984               0.000028442               0.001342815               0.999999984               0.000023475               0.001352406               0.999999984               0.000021576               0.001366714               0.999999984               0.000021092               0.001386231               0.999999984               0.000021143               0.001410526               0.999999984               0.000021168               0.001438754               0.999999984               0.000020928               0.001469947               0.999999984               0.000019835               0.001503331               0.999999984               0.000017634               0.001538411               0.999999984               0.000014066               0.001574536               0.999999984               0.000008694               0.001611071               0.999999984               0.000001162               0.001647651               0.999999984              -0.000009118               0.001683640               0.999999984              -0.000023372               0.001718327               0.999999984              -0.000042853               0.001750934               0.999999984               0.000000000               0.001322240               0.999999984               0.000000000               0.001345396               0.999999984              -0.000000000               0.001356039               0.999999984              -0.000000000               0.001366995               0.999999984              -0.000000000               0.001382236               0.999999984              -0.000000000               0.001402348               0.999999984               0.000000000               0.001427030               0.999999984               0.000000000               0.001455629               0.999999984               0.000000000               0.001487355               0.999999984               0.000000000               0.001521470               0.999999984              -0.000000000               0.001557410               0.999999984              -0.000000000               0.001594654               0.999999984              -0.000000000               0.001632599               0.999999984               0.000000000               0.001670671               0.999999984               0.000000000               0.001708323               0.999999984              -0.000000000               0.001744899               0.999999984              -0.000000000               0.001779322               0.999999984 </DataArray>
<DataArray type="Float64"                                    Name="stress"                                                      NumberOfComponents="10" format="ascii">
              0.002140103               0.023170061               0.000000000              -0.002093714               0.008421181               0.006327467               0.000000000               0.000000000               0.000000000               0.000000000               0.002127571               0.018126596               0.000000000              -0.001467982               0.006531465               0.005063484               0.000000000               0.000000000               0.000000000               0.000000000               0.002806890               0.014043843               0.000000000              -0.000702895               0.004915532               0.004212638               0.000000000               0.000000000               0.000000000               0.000000000               0.002707849               0.011758756               0.000000000              -0.000454400               0.004071013               0.003616613               0.000000000               0.000000000               0.000000000               0.000000000               0.002370350               0.010343771               0.000000000              -0.000404089               0.003582586               0.003178496               0.000000000               0.000000000               0.000000000               0.000000000               0.001983644               0.009380101              -0.000000000              -0.000428645               0.003269551               0.002840906               0.000000000               0.000000000               0.000000000               0.000000000               0.001615913               0.008663389              -0.000000000              -0.000476955               0.003046752               0.002569797               0.000000000               0.000000000               0.000000000               0.000000000               0.001295588               0.008092731               0.000000000              -0.000525745               0.002872798               0.002347054               0.000000000               0.000000000               0.000000000               0.000000000               0.001026410               0.007603047              -0.000000000              -0.000565476               0.002722816               0.002157340               0.000000000               0.000000000               0.000000000               0.000000000               0.000799864               0.007150967              -0.000000000              -0.000593920               0.002581605               0.001987685               0.000000000               0.000000000               0.000000000               0.000000000               0.000603132               0.006715348              -0.000000000              -0.000613243               0.002442841               0.001829598               0.000000000               0.000000000               0.000000000               0.000000000               0.000425227               0.006288049               0.000000000              -0.000626545               0.002304844               0.001678299               0.000000000               0.000000000               0.000000000               0.000000000               0.000271182               0.005854240               0.000000000              -0.000630085               0.002161422               0.001531337               0.000000000               0.000000000               0.000000000               0.000000000               0.000150220               0.005394982               0.000000000              -0.000618039               0.002004322               0.001386283               0.000000000               0.000000000               0.000000000               0.000000000               0.000063040               0.004888693               0.000000000              -0.000587445               0.001825363               0.001237918               0.000000000               0.000000000               0.000000000               0.000000000               0.000017010               0.004315237               0.000000000              -0.000533024               0.001616073               0.001083048               0.000000000               0.000000000               0.000000000               0.000000000              -0.000040969               0.003873502              -0.000000000              -0.000499550               0.001457671               0.000958121               0.000000000               0.000000000               0.000000000               0.000000000               0.002221192               0.022710651              -0.001584329              -0.002005880               0.008238768               0.006232888               0.000000000               0.000000000               0.000000000               0.000000000               0.002094842               0.017830479              -0.000790763              -0.001443241               0.006424514               0.004981273               0.000000000               0.000000000               0.000000000               0.000000000               0.002648468               0.013923029               0.000000844              -0.000747201               0.004890030               0.004142829               0.000000000               0.000000000               0.000000000               0.000000000               0.002497469               0.011730506               0.000334958              -0.000529761               0.004086717               0.003556956               0.000000000               0.000000000               0.000000000               0.000000000               0.002149809               0.010359732               0.000471422              -0.000488787               0.003616139               0.003127352               0.000000000               0.000000000               0.000000000               0.000000000               0.001769677               0.009415388               0.000516295              -0.000513293               0.003309529               0.002796236               0.000000000               0.000000000               0.000000000               0.000000000               0.001414728               0.008705354               0.000519878              -0.000557645               0.003087637               0.002529992               0.000000000               0.000000000               0.000000000               0.000000000               0.001112231               0.008134821               0.000504049              -0.000599765               0.002911501               0.002311737               0.000000000               0.000000000               0.000000000               0.000000000               0.000862014               0.007643779               0.000476193              -0.000632215               0.002758639               0.002126424               0.000000000               0.000000000               0.000000000               0.000000000               0.000651144               0.007191179               0.000443356              -0.000654717               0.002615275               0.001960558               0.000000000               0.000000000               0.000000000               0.000000000               0.000471699               0.006757033               0.000413464              -0.000667740               0.002474902               0.001807162               0.000000000               0.000000000               0.000000000               0.000000000               0.000318694               0.006332162               0.000384807              -0.000672008               0.002334702               0.001662694               0.000000000               0.000000000               0.000000000               0.000000000               0.000193199               0.005903502               0.000347902              -0.000665486               0.002189643               0.001524157               0.000000000               0.000000000               0.000000000               0.000000000               0.000097185               0.005455061               0.000297437              -0.000645437               0.002033481               0.001388044               0.000000000               0.000000000               0.000000000               0.000000000               0.000031768               0.004971488               0.000229609              -0.000609522               0.001860320               0.001250798               0.000000000               0.000000000               0.000000000               0.000000000               0.000003823               0.004437513               0.000132323              -0.000553254               0.001663574               0.001110320               0.000000000               0.000000000               0.000000000               0.000000000              -0.000041632               0.004038342               0.000082769              -0.000520404               0.001519568               0.000999165               0.000000000               0.000000000               0.000000000               0.000000000               0.002416484               0.021381282              -0.002953926              -0.001766476               0.007715848               0.005949372               0.000000000               0.000000000               0.000000000               0.000000000               0.001966898               0.016977675              -0.001474584              -0.001384620               0.006120708               0.004736089               0.000000000               0.000000000               0.000000000               0.000000000               0.002175252               0.013571622              -0.000016495              -0.000880731               0.004817406               0.003936675               0.000000000               0.000000000               0.000000000               0.000000000               0.001899097               0.011634009               0.000575977              -0.000742088               0.004125327               0.003383239               0.000000000               0.000000000               0.000000000               0.000000000               0.001530738               0.010386443               0.000806798              -0.000724277               0.003703539               0.002979262               0.000000000               0.000000000               0.000000000               0.000000000               0.001178243               0.009496178               0.000875296              -0.000745179               0.003413754               0.002668575               0.000000000               0.000000000               0.000000000               0.000000000               0.000871533               0.008805211               0.000874217              -0.000773825               0.003192983               0.002419158               0.000000000               0.000000000               0.000000000               0.000000000               0.000624291               0.008235662               0.000843549              -0.000795347               0.003010309               0.002214962               0.000000000               0.000000000               0.000000000               0.000000000               0.000433949               0.007739919               0.000794607              -0.000804757               0.002848200               0.002043442               0.000000000               0.000000000               0.000000000               0.000000000               0.000277446               0.007284202               0.000737301              -0.000806481               0.002696870               0.001890389               0.000000000               0.000000000               0.000000000               0.000000000               0.000149689               0.006852820               0.000684087              -0.000800467               0.002551073               0.001750606               0.000000000               0.000000000               0.000000000               0.000000000               0.000053866               0.006434739               0.000631668              -0.000784141               0.002406272               0.001622131               0.000000000               0.000000000               0.000000000               0.000000000              -0.000013833               0.006020635               0.000565415              -0.000757765               0.002259447               0.001501682               0.000000000               0.000000000               0.000000000               0.000000000              -0.000051031               0.005603902               0.000476682              -0.000719623               0.002107823               0.001388200               0.000000000               0.000000000               0.000000000               0.000000000              -0.000059414               0.005177275               0.000357935              -0.000669438               0.001948887               0.001279449               0.000000000               0.000000000               0.000000000               0.000000000              -0.000040862               0.004741374               0.000199042              -0.000607994               0.001783107               0.001175113               0.000000000               0.000000000               0.000000000               0.000000000              -0.000056235               0.004440274               0.000121350              -0.000576121               0.001672117               0.001095996               0.000000000               0.000000000               0.000000000               0.000000000               0.002618086               0.019337777              -0.003934419              -0.001435439               0.006924340               0.005488902               0.000000000               0.000000000               0.000000000               0.000000000               0.001709781               0.015683286              -0.001969448              -0.001319240               0.005667456               0.004348216               0.000000000               0.000000000               0.000000000               0.000000000               0.001434562               0.013028373              -0.000063462              -0.001090583               0.004706275               0.003615692               0.000000000               0.000000000               0.000000000               0.000000000               0.001013494               0.011445508               0.000668076              -0.001050626               0.004165340               0.003114714               0.000000000               0.000000000               0.000000000               0.000000000               0.000643925               0.010365296               0.000934408              -0.001054188               0.003806460               0.002752272               0.000000000               0.000000000               0.000000000               0.000000000               0.000353399               0.009549836               0.001003964              -0.001061203               0.003536981               0.002475778               0.000000000               0.000000000               0.000000000               0.000000000               0.000138938               0.008888694               0.000993552              -0.001058983               0.003315863               0.002256880               0.000000000               0.000000000               0.000000000               0.000000000              -0.000013339               0.008320809               0.000951030              -0.001045101               0.003121942               0.002076841               0.000000000               0.000000000               0.000000000               0.000000000              -0.000117046               0.007814978               0.000888871              -0.001020762               0.002945221               0.001924458               0.000000000               0.000000000               0.000000000               0.000000000              -0.000188393               0.007350782               0.000820327              -0.000989493               0.002780067               0.001790574               0.000000000               0.000000000               0.000000000               0.000000000              -0.000231952               0.006918757               0.000756851              -0.000951824               0.002623504               0.001671680               0.000000000               0.000000000               0.000000000               0.000000000              -0.000245292               0.006509716               0.000693423              -0.000905697               0.002471783               0.001566086               0.000000000               0.000000000               0.000000000               0.000000000              -0.000230807               0.006118720               0.000615512              -0.000851391               0.002323350               0.001471959               0.000000000               0.000000000               0.000000000               0.000000000              -0.000194714               0.005743807               0.000510045              -0.000790992               0.002178247               0.001387255               0.000000000               0.000000000               0.000000000               0.000000000              -0.000139571               0.005388964               0.000372198              -0.000725958               0.002038289               0.001312331               0.000000000               0.000000000               0.000000000               0.000000000              -0.000073692               0.005070589               0.000202120              -0.000661456               0.001910665               0.001249209               0.000000000               0.000000000               0.000000000               0.000000000              -0.000061282               0.004875831               0.000120777              -0.000632458               0.001836080               0.001203622               0.000000000               0.000000000               0.000000000               0.000000000               0.002687621               0.016821199              -0.004442499              -0.001094793               0.005971940               0.004877148               0.000000000               0.000000000               0.000000000               0.000000000               0.001297800               0.014114994              -0.002259516              -0.001277697               0.005130850               0.003853152               0.000000000               0.000000000               0.000000000               0.000000000               0.000513034               0.012351571              -0.000174310              -0.001351555               0.004567668               0.003216112               0.000000000               0.000000000               0.000000000               0.000000000              -0.000008455               0.011155328               0.000575916              -0.001397583               0.004184266               0.002786683               0.000000000               0.000000000               0.000000000               0.000000000              -0.000328158               0.010245943               0.000832313              -0.001403799               0.003883213               0.002479414               0.000000000               0.000000000               0.000000000               0.000000000              -0.000511886               0.009504582               0.000892875              -0.001380027               0.003628171               0.002248144               0.000000000               0.000000000               0.000000000               0.000000000              -0.000606158               0.008867839               0.000875456              -0.001335786               0.003401179               0.002065393               0.000000000               0.000000000               0.000000000               0.000000000              -0.000646810               0.008297453               0.000831749              -0.001279732               0.003192367               0.001912635               0.000000000               0.000000000               0.000000000               0.000000000              -0.000645072               0.007782418               0.000775916              -0.001214701               0.002999014               0.001784313               0.000000000               0.000000000               0.000000000               0.000000000              -0.000612981               0.007314611               0.000716341              -0.001144192               0.002819576               0.001675385               0.000000000               0.000000000               0.000000000               0.000000000              -0.000556386               0.006887135               0.000659772              -0.001069534               0.002652200               0.001582666               0.000000000               0.000000000               0.000000000               0.000000000              -0.000475970               0.006490291               0.000599945              -0.000989773               0.002493333               0.001503560               0.000000000               0.000000000               0.000000000               0.000000000              -0.000377790               0.006120594               0.000525171              -0.000906743               0.002342425               0.001435682               0.000000000               0.000000000               0.000000000               0.000000000              -0.000271019               0.005784715               0.000424358              -0.000824719               0.002203125               0.001378406               0.000000000               0.000000000               0.000000000               0.000000000              -0.000165942               0.005497882               0.000298061              -0.000749462               0.002082430               0.001332968               0.000000000               0.000000000               0.000000000               0.000000000              -0.000077029               0.005279464               0.000154831              -0.000688817               0.001989409               0.001300592               0.000000000               0.000000000               0.000000000               0.000000000              -0.000050184               0.005169581               0.000087235              -0.000665015               0.001944848               0.001279833               0.000000000               0.000000000               0.000000000               0.000000000               0.002496244               0.014099665              -0.004484854              -0.000826369               0.004975297               0.004148928               0.000000000               0.000000000               0.000000000               0.000000000               0.000726225               0.012449140              -0.002369871              -0.001283807               0.004577607               0.003293800               0.000000000               0.000000000               0.000000000               0.000000000              -0.000478951               0.011604942              -0.000368208              -0.001630220               0.004411682               0.002781462               0.000000000               0.000000000               0.000000000               0.000000000              -0.001006889               0.010771349               0.000309781              -0.001723997               0.004165079               0.002441082               0.000000000               0.000000000               0.000000000               0.000000000              -0.001214801               0.010009533               0.000533582              -0.001706738               0.003905390               0.002198653               0.000000000               0.000000000               0.000000000               0.000000000              -0.001261691               0.009322993               0.000589489              -0.001638504               0.003653801               0.002015297               0.000000000               0.000000000               0.000000000               0.000000000              -0.001219983               0.008699761               0.000582740              -0.001544960               0.003414878               0.001869918               0.000000000               0.000000000               0.000000000               0.000000000              -0.001131155               0.008134060               0.000559914              -0.001440937               0.003191639               0.001750702               0.000000000               0.000000000               0.000000000               0.000000000              -0.001017370               0.007622690               0.000531962              -0.001334347               0.002985653               0.001651307               0.000000000               0.000000000               0.000000000               0.000000000              -0.000887632               0.007165304               0.000499480              -0.001228522               0.002797918               0.001569396               0.000000000               0.000000000               0.000000000               0.000000000              -0.000743668               0.006751883               0.000462356              -0.001122858               0.002624891               0.001502033               0.000000000               0.000000000               0.000000000               0.000000000              -0.000586839               0.006370307               0.000415447              -0.001016350               0.002462198               0.001445847               0.000000000               0.000000000               0.000000000               0.000000000              -0.000424820               0.006022758               0.000355172              -0.000912150               0.002311616               0.001399466               0.000000000               0.000000000               0.000000000               0.000000000              -0.000274446               0.005724721               0.000275510              -0.000818505               0.002181056               0.001362551               0.000000000               0.000000000               0.000000000               0.000000000              -0.000149864               0.005493494               0.000181584              -0.000742884               0.002078774               0.001335890               0.000000000               0.000000000               0.000000000               0.000000000              -0.000061961               0.005339270               0.000088318              -0.000690642               0.002009953               0.001319311               0.000000000               0.000000000               0.000000000               0.000000000              -0.000035756               0.005272501               0.000047807              -0.000672470               0.001981639               0.001309170               0.000000000               0.000000000               0.000000000               0.000000000               0.001976684               0.011393724              -0.004135378              -0.000682961               0.004025523               0.003342561               0.000000000               0.000000000               0.000000000               0.000000000               0.000022237               0.010811988              -0.002349412              -0.001343158               0.004051679               0.002708521               0.000000000               0.000000000               0.000000000               0.000000000              -0.001433122               0.010822687              -0.000653250              -0.001890252               0.004237610               0.002347358               0.000000000               0.000000000               0.000000000               0.000000000              -0.001861387               0.010289614              -0.000092540              -0.001984217               0.004091243               0.002107026               0.000000000               0.000000000               0.000000000               0.000000000              -0.001906037               0.009644538               0.000106986              -0.001920326               0.003854923               0.001934596               0.000000000               0.000000000               0.000000000               0.000000000              -0.001795814               0.009006865               0.000179742              -0.001799284               0.003602020               0.001802736               0.000000000               0.000000000               0.000000000               0.000000000              -0.001616043               0.008408986               0.000206934              -0.001657135               0.003355346               0.001698210               0.000000000               0.000000000               0.000000000               0.000000000              -0.001407764               0.007862999               0.000223535              -0.001510783               0.003124568               0.001613785               0.000000000               0.000000000               0.000000000               0.000000000              -0.001191379               0.007372530               0.000235520              -0.001368330               0.002913595               0.001545265               0.000000000               0.000000000               0.000000000               0.000000000              -0.000976469               0.006932698               0.000239132              -0.001232760               0.002721796               0.001489036               0.000000000               0.000000000               0.000000000               0.000000000              -0.000764319               0.006532698               0.000228661              -0.001103204               0.002545279               0.001442075               0.000000000               0.000000000               0.000000000               0.000000000              -0.000559762               0.006165218               0.000203071              -0.000980561               0.002381906               0.001401345               0.000000000               0.000000000               0.000000000               0.000000000              -0.000374266               0.005844935               0.000167274              -0.000870964               0.002238614               0.001367649               0.000000000               0.000000000               0.000000000               0.000000000              -0.000221881               0.005588160               0.000121482              -0.000781723               0.002123276               0.001341552               0.000000000               0.000000000               0.000000000               0.000000000              -0.000109564               0.005402890               0.000070638              -0.000716446               0.002039761               0.001323315               0.000000000               0.000000000               0.000000000               0.000000000              -0.000039751               0.005281858               0.000028838              -0.000675137               0.001985647               0.001310510               0.000000000               0.000000000               0.000000000               0.000000000              -0.000023612               0.005225200               0.000016248              -0.000662003               0.001962384               0.001300381               0.000000000               0.000000000               0.000000000               0.000000000               0.001158916               0.008871237              -0.003496439              -0.000674313               0.003181819               0.002507506               0.000000000               0.000000000               0.000000000               0.000000000              -0.000765528               0.009295512              -0.002249481              -0.001449010               0.003581476               0.002132466               0.000000000               0.000000000               0.000000000               0.000000000              -0.002246598               0.010009632              -0.001021852              -0.002093673               0.004034401               0.001940728               0.000000000               0.000000000               0.000000000               0.000000000              -0.002487492               0.009702968              -0.000568308              -0.002145675               0.003949515               0.001803840               0.000000000               0.000000000               0.000000000               0.000000000              -0.002345978               0.009160122              -0.000360368              -0.002024752               0.003728261               0.001703509               0.000000000               0.000000000               0.000000000               0.000000000              -0.002082935               0.008582379              -0.000244451              -0.001853894               0.003478729               0.001624836               0.000000000               0.000000000               0.000000000               0.000000000              -0.001780222               0.008031905              -0.000167853              -0.001671567               0.003234464               0.001562897               0.000000000               0.000000000               0.000000000               0.000000000              -0.001477282               0.007525024              -0.000105548              -0.001494605               0.003006518               0.001511913               0.000000000               0.000000000               0.000000000               0.000000000              -0.001185949               0.007059694              -0.000050964              -0.001327189               0.002795604               0.001468415               0.000000000               0.000000000               0.000000000               0.000000000              -0.000909783               0.006632948              -0.000007556              -0.001170284               0.002601055               0.001430771               0.000000000               0.000000000               0.000000000               0.000000000              -0.000656512               0.006241748               0.000016100              -0.001026408               0.002422698               0.001396290               0.000000000               0.000000000               0.000000000               0.000000000              -0.000437729               0.005898692               0.000020083              -0.000901483               0.002266705               0.001365223               0.000000000               0.000000000               0.000000000               0.000000000              -0.000262442               0.005619455               0.000017384              -0.000800846               0.002140082               0.001339236               0.000000000               0.000000000               0.000000000               0.000000000              -0.000136890               0.005408371               0.000010716              -0.000727378               0.002045232               0.001317854               0.000000000               0.000000000               0.000000000               0.000000000              -0.000058137               0.005260714               0.000001082              -0.000679389               0.001980017               0.001300628               0.000000000               0.000000000               0.000000000               0.000000000              -0.000018975               0.005162208              -0.000004055              -0.000652390               0.001938182               0.001285792               0.000000000               0.000000000               0.000000000               0.000000000              -0.000016221               0.005112009               0.000000210              -0.000645082               0.001919013               0.001273931               0.000000000               0.000000000               0.000000000               0.000000000               0.000164095               0.006725607              -0.002690700              -0.000779165               0.002501568               0.001722402               0.000000000               0.000000000               0.000000000               0.000000000              -0.001529523               0.007936874              -0.002125000              -0.001565678               0.003167490               0.001601813               0.000000000               0.000000000               0.000000000               0.000000000              -0.002868474               0.009203800              -0.001459703              -0.002226147               0.003809952               0.001583804               0.000000000               0.000000000               0.000000000               0.000000000              -0.002905298               0.009137058              -0.001073828              -0.002231614               0.003789527               0.001557913               0.000000000               0.000000000               0.000000000               0.000000000              -0.002608006               0.008730492              -0.000831019              -0.002069309               0.003599904               0.001530596               0.000000000               0.000000000               0.000000000               0.000000000              -0.002225104               0.008240184              -0.000657642              -0.001864432               0.003368178               0.001503745               0.000000000               0.000000000               0.000000000               0.000000000              -0.001830247               0.007751397              -0.000524204              -0.001655263               0.003135527               0.001480264               0.000000000               0.000000000               0.000000000               0.000000000              -0.001457579               0.007287815              -0.000419249              -0.001457565               0.002915102               0.001457537               0.000000000               0.000000000               0.000000000               0.000000000              -0.001112061               0.006852351              -0.000328755              -0.001273564               0.002708615               0.001435052               0.000000000               0.000000000               0.000000000               0.000000000              -0.000796755               0.006442439              -0.000246340              -0.001104085               0.002515487               0.001411401               0.000000000               0.000000000               0.000000000               0.000000000              -0.000526781               0.006062499              -0.000178951              -0.000955353               0.002339264               0.001383911               0.000000000               0.000000000               0.000000000               0.000000000              -0.000311581               0.005738494              -0.000131062              -0.000834153               0.002190863               0.001356711               0.000000000               0.000000000               0.000000000               0.000000000              -0.000156029               0.005485477              -0.000093454              -0.000744194               0.002076539               0.001332345               0.000000000               0.000000000               0.000000000               0.000000000              -0.000062609               0.005297619              -0.000060671              -0.000685679               0.001994415               0.001308736               0.000000000               0.000000000               0.000000000               0.000000000              -0.000019982               0.005165992              -0.000036286              -0.000653240               0.001939727               0.001286486               0.000000000               0.000000000               0.000000000               0.000000000              -0.000014244               0.005078051              -0.000017783              -0.000640096               0.001906032               0.001265936               0.000000000               0.000000000               0.000000000               0.000000000              -0.000022364               0.005038704              -0.000007307              -0.000638223               0.001892292               0.001254069               0.000000000               0.000000000               0.000000000               0.000000000              -0.001007944               0.004722166              -0.001830723              -0.000968248               0.001896788               0.000928540               0.000000000               0.000000000               0.000000000               0.000000000              -0.002152012               0.006368688              -0.001981709              -0.001603087               0.002657237               0.001054149               0.000000000               0.000000000               0.000000000               0.000000000              -0.003211301               0.008032468              -0.001923301              -0.002208291               0.003413559               0.001205268               0.000000000               0.000000000               0.000000000               0.000000000              -0.003143991               0.008335951              -0.001617267              -0.002220985               0.003518951               0.001297965               0.000000000               0.000000000               0.000000000               0.000000000              -0.002789631               0.008185757              -0.001338008              -0.002069326               0.003418334               0.001349007               0.000000000               0.000000000               0.000000000               0.000000000              -0.002374150               0.007875908              -0.001109192              -0.001874790               0.003250206               0.001375416               0.000000000               0.000000000               0.000000000               0.000000000              -0.001951813               0.007516280              -0.000925216              -0.001671461               0.003062555               0.001391094               0.000000000               0.000000000               0.000000000               0.000000000              -0.001550117               0.007148349              -0.000777561              -0.001474834               0.002874371               0.001399537               0.000000000               0.000000000               0.000000000               0.000000000              -0.001185321               0.006786139              -0.000648286              -0.001292760               0.002692944               0.001400184               0.000000000               0.000000000               0.000000000               0.000000000              -0.000858264               0.006436388              -0.000524777              -0.001126395               0.002520906               0.001394511               0.000000000               0.000000000               0.000000000               0.000000000              -0.000576676               0.006102833              -0.000411464              -0.000979105               0.002360626               0.001381520               0.000000000               0.000000000               0.000000000               0.000000000              -0.000348845               0.005799674              -0.000314141              -0.000855774               0.002218463               0.001362689               0.000000000               0.000000000               0.000000000               0.000000000              -0.000179884               0.005541588              -0.000226576              -0.000760153               0.002100562               0.001340409               0.000000000               0.000000000               0.000000000               0.000000000              -0.000074130               0.005334509              -0.000149261              -0.000694611               0.002009689               0.001315078               0.000000000               0.000000000               0.000000000               0.000000000              -0.000026735               0.005179808              -0.000084917              -0.000657500               0.001945752               0.001288252               0.000000000               0.000000000               0.000000000               0.000000000              -0.000025414               0.005071369              -0.000033306              -0.000643450               0.001904923               0.001261473               0.000000000               0.000000000               0.000000000               0.000000000              -0.000037613               0.005028213              -0.000010097              -0.000642630               0.001890264               0.001247634               0.000000000               0.000000000               0.000000000               0.000000000              -0.002520528               0.002906570              -0.000970521              -0.001308517               0.001405018               0.000096502               0.000000000               0.000000000               0.000000000               0.000000000              -0.002849818               0.004792810              -0.001762283              -0.001667780               0.002153513               0.000485734               0.000000000               0.000000000               0.000000000               0.000000000              -0.003447055               0.006673750              -0.002287942              -0.002126860               0.002933514               0.000806654               0.000000000               0.000000000               0.000000000               0.000000000              -0.003291456               0.007330935              -0.002132912              -0.002150658               0.003160506               0.001009848               0.000000000               0.000000000               0.000000000               0.000000000              -0.002914452               0.007475990              -0.001855292              -0.002027414               0.003167776               0.001140362               0.000000000               0.000000000               0.000000000               0.000000000              -0.002490000               0.007390657              -0.001593919              -0.001857578               0.003082720               0.001225142               0.000000000               0.000000000               0.000000000               0.000000000              -0.002063718               0.007199626              -0.001373586              -0.001673844               0.002957799               0.001283955               0.000000000               0.000000000               0.000000000               0.000000000              -0.001653841               0.006963355              -0.001187072              -0.001490606               0.002817964               0.001327357               0.000000000               0.000000000               0.000000000               0.000000000              -0.001280530               0.006700345              -0.001019420              -0.001317739               0.002672672               0.001354933               0.000000000               0.000000000               0.000000000               0.000000000              -0.000941961               0.006430450              -0.000862017              -0.001157039               0.002529141               0.001372103               0.000000000               0.000000000               0.000000000               0.000000000              -0.000639244               0.006159109              -0.000712072              -0.001009603               0.002389550               0.001379947               0.000000000               0.000000000               0.000000000               0.000000000              -0.000383008               0.005893336              -0.000573546              -0.000880293               0.002257857               0.001377564               0.000000000               0.000000000               0.000000000               0.000000000              -0.000182040               0.005642472              -0.000440539              -0.000773572               0.002138662               0.001365090               0.000000000               0.000000000               0.000000000               0.000000000              -0.000042067               0.005422761              -0.000312401              -0.000693619               0.002038775               0.001345157               0.000000000               0.000000000               0.000000000               0.000000000               0.000025678               0.005239910              -0.000191471              -0.000645358               0.001961738               0.001316381               0.000000000               0.000000000               0.000000000               0.000000000               0.000027258               0.005102355              -0.000085027              -0.000627571               0.001909959               0.001282387               0.000000000               0.000000000               0.000000000               0.000000000               0.000002519               0.005040430              -0.000032662              -0.000629108               0.001889829               0.001260722               0.000000000               0.000000000               0.000000000               0.000000000              -0.004282440               0.001413634              -0.000182452              -0.001782616               0.001065410              -0.000717207               0.000000000               0.000000000               0.000000000               0.000000000              -0.003683036               0.003302750              -0.001444586              -0.001793979               0.001698897              -0.000095081               0.000000000               0.000000000               0.000000000               0.000000000              -0.003619176               0.005144251              -0.002436060              -0.002000218               0.002381472               0.000381253               0.000000000               0.000000000               0.000000000               0.000000000              -0.003291764               0.006044058              -0.002472827              -0.001989915               0.002677970               0.000688055               0.000000000               0.000000000               0.000000000               0.000000000              -0.002878260               0.006459305              -0.002254552              -0.001886757               0.002781998               0.000895242               0.000000000               0.000000000               0.000000000               0.000000000              -0.002452851               0.006614340              -0.001997336              -0.001746608               0.002786960               0.001040352               0.000000000               0.000000000               0.000000000               0.000000000              -0.002039634               0.006620065              -0.001763014              -0.001592367               0.002737455               0.001145087               0.000000000               0.000000000               0.000000000               0.000000000              -0.001642557               0.006540098              -0.001553737              -0.001433468               0.002657833               0.001224365               0.000000000               0.000000000               0.000000000               0.000000000              -0.001271788               0.006405067              -0.001361567              -0.001277551               0.002560851               0.001283300               0.000000000               0.000000000               0.000000000               0.000000000              -0.000930787               0.006240083              -0.001184547              -0.001129053               0.002456358               0.001327305               0.000000000               0.000000000               0.000000000               0.000000000              -0.000614945               0.006057811              -0.001017030              -0.000987829               0.002348526               0.001360698               0.000000000               0.000000000               0.000000000               0.000000000              -0.000328868               0.005861621              -0.000856457              -0.000856026               0.002239196               0.001383170               0.000000000               0.000000000               0.000000000               0.000000000              -0.000089686               0.005656098              -0.000692861              -0.000740643               0.002132228               0.001391585               0.000000000               0.000000000               0.000000000               0.000000000               0.000090338               0.005457480              -0.000520888              -0.000648307               0.002035244               0.001386937               0.000000000               0.000000000               0.000000000               0.000000000               0.000199145               0.005277889              -0.000342322              -0.000585055               0.001954297               0.001369242               0.000000000               0.000000000               0.000000000               0.000000000               0.000223801               0.005127074              -0.000166211              -0.000556958               0.001894660               0.001337703               0.000000000               0.000000000               0.000000000               0.000000000               0.000197727               0.005049622              -0.000075387              -0.000557054               0.001868875               0.001311822               0.000000000               0.000000000               0.000000000               0.000000000              -0.006154100               0.000317114               0.000423418              -0.002347424               0.000888173              -0.001459251               0.000000000               0.000000000               0.000000000               0.000000000              -0.004596371               0.001981163              -0.001071389              -0.001971282               0.001317472              -0.000653809               0.000000000               0.000000000               0.000000000               0.000000000              -0.003757320               0.003568777              -0.002339014              -0.001855089               0.001807942              -0.000047147               0.000000000               0.000000000               0.000000000               0.000000000              -0.003173470               0.004576982              -0.002550839              -0.001762171               0.002113034               0.000350864               0.000000000               0.000000000               0.000000000               0.000000000              -0.002685903               0.005204447              -0.002423774              -0.001657767               0.002287386               0.000629620               0.000000000               0.000000000               0.000000000               0.000000000              -0.002252146               0.005582942              -0.002205489              -0.001542420               0.002375101               0.000832681               0.000000000               0.000000000               0.000000000               0.000000000              -0.001854590               0.005788606              -0.001986415              -0.001419044               0.002402530               0.000983486               0.000000000               0.000000000               0.000000000               0.000000000              -0.001483827               0.005876312              -0.001779829              -0.001290972               0.002389074               0.001098103               0.000000000               0.000000000               0.000000000               0.000000000              -0.001127130               0.005890457              -0.001585124              -0.001158979               0.002349792               0.001190813               0.000000000               0.000000000               0.000000000               0.000000000              -0.000787183               0.005854122              -0.001405484              -0.001026957               0.002293673               0.001266716               0.000000000               0.000000000               0.000000000               0.000000000              -0.000463716               0.005781281              -0.001240250              -0.000896552               0.002225925               0.001329373               0.000000000               0.000000000               0.000000000               0.000000000              -0.000157656               0.005679124              -0.001078796              -0.000769010               0.002149359               0.001380349               0.000000000               0.000000000               0.000000000               0.000000000               0.000121259               0.005550642              -0.000905607              -0.000648357               0.002066314               0.001417957               0.000000000               0.000000000               0.000000000               0.000000000               0.000358927               0.005405696              -0.000714351              -0.000541113               0.001982252               0.001441139               0.000000000               0.000000000               0.000000000               0.000000000               0.000538781               0.005261452              -0.000499000              -0.000455638               0.001905679               0.001450042               0.000000000               0.000000000               0.000000000               0.000000000               0.000638510               0.005127373              -0.000259058              -0.000401479               0.001842934               0.001441454               0.000000000               0.000000000               0.000000000               0.000000000               0.000658067               0.005056991              -0.000132624              -0.000385348               0.001814096               0.001428749               0.000000000               0.000000000               0.000000000               0.000000000              -0.007946606              -0.000387640               0.000743103              -0.002931520               0.000847954              -0.002083566               0.000000000               0.000000000               0.000000000               0.000000000              -0.005506204               0.000913810              -0.000706014              -0.002179050               0.001030946              -0.001148104               0.000000000               0.000000000               0.000000000               0.000000000              -0.003881555               0.002109517              -0.001997737              -0.001719270               0.001276253              -0.000443017               0.000000000               0.000000000               0.000000000               0.000000000              -0.002989761               0.003108306              -0.002314205              -0.001509696               0.001539322               0.000029626               0.000000000               0.000000000               0.000000000               0.000000000              -0.002394740               0.003865280              -0.002276621              -0.001381185               0.001748808               0.000367623               0.000000000               0.000000000               0.000000000               0.000000000              -0.001933062               0.004418612              -0.002120427              -0.001277223               0.001898596               0.000621373               0.000000000               0.000000000               0.000000000               0.000000000              -0.001544126               0.004806250              -0.001939717              -0.001179827               0.001995342               0.000815515               0.000000000               0.000000000               0.000000000               0.000000000              -0.001196434               0.005058193              -0.001761701              -0.001080935               0.002046358               0.000965423               0.000000000               0.000000000               0.000000000               0.000000000              -0.000861100               0.005217445              -0.001591675              -0.000975092               0.002064161               0.001089069               0.000000000               0.000000000               0.000000000               0.000000000              -0.000528454               0.005314402              -0.001432911              -0.000862469               0.002058939               0.001196470               0.000000000               0.000000000               0.000000000               0.000000000              -0.000199282               0.005363567              -0.001286170              -0.000745175               0.002036229               0.001291054               0.000000000               0.000000000               0.000000000               0.000000000               0.000121023               0.005369860              -0.001141486              -0.000625848               0.001998551               0.001372703               0.000000000               0.000000000               0.000000000               0.000000000               0.000436597               0.005341793              -0.000985901              -0.000503999               0.001948579               0.001444580               0.000000000               0.000000000               0.000000000               0.000000000               0.000742334               0.005282779              -0.000805007              -0.000381972               0.001888232               0.001506261               0.000000000               0.000000000               0.000000000               0.000000000               0.001020544               0.005199557              -0.000586228              -0.000267240               0.001822248               0.001555008               0.000000000               0.000000000               0.000000000               0.000000000               0.001253270               0.005104470              -0.000318946              -0.000168082               0.001757500               0.001589418               0.000000000               0.000000000               0.000000000               0.000000000               0.001382213               0.005063424              -0.000177538              -0.000114598               0.001725990               0.001611393               0.000000000               0.000000000               0.000000000               0.000000000              -0.009455653              -0.000781682               0.000735740              -0.003448157               0.000888819              -0.002559338               0.000000000               0.000000000               0.000000000               0.000000000              -0.006299344               0.000141837              -0.000404031              -0.002379982               0.000840600              -0.001539381               0.000000000               0.000000000               0.000000000               0.000000000              -0.003996723               0.000929629              -0.001451946              -0.001614973               0.000848194              -0.000766779               0.000000000               0.000000000               0.000000000               0.000000000              -0.002802343               0.001846339              -0.001762339              -0.001281669               0.001042661              -0.000239008               0.000000000               0.000000000               0.000000000               0.000000000              -0.002085935               0.002658221              -0.001781244              -0.001114501               0.001257564               0.000143063               0.000000000               0.000000000               0.000000000               0.000000000              -0.001588022               0.003325431              -0.001688856              -0.001011185               0.001445527               0.000434342               0.000000000               0.000000000               0.000000000               0.000000000              -0.001199078               0.003849349              -0.001562974              -0.000930821               0.001593377               0.000662555               0.000000000               0.000000000               0.000000000               0.000000000              -0.000865524               0.004236423              -0.001434723              -0.000854123               0.001696834               0.000842711               0.000000000               0.000000000               0.000000000               0.000000000              -0.000547805               0.004522180              -0.001310262              -0.000770698               0.001764277               0.000993579               0.000000000               0.000000000               0.000000000               0.000000000              -0.000227772               0.004742549              -0.001191781              -0.000678232               0.001806911               0.001128679               0.000000000               0.000000000               0.000000000               0.000000000               0.000098891               0.004903626              -0.001081350              -0.000575868               0.001826482               0.001250613               0.000000000               0.000000000               0.000000000               0.000000000               0.000434387               0.005013509              -0.000972488              -0.000463793               0.001825751               0.001361958               0.000000000               0.000000000               0.000000000               0.000000000               0.000785171               0.005088638              -0.000856328              -0.000341640               0.001810076               0.001468435               0.000000000               0.000000000               0.000000000               0.000000000               0.001156042               0.005124847              -0.000716047              -0.000207090               0.001777295               0.001570205               0.000000000               0.000000000               0.000000000               0.000000000               0.001548729               0.005119122              -0.000535780              -0.000059117               0.001726063               0.001666946               0.000000000               0.000000000               0.000000000               0.000000000               0.001954717               0.005073958              -0.000298291               0.000098773               0.001658378               0.001757151               0.000000000               0.000000000               0.000000000               0.000000000               0.002241222               0.005070767              -0.000173631               0.000206610               0.001621369               0.001827979               0.000000000               0.000000000               0.000000000               0.000000000              -0.010465766              -0.000962487               0.000453092              -0.003804349               0.000947281              -0.002857068               0.000000000               0.000000000               0.000000000               0.000000000              -0.006844560              -0.000323708              -0.000174553              -0.002526245               0.000734174              -0.001792071               0.000000000               0.000000000               0.000000000               0.000000000              -0.004082520               0.000160034              -0.000761362              -0.001550948               0.000570323              -0.000980625               0.000000000               0.000000000               0.000000000               0.000000000              -0.002673581               0.000991699              -0.000951687              -0.001126554               0.000706079              -0.000420475               0.000000000               0.000000000               0.000000000               0.000000000              -0.001861325               0.001814765              -0.000979027              -0.000924841               0.000913195              -0.000011646               0.000000000               0.000000000               0.000000000               0.000000000              -0.001327322               0.002536503              -0.000939704              -0.000814807               0.001117094               0.000302287               0.000000000               0.000000000               0.000000000               0.000000000              -0.000928351               0.003138194              -0.000876432              -0.000740404               0.001292855               0.000552451               0.000000000               0.000000000               0.000000000               0.000000000              -0.000599652               0.003615246              -0.000810595              -0.000676774               0.001430661               0.000753887               0.000000000               0.000000000               0.000000000               0.000000000              -0.000299259               0.003988534              -0.000745971              -0.000610788               0.001533094               0.000922306               0.000000000               0.000000000               0.000000000               0.000000000               0.000005784               0.004294141              -0.000681980              -0.000534597               0.001609565               0.001074968               0.000000000               0.000000000               0.000000000               0.000000000               0.000328353               0.004542725              -0.000622568              -0.000444708               0.001662462               0.001217755               0.000000000               0.000000000               0.000000000               0.000000000               0.000674957               0.004732751              -0.000564051              -0.000338484               0.001690396               0.001351911               0.000000000               0.000000000               0.000000000               0.000000000               0.001056226               0.004880108              -0.000501075              -0.000213929               0.001697996               0.001484067               0.000000000               0.000000000               0.000000000               0.000000000               0.001483249               0.004986271              -0.000425940              -0.000067066               0.001684429               0.001617363               0.000000000               0.000000000               0.000000000               0.000000000               0.001970660               0.005041200              -0.000323341               0.000108846               0.001644101               0.001752947               0.000000000               0.000000000               0.000000000               0.000000000               0.002534712               0.005039808              -0.000179559               0.000320538               0.001573073               0.001893611               0.000000000               0.000000000               0.000000000               0.000000000               0.002973641               0.005072073              -0.000105444               0.000481101               0.001530307               0.002011408               0.000000000               0.000000000               0.000000000               0.000000000              -0.010819501              -0.001008156              -0.000000000              -0.003931291               0.000974372              -0.002956919               0.000000000               0.000000000               0.000000000               0.000000000              -0.007038808              -0.000476693               0.000000000              -0.002579964               0.000701086              -0.001878879               0.000000000               0.000000000               0.000000000               0.000000000              -0.004114294              -0.000108012              -0.000000000              -0.001529357               0.000473778              -0.001055579               0.000000000               0.000000000               0.000000000               0.000000000              -0.002631331               0.000688464              -0.000000000              -0.001072806               0.000587086              -0.000485720               0.000000000               0.000000000               0.000000000               0.000000000              -0.001782655               0.001512913               0.000000000              -0.000857608               0.000790168              -0.000067440               0.000000000               0.000000000               0.000000000               0.000000000              -0.001231351               0.002248348               0.000000000              -0.000742799               0.000997041               0.000254243               0.000000000               0.000000000               0.000000000               0.000000000              -0.000825809               0.002873647               0.000000000              -0.000668883               0.001180833               0.000511951               0.000000000               0.000000000               0.000000000               0.000000000              -0.000495650               0.003383911              -0.000000000              -0.000608856               0.001330911               0.000722055               0.000000000               0.000000000               0.000000000               0.000000000              -0.000203388               0.003790305               0.000000000              -0.000550057               0.001446775               0.000896717               0.000000000               0.000000000               0.000000000               0.000000000               0.000093276               0.004124742               0.000000000              -0.000480613               0.001535105               0.001054492               0.000000000               0.000000000               0.000000000               0.000000000               0.000412541               0.004403357               0.000000000              -0.000395716               0.001599676               0.001203960               0.000000000               0.000000000               0.000000000               0.000000000               0.000762063               0.004624489               0.000000000              -0.000292287               0.001638910               0.001346623               0.000000000               0.000000000               0.000000000               0.000000000               0.001156364               0.004796456               0.000000000              -0.000165920               0.001654110               0.001488189               0.000000000               0.000000000               0.000000000               0.000000000               0.001607075               0.004924716               0.000000000              -0.000012937               0.001645868               0.001632931               0.000000000               0.000000000               0.000000000               0.000000000               0.002132205               0.005005357              -0.000000000               0.000173905               0.001610467               0.001784373               0.000000000               0.000000000               0.000000000               0.000000000               0.002763772               0.005025473              -0.000000000               0.000408226               0.001539066               0.001947292               0.000000000               0.000000000               0.000000000               0.000000000               0.003268457               0.005072831              -0.000000000               0.000591562               0.001493740               0.002085301               0.000000000               0.000000000               0.000000000               0.000000000               0.000000000               0.000000000               0.000000000               0.000000000               0.000000000               0.000000000               0.000000000               0.000000000               0.000000000               0.000000000               0.000000000               0.000000000               0.000000000               0.000000000               0.000000000               0.000000000               0.000000000               0.000000000               0.000000000               0.000000000               0.000000000               0.000000000               0.000000000               0.000000000               0.000000000               0.000000000               0.000000000               0.000000000               0.000000000               0.000000000               0.000000000               0.000000000               0.000000000               0.000000000               0.000000000               0.000000000               0.000000000               0.000000000               0.000000000               0.000000000               0.000000000               0.000000000               0.000000000               0.000000000               0.000000000               0.000000000               0.000000000               0.000000000               0.000000000               0.000000000               0.000000000               0.000000000               0.000000000               0.000000000               0.000000000               0.000000000               0.000000000               0.000000000               0.000000000               0.000000000               0.000000000               0.000000000               0.000000000               0.000000000               0.000000000               0.000000000               0.000000000               0.000000000               0.000000000               0.000000000               0.000000000               0.000000000               0.000000000               0.000000000               0.000000000               0.000000000               0.000000000               0.000000000               0.000000000               0.000000000               0.000000000               0.000000000               0.000000000               0.000000000               0.000000000               0.000000000               0.000000000               0.000000000               0.000000000               0.000000000               0.000000000               0.000000000               0.000000000               0.000000000               0.000000000               0.000000000               0.000000000               0.000000000               0.000000000               0.000000000               0.000000000               0.000000000               0.000000000               0.000000000               0.000000000               0.000000000               0.000000000               0.000000000               0.000000000               0.000000000               0.000000000               0.000000000               0.000000000               0.000000000               0.000000000               0.000000000               0.000000000               0.000000000               0.000000000               0.000000000               0.000000000               0.000000000               0.000000000               0.000000000               0.000000000               0.000000000               0.000000000               0.000000000               0.000000000               0.000000000               0.000000000               0.000000000               0.000000000               0.000000000               0.000000000               0.000000000               0.000000000               0.000000000               0.000000000               0.000000000               0.000000000               0.000000000               0.000000000               0.000000000               0.000000000               0.000000000               0.000000000               0.000000000               0.000000000               0.000000000               0.000000000               0.000000000               0.000000000               0.000000000               0.000000000               0.000000000               0.000000000               0.000000000               0.000000000               0.000000000               0.000000000               0.000000000               0.000000000               0.000000000               0.000000000               0.000000000               0.000000000               0.000000000               0.000000000               0.000000000               0.002221192               0.022710651               0.001584329              -0.002005880               0.008238768               0.006232888               0.000000000               0.000000000               0.000000000               0.000000000               0.002094842               0.017830479               0.000790763              -0.001443241               0.006424514               0.004981273               0.000000000               0.000000000               0.000000000               0.000000000               0.002648468               0.013923029              -0.000000844              -0.000747201               0.004890030               0.004142829               0.000000000               0.000000000               0.000000000               0.000000000               0.002497469               0.011730506              -0.000334958              -0.000529761               0.004086717               0.003556956               0.000000000               0.000000000               0.000000000               0.000000000               0.002149809               0.010359732              -0.000471422              -0.000488787               0.003616139               0.003127352               0.000000000               0.000000000               0.000000000               0.000000000               0.001769677               0.009415388              -0.000516295              -0.000513293               0.003309529               0.002796236               0.000000000               0.000000000               0.000000000               0.000000000               0.001414728               0.008705354              -0.000519878              -0.000557645               0.003087637               0.002529992               0.000000000               0.000000000               0.000000000               0.000000000               0.001112231               0.008134821              -0.000504049              -0.000599765               0.002911501               0.002311737               0.000000000               0.000000000               0.000000000               0.000000000               0.000862014               0.007643779              -0.000476193              -0.000632215               0.002758639               0.002126424               0.000000000               0.000000000               0.000000000               0.000000000               0.000651144               0.007191179              -0.000443356              -0.000654717               0.002615275               0.001960558               0.000000000               0.000000000               0.000000000               0.000000000               0.000471699               0.006757033              -0.000413464              -0.000667740               0.002474902               0.001807162               0.000000000               0.000000000               0.000000000               0.000000000               0.000318694               0.006332162              -0.000384807              -0.000672008               0.002334702               0.001662694               0.000000000               0.000000000               0.000000000               0.000000000               0.000193199               0.005903502              -0.000347902              -0.000665486               0.002189643               0.001524157               0.000000000               0.000000000               0.000000000               0.000000000               0.000097185               0.005455061              -0.000297437              -0.000645437               0.002033481               0.001388044               0.000000000               0.000000000               0.000000000               0.000000000               0.000031768               0.004971488              -0.000229609              -0.000609522               0.001860320               0.001250798               0.000000000               0.000000000               0.000000000               0.000000000               0.000003823               0.004437513              -0.000132323              -0.000553254               0.001663574               0.001110320               0.000000000               0.000000000               0.000000000               0.000000000              -0.000041632               0.004038342              -0.000082769              -0.000520404               0.001519568               0.000999165               0.000000000               0.000000000               0.000000000               0.000000000               0.002416484               0.021381282               0.002953926              -0.001766476               0.007715848               0.005949372               0.000000000               0.000000000               0.000000000               0.000000000               0.001966898               0.016977675               0.001474584              -0.001384620               0.006120708               0.004736089               0.000000000               0.000000000               0.000000000               0.000000000               0.002175252               0.013571622               0.000016495              -0.000880731               0.004817406               0.003936675               0.000000000               0.000000000               0.000000000               0.000000000               0.001899097               0.011634009              -0.000575977              -0.000742088               0.004125327               0.003383239               0.000000000               0.000000000               0.000000000               0.000000000               0.001530738               0.010386443              -0.000806798              -0.000724277               0.003703539               0.002979262               0.000000000               0.000000000               0.000000000               0.000000000               0.001178243               0.009496178              -0.000875296              -0.000745179               0.003413754               0.002668575               0.000000000               0.000000000               0.000000000               0.000000000               0.000871533               0.008805211              -0.000874217              -0.000773825               0.003192983               0.002419158               0.000000000               0.000000000               0.000000000               0.000000000               0.000624291               0.008235662              -0.000843549              -0.000795347               0.003010309               0.002214962               0.000000000               0.000000000               0.000000000               0.000000000               0.000433949               0.007739919              -0.000794607              -0.000804757               0.002848200               0.002043442               0.000000000               0.000000000               0.000000000               0.000000000               0.000277446               0.007284202              -0.000737301              -0.000806481               0.002696870               0.001890389               0.000000000               0.000000000               0.000000000               0.000000000               0.000149689               0.006852820              -0.000684087              -0.000800467               0.002551073               0.001750606               0.000000000               0.000000000               0.000000000               0.000000000               0.000053866               0.006434739              -0.000631668              -0.000784141               0.002406272               0.001622131               0.000000000               0.000000000               0.000000000               0.000000000              -0.000013833               0.006020635              -0.000565415              -0.000757765               0.002259447               0.001501682               0.000000000               0.000000000               0.000000000               0.000000000              -0.000051031               0.005603902              -0.000476682              -0.000719623               0.002107823               0.001388200               0.000000000               0.000000000               0.000000000               0.000000000              -0.000059414               0.005177275              -0.000357935              -0.000669438               0.001948887               0.001279449               0.000000000               0.000000000               0.000000000               0.000000000              -0.000040862               0.004741374              -0.000199042              -0.000607994               0.001783107               0.001175113               0.000000000               0.000000000               0.000000000               0.000000000              -0.000056235               0.004440274              -0.000121350              -0.000576121               0.001672117               0.001095996               0.000000000               0.000000000               0.000000000               0.000000000               0.002618086               0.019337777               0.003934419              -0.001435439               0.006924340               0.005488902               0.000000000               0.000000000               0.000000000               0.000000000               0.001709781               0.015683286               0.001969448              -0.001319240               0.005667456               0.004348216               0.000000000               0.000000000               0.000000000               0.000000000               0.001434562               0.013028373               0.000063462              -0.001090583               0.004706275               0.003615692               0.000000000               0.000000000               0.000000000               0.000000000               0.001013494               0.011445508              -0.000668076              -0.001050626               0.004165340               0.003114714               0.000000000               0.000000000               0.000000000               0.000000000               0.000643925               0.010365296              -0.000934408              -0.001054188               0.003806460               0.002752272               0.000000000               0.000000000               0.000000000               0.000000000               0.000353399               0.009549836              -0.001003964              -0.001061203               0.003536981               0.002475778               0.000000000               0.000000000               0.000000000               0.000000000               0.000138938               0.008888694              -0.000993552              -0.001058983               0.003315863               0.002256880               0.000000000               0.000000000               0.000000000               0.000000000              -0.000013339               0.008320809              -0.000951030              -0.001045101               0.003121942               0.002076841               0.000000000               0.000000000               0.000000000               0.000000000              -0.000117046               0.007814978              -0.000888871              -0.001020762               0.002945221               0.001924458               0.000000000               0.000000000               0.000000000               0.000000000              -0.000188393               0.007350782              -0.000820327              -0.000989493               0.002780067               0.001790574               0.000000000               0.000000000               0.000000000               0.000000000              -0.000231952               0.006918757              -0.000756851              -0.000951824               0.002623504               0.001671680               0.000000000               0.000000000               0.000000000               0.000000000              -0.000245292               0.006509716              -0.000693423              -0.000905697               0.002471783               0.001566086               0.000000000               0.000000000               0.000000000               0.000000000              -0.000230807               0.006118720              -0.000615512              -0.000851391               0.002323350               0.001471959               0.000000000               0.000000000               0.000000000               0.000000000              -0.000194714               0.005743807              -0.000510045              -0.000790992               0.002178247               0.001387255               0.000000000               0.000000000               0.000000000               0.000000000              -0.000139571               0.005388964              -0.000372198              -0.000725958               0.002038289               0.001312331               0.000000000               0.000000000               0.000000000               0.000000000              -0.000073692               0.005070589              -0.000202120              -0.000661456               0.001910665               0.001249209               0.000000000               0.000000000               0.000000000               0.000000000              -0.000061282               0.004875831              -0.000120777              -0.000632458               0.001836080               0.001203622               0.000000000               0.000000000               0.000000000               0.000000000               0.002687621               0.016821199               0.004442499              -0.001094793               0.005971940               0.004877148               0.000000000               0.000000000               0.000000000               0.000000000               0.001297800               0.014114994               0.002259516              -0.001277697               0.005130850               0.003853152               0.000000000               0.000000000               0.000000000               0.000000000               0.000513034               0.012351571               0.000174310              -0.001351555               0.004567668               0.003216112               0.000000000               0.000000000               0.000000000               0.000000000              -0.000008455               0.011155328              -0.000575916              -0.001397583               0.004184266               0.002786683               0.000000000               0.000000000               0.000000000               0.000000000              -0.000328158               0.010245943              -0.000832313              -0.001403799               0.003883213               0.002479414               0.000000000               0.000000000               0.000000000               0.000000000              -0.000511886               0.009504582              -0.000892875              -0.001380027               0.003628171               0.002248144               0.000000000               0.000000000               0.000000000               0.000000000              -0.000606158               0.008867839              -0.000875456              -0.001335786               0.003401179               0.002065393               0.000000000               0.000000000               0.000000000               0.000000000              -0.000646810               0.008297453              -0.000831749              -0.001279732               0.003192367               0.001912635               0.000000000               0.000000000               0.000000000               0.000000000              -0.000645072               0.007782418              -0.000775916              -0.001214701               0.002999014               0.001784313               0.000000000               0.000000000               0.000000000               0.000000000              -0.000612981               0.007314611              -0.000716341              -0.001144192               0.002819576               0.001675385               0.000000000               0.000000000               0.000000000               0.000000000              -0.000556386               0.006887135              -0.000659772              -0.001069534               0.002652200               0.001582666               0.000000000               0.000000000               0.000000000               0.000000000              -0.000475970               0.006490291              -0.000599945              -0.000989773               0.002493333               0.001503560               0.000000000               0.000000000               0.000000000               0.000000000              -0.000377790               0.006120594              -0.000525171              -0.000906743               0.002342425               0.001435682               0.000000000               0.000000000               0.000000000               0.000000000              -0.000271019               0.005784715              -0.000424358              -0.000824719               0.002203125               0.001378406               0.000000000               0.000000000               0.000000000               0.000000000              -0.000165942               0.005497882              -0.000298061              -0.000749462               0.002082430               0.001332968               0.000000000               0.000000000               0.000000000               0.000000000              -0.000077029               0.005279464              -0.000154831              -0.000688817               0.001989409               0.001300592               0.000000000               0.000000000               0.000000000               0.000000000              -0.000050184               0.005169581              -0.000087235              -0.000665015               0.001944848               0.001279833               0.000000000               0.000000000               0.000000000               0.000000000               0.002496244               0.014099665               0.004484854              -0.000826369               0.004975297               0.004148928               0.000000000               0.000000000               0.000000000               0.000000000               0.000726225               0.012449140               0.002369871              -0.001283807               0.004577607               0.003293800               0.000000000               0.000000000               0.000000000               0.000000000              -0.000478951               0.011604942               0.000368208              -0.001630220               0.004411682               0.002781462               0.000000000               0.000000000               0.000000000               0.000000000              -0.001006889               0.010771349              -0.000309781              -0.001723997               0.004165079               0.002441082               0.000000000               0.000000000               0.000000000               0.000000000              -0.001214801               0.010009533              -0.000533582              -0.001706738               0.003905390               0.002198653               0.000000000               0.000000000               0.000000000               0.000000000              -0.001261691               0.009322993              -0.000589489              -0.001638504               0.003653801               0.002015297               0.000000000               0.000000000               0.000000000               0.000000000              -0.001219983               0.008699761              -0.000582740              -0.001544960               0.003414878               0.001869918               0.000000000               0.000000000               0.000000000               0.000000000              -0.001131155               0.008134060              -0.000559914              -0.001440937               0.003191639               0.001750702               0.000000000               0.000000000               0.000000000               0.000000000              -0.001017370               0.007622690              -0.000531962              -0.001334347               0.002985653               0.001651307               0.000000000               0.000000000               0.000000000               0.000000000              -0.000887632               0.007165304              -0.000499480              -0.001228522               0.002797918               0.001569396               0.000000000               0.000000000               0.000000000               0.000000000              -0.000743668               0.006751883              -0.000462356              -0.001122858               0.002624891               0.001502033               0.000000000               0.000000000               0.000000000               0.000000000              -0.000586839               0.006370307              -0.000415447              -0.001016350               0.002462198               0.001445847               0.000000000               0.000000000               0.000000000               0.000000000              -0.000424820               0.006022758              -0.000355172              -0.000912150               0.002311616               0.001399466               0.000000000               0.000000000               0.000000000               0.000000000              -0.000274446               0.005724721              -0.000275510              -0.000818505               0.002181056               0.001362551               0.000000000               0.000000000               0.000000000               0.000000000              -0.000149864               0.005493494              -0.000181584              -0.000742884               0.002078774               0.001335890               0.000000000               0.000000000               0.000000000               0.000000000              -0.000061961               0.005339270              -0.000088318              -0.000690642               0.002009953               0.001319311               0.000000000               0.000000000               0.000000000               0.000000000              -0.000035756               0.005272501              -0.000047807              -0.000672470               0.001981639               0.001309170               0.000000000               0.000000000               0.000000000               0.000000000               0.001976684               0.011393724               0.004135378              -0.000682961               0.004025523               0.003342561               0.000000000               0.000000000               0.000000000               0.000000000               0.000022237               0.010811988               0.002349412              -0.001343158               0.004051679               0.002708521               0.000000000               0.000000000               0.000000000               0.000000000              -0.001433122               0.010822687               0.000653250              -0.001890252               0.004237610               0.002347358               0.000000000               0.000000000               0.000000000               0.000000000              -0.001861387               0.010289614               0.000092540              -0.001984217               0.004091243               0.002107026               0.000000000               0.000000000               0.000000000               0.000000000              -0.001906037               0.009644538              -0.000106986              -0.001920326               0.003854923               0.001934596               0.000000000               0.000000000               0.000000000               0.000000000              -0.001795814               0.009006865              -0.000179742              -0.001799284               0.003602020               0.001802736               0.000000000               0.000000000               0.000000000               0.000000000              -0.001616043               0.008408986              -0.000206934              -0.001657135               0.003355346               0.001698210               0.000000000               0.000000000               0.000000000               0.000000000              -0.001407764               0.007862999              -0.000223535              -0.001510783               0.003124568               0.001613785               0.000000000               0.000000000               0.000000000               0.000000000              -0.001191379               0.007372530              -0.000235520              -0.001368330               0.002913595               0.001545265               0.000000000               0.000000000               0.000000000               0.000000000              -0.000976469               0.006932698              -0.000239132              -0.001232760               0.002721796               0.001489036               0.000000000               0.000000000               0.000000000               0.000000000              -0.000764319               0.006532698              -0.000228661              -0.001103204               0.002545279               0.001442075               0.000000000               0.000000000               0.000000000               0.000000000              -0.000559762               0.006165218              -0.000203071              -0.000980561               0.002381906               0.001401345               0.000000000               0.000000000               0.000000000               0.000000000              -0.000374266               0.005844935              -0.000167274              -0.000870964               0.002238614               0.001367649               0.000000000               0.000000000               0.000000000               0.000000000              -0.000221881               0.005588160              -0.000121482              -0.000781723               0.002123276               0.001341552               0.000000000               0.000000000               0.000000000               0.000000000              -0.000109564               0.005402890              -0.000070638              -0.000716446               0.002039761               0.001323315               0.000000000               0.000000000               0.000000000               0.000000000              -0.000039751               0.005281858              -0.000028838              -0.000675137               0.001985647               0.001310510               0.000000000               0.000000000               0.000000000               0.000000000              -0.000023612               0.005225200              -0.000016248              -0.000662003               0.001962384               0.001300381               0.000000000               0.000000000               0.000000000               0.000000000               0.001158916               0.008871237               0.003496439              -0.000674313               0.003181819               0.002507506               0.000000000               0.000000000               0.000000000               0.000000000              -0.000765528               0.009295512               0.002249481              -0.001449010               0.003581476               0.002132466               0.000000000               0.000000000               0.000000000               0.000000000              -0.002246598               0.010009632               0.001021852              -0.002093673               0.004034401               0.001940728               0.000000000               0.000000000               0.000000000               0.000000000              -0.002487492               0.009702968               0.000568308              -0.002145675               0.003949515               0.001803840               0.000000000               0.000000000               0.000000000               0.000000000              -0.002345978               0.009160122               0.000360368              -0.002024752               0.003728261               0.001703509               0.000000000               0.000000000               0.000000000               0.000000000              -0.002082935               0.008582379               0.000244451              -0.001853894               0.003478729               0.001624836               0.000000000               0.000000000               0.000000000               0.000000000              -0.001780222               0.008031905               0.000167853              -0.001671567               0.003234464               0.001562897               0.000000000               0.000000000               0.000000000               0.000000000              -0.001477282               0.007525024               0.000105548              -0.001494605               0.003006518               0.001511913               0.000000000               0.000000000               0.000000000               0.000000000              -0.001185949               0.007059694               0.000050964              -0.001327189               0.002795604               0.001468415               0.000000000               0.000000000               0.000000000               0.000000000              -0.000909783               0.006632948               0.000007556              -0.001170284               0.002601055               0.001430771               0.000000000               0.000000000               0.000000000               0.000000000              -0.000656512               0.006241748              -0.000016100              -0.001026408               0.002422698               0.001396290               0.000000000               0.000000000               0.000000000               0.000000000              -0.000437729               0.005898692              -0.000020083              -0.000901483               0.002266705               0.001365223               0.000000000               0.000000000               0.000000000               0.000000000              -0.000262442               0.005619455              -0.000017384              -0.000800846               0.002140082               0.001339236               0.000000000               0.000000000               0.000000000               0.000000000              -0.000136890               0.005408371              -0.000010716              -0.000727378               0.002045232               0.001317854               0.000000000               0.000000000               0.000000000               0.000000000              -0.000058137               0.005260714              -0.000001082              -0.000679389               0.001980017               0.001300628               0.000000000               0.000000000               0.000000000               0.000000000              -0.000018975               0.005162208               0.000004055              -0.000652390               0.001938182               0.001285792               0.000000000               0.000000000               0.000000000               0.000000000              -0.000016221               0.005112009              -0.000000210              -0.000645082               0.001919013               0.001273931               0.000000000               0.000000000               0.000000000               0.000000000               0.000164095               0.006725607               0.002690700              -0.000779165               0.002501568               0.001722402               0.000000000               0.000000000               0.000000000               0.000000000              -0.001529523               0.007936874               0.002125000              -0.001565678               0.003167490               0.001601813               0.000000000               0.000000000               0.000000000               0.000000000              -0.002868474               0.009203800               0.001459703              -0.002226147               0.003809952               0.001583804               0.000000000               0.000000000               0.000000000               0.000000000              -0.002905298               0.009137058               0.001073828              -0.002231614               0.003789527               0.001557913               0.000000000               0.000000000               0.000000000               0.000000000              -0.002608006               0.008730492               0.000831019              -0.002069309               0.003599904               0.001530596               0.000000000               0.000000000               0.000000000               0.000000000              -0.002225104               0.008240184               0.000657642              -0.001864432               0.003368178               0.001503745               0.000000000               0.000000000               0.000000000               0.000000000              -0.001830247               0.007751397               0.000524204              -0.001655263               0.003135527               0.001480264               0.000000000               0.000000000               0.000000000               0.000000000              -0.001457579               0.007287815               0.000419249              -0.001457565               0.002915102               0.001457537               0.000000000               0.000000000               0.000000000               0.000000000              -0.001112061               0.006852351               0.000328755              -0.001273564               0.002708615               0.001435052               0.000000000               0.000000000               0.000000000               0.000000000              -0.000796755               0.006442439               0.000246340              -0.001104085               0.002515487               0.001411401               0.000000000               0.000000000               0.000000000               0.000000000              -0.000526781               0.006062499               0.000178951              -0.000955353               0.002339264               0.001383911               0.000000000               0.000000000               0.000000000               0.000000000              -0.000311581               0.005738494               0.000131062              -0.000834153               0.002190863               0.001356711               0.000000000               0.000000000               0.000000000               0.000000000              -0.000156029               0.005485477               0.000093454              -0.000744194               0.002076539               0.001332345               0.000000000               0.000000000               0.000000000               0.000000000              -0.000062609               0.005297619               0.000060671              -0.000685679               0.001994415               0.001308736               0.000000000               0.000000000               0.000000000               0.000000000              -0.000019982               0.005165992               0.000036286              -0.000653240               0.001939727               0.001286486               0.000000000               0.000000000               0.000000000               0.000000000              -0.000014244               0.005078051               0.000017783              -0.000640096               0.001906032               0.001265936               0.000000000               0.000000000               0.000000000               0.000000000              -0.000022364               0.005038704               0.000007307              -0.000638223               0.001892292               0.001254069               0.000000000               0.000000000               0.000000000               0.000000000              -0.001007944               0.004722166               0.001830723              -0.000968248               0.001896788               0.000928540               0.000000000               0.000000000               0.000000000               0.000000000              -0.002152012               0.006368688               0.001981709              -0.001603087               0.002657237               0.001054149               0.000000000               0.000000000               0.000000000               0.000000000              -0.003211301               0.008032468               0.001923301              -0.002208291               0.003413559               0.001205268               0.000000000               0.000000000               0.000000000               0.000000000              -0.003143991               0.008335951               0.001617267              -0.002220985               0.003518951               0.001297965               0.000000000               0.000000000               0.000000000               0.000000000              -0.002789631               0.008185757               0.001338008              -0.002069326               0.003418334               0.001349007               0.000000000               0.000000000               0.000000000               0.000000000              -0.002374150               0.007875908               0.001109192              -0.001874790               0.003250206               0.001375416               0.000000000               0.000000000               0.000000000               0.000000000              -0.001951813               0.007516280               0.000925216              -0.001671461               0.003062555               0.001391094               0.000000000               0.000000000               0.000000000               0.000000000              -0.001550117               0.007148349               0.000777561              -0.001474834               0.002874371               0.001399537               0.000000000               0.000000000               0.000000000               0.000000000              -0.001185321               0.006786139               0.000648286              -0.001292760               0.002692944               0.001400184               0.000000000               0.000000000               0.000000000               0.000000000              -0.000858264               0.006436388               0.000524777              -0.001126395               0.002520906               0.001394511               0.000000000               0.000000000               0.000000000               0.000000000              -0.000576676               0.006102833               0.000411464              -0.000979105               0.002360626               0.001381520               0.000000000               0.000000000               0.000000000               0.000000000              -0.000348845               0.005799674               0.000314141              -0.000855774               0.002218463               0.001362689               0.000000000               0.000000000               0.000000000               0.000000000              -0.000179884               0.005541588               0.000226576              -0.000760153               0.002100562               0.001340409               0.000000000               0.000000000               0.000000000               0.000000000              -0.000074130               0.005334509               0.000149261              -0.000694611               0.002009689               0.001315078               0.000000000               0.000000000               0.000000000               0.000000000              -0.000026735               0.005179808               0.000084917              -0.000657500               0.001945752               0.001288252               0.000000000               0.000000000               0.000000000               0.000000000              -0.000025414               0.005071369               0.000033306              -0.000643450               0.001904923               0.001261473               0.000000000               0.000000000               0.000000000               0.000000000              -0.000037613               0.005028213               0.000010097              -0.000642630               0.001890264               0.001247634               0.000000000               0.000000000               0.000000000               0.000000000              -0.002520528               0.002906570               0.000970521              -0.001308517               0.001405018               0.000096502               0.000000000               0.000000000               0.000000000               0.000000000              -0.002849818               0.004792810               0.001762283              -0.001667780               0.002153513               0.000485734               0.000000000               0.000000000               0.000000000               0.000000000              -0.003447055               0.006673750               0.002287942              -0.002126860               0.002933514               0.000806654               0.000000000               0.000000000               0.000000000               0.000000000              -0.003291456               0.007330935               0.002132912              -0.002150658               0.003160506               0.001009848               0.000000000               0.000000000               0.000000000               0.000000000              -0.002914452               0.007475990               0.001855292              -0.002027414               0.003167776               0.001140362               0.000000000               0.000000000               0.000000000               0.000000000              -0.002490000               0.007390657               0.001593919              -0.001857578               0.003082720               0.001225142               0.000000000               0.000000000               0.000000000               0.000000000              -0.002063718               0.007199626               0.001373586              -0.001673844               0.002957799               0.001283955               0.000000000               0.000000000               0.000000000               0.000000000              -0.001653841               0.006963355               0.001187072              -0.001490606               0.002817964               0.001327357               0.000000000               0.000000000               0.000000000               0.000000000              -0.001280530               0.006700345               0.001019420              -0.001317739               0.002672672               0.001354933               0.000000000               0.000000000               0.000000000               0.000000000              -0.000941961               0.006430450               0.000862017              -0.001157039               0.002529141               0.001372103               0.000000000               0.000000000               0.000000000               0.000000000              -0.000639244               0.006159109               0.000712072              -0.001009603               0.002389550               0.001379947               0.000000000               0.000000000               0.000000000               0.000000000              -0.000383008               0.005893336               0.000573546              -0.000880293               0.002257857               0.001377564               0.000000000               0.000000000               0.000000000               0.000000000              -0.000182040               0.005642472               0.000440539              -0.000773572               0.002138662               0.001365090               0.000000000               0.000000000               0.000000000               0.000000000              -0.000042067               0.005422761               0.000312401              -0.000693619               0.002038775               0.001345157               0.000000000               0.000000000               0.000000000               0.000000000               0.000025678               0.005239910               0.000191471              -0.000645358               0.001961738               0.001316381               0.000000000               0.000000000               0.000000000               0.000000000               0.000027258               0.005102355               0.000085027              -0.000627571               0.001909959               0.001282387               0.000000000               0.000000000               0.000000000               0.000000000               0.000002519               0.005040430               0.000032662              -0.000629108               0.001889829               0.001260722               0.000000000               0.000000000               0.000000000               0.000000000              -0.004282440               0.001413634               0.000182452              -0.001782616               0.001065410              -0.000717207               0.000000000               0.000000000               0.000000000               0.000000000              -0.003683036               0.003302750               0.001444586              -0.001793979               0.001698897              -0.000095081               0.000000000               0.000000000               0.000000000               0.000000000              -0.003619176               0.005144251               0.002436060              -0.002000218               0.002381472               0.000381253               0.000000000               0.000000000               0.000000000               0.000000000              -0.003291764               0.006044058               0.002472827              -0.001989915               0.002677970               0.000688055               0.000000000               0.000000000               0.000000000               0.000000000              -0.002878260               0.006459305               0.002254552              -0.001886757               0.002781998               0.000895242               0.000000000               0.000000000               0.000000000               0.000000000              -0.002452851               0.006614340               0.001997336              -0.001746608               0.002786960               0.001040352               0.000000000               0.000000000               0.000000000               0.000000000              -0.002039634               0.006620065               0.001763014              -0.001592367               0.002737455               0.001145087               0.000000000               0.000000000               0.000000000               0.000000000              -0.001642557               0.006540098               0.001553737              -0.001433468               0.002657833               0.001224365               0.000000000               0.000000000               0.000000000               0.000000000              -0.001271788               0.006405067               0.001361567              -0.001277551               0.002560851               0.001283300               0.000000000               0.000000000               0.000000000               0.000000000              -0.000930787               0.006240083               0.001184547              -0.001129053               0.002456358               0.001327305               0.000000000               0.000000000               0.000000000               0.000000000              -0.000614945               0.006057811               0.001017030              -0.000987829               0.002348526               0.001360698               0.000000000               0.000000000               0.000000000               0.000000000              -0.000328868               0.005861621               0.000856457              -0.000856026               0.002239196               0.001383170               0.000000000               0.000000000               0.000000000               0.000000000              -0.000089686               0.005656098               0.000692861              -0.000740643               0.002132228               0.001391585               0.000000000               0.000000000               0.000000000               0.000000000               0.000090338               0.005457480               0.000520888              -0.000648307               0.002035244               0.001386937               0.000000000               0.000000000               0.000000000               0.000000000               0.000199145               0.005277889               0.000342322              -0.000585055               0.001954297               0.001369242               0.000000000               0.000000000               0.000000000               0.000000000               0.000223801               0.005127074               0.000166211              -0.000556958               0.001894660               0.001337703               0.000000000               0.000000000               0.000000000               0.000000000               0.000197727               0.005049622               0.000075387              -0.000557054               0.001868875               0.001311822               0.000000000               0.000000000               0.000000000               0.000000000              -0.006154100               0.000317114              -0.000423418              -0.002347424               0.000888173              -0.001459251               0.000000000               0.000000000               0.000000000               0.000000000              -0.004596371               0.001981163               0.001071389              -0.001971282               0.001317472              -0.000653809               0.000000000               0.000000000               0.000000000               0.000000000              -0.003757320               0.003568777               0.002339014              -0.001855089               0.001807942              -0.000047147               0.000000000               0.000000000               0.000000000               0.000000000              -0.003173470               0.004576982               0.002550839              -0.001762171               0.002113034               0.000350864               0.000000000               0.000000000               0.000000000               0.000000000              -0.002685903               0.005204447               0.002423774              -0.001657767               0.002287386               0.000629620               0.000000000               0.000000000               0.000000000               0.000000000              -0.002252146               0.005582942               0.002205489              -0.001542420               0.002375101               0.000832681               0.000000000               0.000000000               0.000000000               0.000000000              -0.001854590               0.005788606               0.001986415              -0.001419044               0.002402530               0.000983486               0.000000000               0.000000000               0.000000000               0.000000000              -0.001483827               0.005876312               0.001779829              -0.001290972               0.002389074               0.001098103               0.000000000               0.000000000               0.000000000               0.000000000              -0.001127130               0.005890457               0.001585124              -0.001158979               0.002349792               0.001190813               0.000000000               0.000000000               0.000000000               0.000000000              -0.000787183               0.005854122               0.001405484              -0.001026957               0.002293673               0.001266716               0.000000000               0.000000000               0.000000000               0.000000000              -0.000463716               0.005781281               0.001240250              -0.000896552               0.002225925               0.001329373               0.000000000               0.000000000               0.000000000               0.000000000              -0.000157656               0.005679124               0.001078796              -0.000769010               0.002149359               0.001380349               0.000000000               0.000000000               0.000000000               0.000000000               0.000121259               0.005550642               0.000905607              -0.000648357               0.002066314               0.001417957               0.000000000               0.000000000               0.000000000               0.000000000               0.000358927               0.005405696               0.000714351              -0.000541113               0.001982252               0.001441139               0.000000000               0.000000000               0.000000000               0.000000000               0.000538781               0.005261452               0.000499000              -0.000455638               0.001905679               0.001450042               0.000000000               0.000000000               0.000000000               0.000000000               0.000638510               0.005127373               0.000259058              -0.000401479               0.001842934               0.001441454               0.000000000               0.000000000               0.000000000               0.000000000               0.000658067               0.005056991               0.000132624              -0.000385348               0.001814096               0.001428749               0.000000000               0.000000000               0.000000000               0.000000000              -0.007946606              -0.000387640              -0.000743103              -0.002931520               0.000847954              -0.002083566               0.000000000               0.000000000               0.000000000               0.000000000              -0.005506204               0.000913810               0.000706014              -0.002179050               0.001030946              -0.001148104               0.000000000               0.000000000               0.000000000               0.000000000              -0.003881555               0.002109517               0.001997737              -0.001719270               0.001276253              -0.000443017               0.000000000               0.000000000               0.000000000               0.000000000              -0.002989761               0.003108306               0.002314205              -0.001509696               0.001539322               0.000029626               0.000000000               0.000000000               0.000000000               0.000000000              -0.002394740               0.003865280               0.002276621              -0.001381185               0.001748808               0.000367623               0.000000000               0.000000000               0.000000000               0.000000000              -0.001933062               0.004418612               0.002120427              -0.001277223               0.001898596               0.000621373               0.000000000               0.000000000               0.000000000               0.000000000              -0.001544126               0.004806250               0.001939717              -0.001179827               0.001995342               0.000815515               0.000000000               0.000000000               0.000000000               0.000000000              -0.001196434               0.005058193               0.001761701              -0.001080935               0.002046358               0.000965423               0.000000000               0.000000000               0.000000000               0.000000000              -0.000861100               0.005217445               0.001591675              -0.000975092               0.002064161               0.001089069               0.000000000               0.000000000               0.000000000               0.000000000              -0.000528454               0.005314402               0.001432911              -0.000862469               0.002058939               0.001196470               0.000000000               0.000000000               0.000000000               0.000000000              -0.000199282               0.005363567               0.001286170              -0.000745175               0.002036229               0.001291054               0.000000000               0.000000000               0.000000000               0.000000000               0.000121023               0.005369860               0.001141486              -0.000625848               0.001998551               0.001372703               0.000000000               0.000000000               0.000000000               0.000000000               0.000436597               0.005341793               0.000985901              -0.000503999               0.001948579               0.001444580               0.000000000               0.000000000               0.000000000               0.000000000               0.000742334               0.005282779               0.000805007              -0.000381972               0.001888232               0.001506261               0.000000000               0.000000000               0.000000000               0.000000000               0.001020544               0.005199557               0.000586228              -0.000267240               0.001822248               0.001555008               0.000000000               0.000000000               0.000000000               0.000000000               0.001253270               0.005104470               0.000318946              -0.000168082               0.001757500               0.001589418               0.000000000               0.000000000               0.000000000               0.000000000               0.001382213               0.005063424               0.000177538              -0.000114598               0.001725990               0.001611393               0.000000000               0.000000000               0.000000000               0.000000000              -0.009455653              -0.000781682              -0.000735740              -0.003448157               0.000888819              -0.002559338               0.000000000               0.000000000               0.000000000               0.000000000              -0.006299344               0.000141837               0.000404031              -0.002379982               0.000840600              -0.001539381               0.000000000               0.000000000               0.000000000               0.000000000              -0.003996723               0.000929629               0.001451946              -0.001614973               0.000848194              -0.000766779               0.000000000               0.000000000               0.000000000               0.000000000              -0.002802343               0.001846339               0.001762339              -0.001281669               0.001042661              -0.000239008               0.000000000               0.000000000               0.000000000               0.000000000              -0.002085935               0.002658221               0.001781244              -0.001114501               0.001257564               0.000143063               0.000000000               0.000000000               0.000000000               0.000000000              -0.001588022               0.003325431               0.001688856              -0.001011185               0.001445527               0.000434342               0.000000000               0.000000000               0.000000000               0.000000000              -0.001199078               0.003849349               0.001562974              -0.000930821               0.001593377               0.000662555               0.000000000               0.000000000               0.000000000               0.000000000              -0.000865524               0.004236423               0.001434723              -0.000854123               0.001696834               0.000842711               0.000000000               0.000000000               0.000000000               0.000000000              -0.000547805               0.004522180               0.001310262              -0.000770698               0.001764277               0.000993579               0.000000000               0.000000000               0.000000000               0.000000000              -0.000227772               0.004742549               0.001191781              -0.000678232               0.001806911               0.001128679               0.000000000               0.000000000               0.000000000               0.000000000               0.000098891               0.004903626               0.001081350              -0.000575868               0.001826482               0.001250613               0.000000000               0.000000000               0.000000000               0.000000000               0.000434387               0.005013509               0.000972488              -0.000463793               0.001825751               0.001361958               0.000000000               0.000000000               0.000000000               0.000000000               0.000785171               0.005088638               0.000856328              -0.000341640               0.001810076               0.001468435               0.000000000               0.000000000               0.000000000               0.000000000               0.001156042               0.005124847               0.000716047              -0.000207090               0.001777295               0.001570205               0.000000000               0.000000000               0.000000000               0.000000000               0.001548729               0.005119122               0.000535780              -0.000059117               0.001726063               0.001666946               0.000000000               0.000000000               0.000000000               0.000000000               0.001954717               0.005073958               0.000298291               0.000098773               0.001658378               0.001757151               0.000000000               0.000000000               0.000000000               0.000000000               0.002241222               0.005070767               0.000173631               0.000206610               0.001621369               0.001827979               0.000000000               0.000000000               0.000000000               0.000000000              -0.010465766              -0.000962487              -0.000453092              -0.003804349               0.000947281              -0.002857068               0.000000000               0.000000000               0.000000000               0.000000000              -0.006844560              -0.000323708               0.000174553              -0.002526245               0.000734174              -0.001792071               0.000000000               0.000000000               0.000000000               0.000000000              -0.004082520               0.000160034               0.000761362              -0.001550948               0.000570323              -0.000980625               0.000000000               0.000000000               0.000000000               0.000000000              -0.002673581               0.000991699               0.000951687              -0.001126554               0.000706079              -0.000420475               0.000000000               0.000000000               0.000000000               0.000000000              -0.001861325               0.001814765               0.000979027              -0.000924841               0.000913195              -0.000011646               0.000000000               0.000000000               0.000000000               0.000000000              -0.001327322               0.002536503               0.000939704              -0.000814807               0.001117094               0.000302287               0.000000000               0.000000000               0.000000000               0.000000000              -0.000928351               0.003138194               0.000876432              -0.000740404               0.001292855               0.000552451               0.000000000               0.000000000               0.000000000               0.000000000              -0.000599652               0.003615246               0.000810595              -0.000676774               0.001430661               0.000753887               0.000000000               0.000000000               0.000000000               0.000000000              -0.000299259               0.003988534               0.000745971              -0.000610788               0.001533094               0.000922306               0.000000000               0.000000000               0.000000000               0.000000000               0.000005784               0.004294141               0.000681980              -0.000534597               0.001609565               0.001074968               0.000000000               0.000000000               0.000000000               0.000000000               0.000328353               0.004542725               0.000622568              -0.000444708               0.001662462               0.001217755               0.000000000               0.000000000               0.000000000               0.000000000               0.000674957               0.004732751               0.000564051              -0.000338484               0.001690396               0.001351911               0.000000000               0.000000000               0.000000000               0.000000000               0.001056226               0.004880108               0.000501075              -0.000213929               0.001697996               0.001484067               0.000000000               0.000000000               0.000000000               0.000000000               0.001483249               0.004986271               0.000425940              -0.000067066               0.001684429               0.001617363               0.000000000               0.000000000               0.000000000               0.000000000               0.001970660               0.005041200               0.000323341               0.000108846               0.001644101               0.001752947               0.000000000               0.000000000               0.000000000               0.000000000               0.002534712               0.005039808               0.000179559               0.000320538               0.001573073               0.001893611               0.000000000               0.000000000               0.000000000               0.000000000               0.002973641               0.005072073               0.000105444               0.000481101               0.001530307               0.002011408               0.000000000               0.000000000               0.000000000               0.000000000              -0.010819501              -0.001008156              -0.000000000              -0.003931291               0.000974372              -0.002956919               0.000000000               0.000000000               0.000000000               0.000000000              -0.007038808              -0.000476693              -0.000000000              -0.002579964               0.000701086              -0.001878879               0.000000000               0.000000000               0.000000000               0.000000000              -0.004114294              -0.000108012              -0.000000000              -0.001529357               0.000473778              -0.001055579               0.000000000               0.000000000               0.000000000               0.000000000              -0.002631331               0.000688464              -0.000000000              -0.001072806               0.000587086              -0.000485720               0.000000000               0.000000000               0.000000000               0.000000000              -0.001782655               0.001512913               0.000000000              -0.000857608               0.000790168              -0.000067440               0.000000000               0.000000000               0.000000000               0.000000000              -0.001231351               0.002248348               0.000000000              -0.000742799               0.000997041               0.000254243               0.000000000               0.000000000               0.000000000               0.000000000              -0.000825809               0.002873647              -0.000000000              -0.000668883               0.001180833               0.000511951               0.000000000               0.000000000               0.000000000               0.000000000              -0.000495650               0.003383911              -0.000000000              -0.000608856               0.001330911               0.000722055               0.000000000               0.000000000               0.000000000               0.000000000              -0.000203388               0.003790305               0.000000000              -0.000550057               0.001446775               0.000896717               0.000000000               0.000000000               0.000000000               0.000000000               0.000093276               0.004124742              -0.000000000              -0.000480613               0.001535105               0.001054492               0.000000000               0.000000000               0.000000000               0.000000000               0.000412541               0.004403357              -0.000000000              -0.000395716               0.001599676               0.001203960               0.000000000               0.000000000               0.000000000               0.000000000               0.000762063               0.004624489               0.000000000              -0.000292287               0.001638910               0.001346623               0.000000000               0.000000000               0.000000000               0.000000000               0.001156364               0.004796456              -0.000000000              -0.000165920               0.001654110               0.001488189               0.000000000               0.000000000               0.000000000               0.000000000               0.001607075               0.004924716              -0.000000000              -0.000012937               0.001645868               0.001632931               0.000000000               0.000000000               0.000000000               0.000000000               0.002132205               0.005005357              -0.000000000               0.000173905               0.001610467               0.001784373               0.000000000               0.000000000               0.000000000               0.000000000               0.002763772               0.005025473              -0.000000000               0.000408226               0.001539066               0.001947292               0.000000000               0.000000000               0.000000000               0.000000000               0.003268457               0.005072831              -0.000000000               0.000591562               0.001493740               0.002085301               0.000000000               0.000000000               0.000000000               0.000000000               0.002140103               0.023170061              -0.000000000              -0.002093714               0.008421181               0.006327467               0.000000000               0.000000000               0.000000000               0.000000000               0.002127571               0.018126596              -0.000000000              -0.001467982               0.006531465               0.005063484               0.000000000               0.000000000               0.000000000               0.000000000               0.002806890               0.014043843               0.000000000              -0.000702895               0.004915532               0.004212638               0.000000000               0.000000000               0.000000000               0.000000000               0.002707849               0.011758756               0.000000000              -0.000454400               0.004071013               0.003616613               0.000000000               0.000000000               0.000000000               0.000000000               0.002370350               0.010343771               0.000000000              -0.000404089               0.003582586               0.003178496               0.000000000               0.000000000               0.000000000               0.000000000               0.001983644               0.009380101              -0.000000000              -0.000428645               0.003269551               0.002840906               0.000000000               0.000000000               0.000000000               0.000000000               0.001615913               0.008663389              -0.000000000              -0.000476955               0.003046752               0.002569797               0.000000000               0.000000000               0.000000000               0.000000000               0.001295588               0.008092731               0.000000000              -0.000525745               0.002872798               0.002347054               0.000000000               0.000000000               0.000000000               0.000000000               0.001026410               0.007603047              -0.000000000              -0.000565476               0.002722816               0.002157340               0.000000000               0.000000000               0.000000000               0.000000000               0.000799864               0.007150967               0.000000000              -0.000593920               0.002581605               0.001987685               0.000000000               0.000000000               0.000000000               0.000000000               0.000603132               0.006715348               0.000000000              -0.000613243               0.002442841               0.001829598               0.000000000               0.000000000               0.000000000               0.000000000               0.000425227               0.006288049               0.000000000              -0.000626545               0.002304844               0.001678299               0.000000000               0.000000000               0.000000000               0.000000000               0.000271182               0.005854240               0.000000000              -0.000630085               0.002161422               0.001531337               0.000000000               0.000000000               0.000000000               0.000000000               0.000150220               0.005394982               0.000000000              -0.000618039               0.002004322               0.001386283               0.000000000               0.000000000               0.000000000               0.000000000               0.000063040               0.004888693              -0.000000000              -0.000587445               0.001825363               0.001237918               0.000000000               0.000000000               0.000000000               0.000000000               0.000017010               0.004315237              -0.000000000              -0.000533024               0.001616073               0.001083048               0.000000000               0.000000000               0.000000000               0.000000000              -0.000040969               0.003873502               0.000000000              -0.000499550               0.001457671               0.000958121               0.000000000               0.000000000               0.000000000               0.000000000               0.002221192               0.022710651              -0.001584329              -0.002005880               0.008238768               0.006232888               0.000000000               0.000000000               0.000000000               0.000000000               0.002094842               0.017830479              -0.000790763              -0.001443241               0.006424514               0.004981273               0.000000000               0.000000000               0.000000000               0.000000000               0.002648468               0.013923029               0.000000844              -0.000747201               0.004890030               0.004142829               0.000000000               0.000000000               0.000000000               0.000000000               0.002497469               0.011730506               0.000334958              -0.000529761               0.004086717               0.003556956               0.000000000               0.000000000               0.000000000               0.000000000               0.002149809               0.010359732               0.000471422              -0.000488787               0.003616139               0.003127352               0.000000000               0.000000000               0.000000000               0.000000000               0.001769677               0.009415388               0.000516295              -0.000513293               0.003309529               0.002796236               0.000000000               0.000000000               0.000000000               0.000000000               0.001414728               0.008705354               0.000519878              -0.000557645               0.003087637               0.002529992               0.000000000               0.000000000               0.000000000               0.000000000               0.001112231               0.008134821               0.000504049              -0.000599765               0.002911501               0.002311737               0.000000000               0.000000000               0.000000000               0.000000000               0.000862014               0.007643779               0.000476193              -0.000632215               0.002758639               0.002126424               0.000000000               0.000000000               0.000000000               0.000000000               0.000651144               0.007191179               0.000443356              -0.000654717               0.002615275               0.001960558               0.000000000               0.000000000               0.000000000               0.000000000               0.000471699               0.006757033               0.000413464              -0.000667740               0.002474902               0.001807162               0.000000000               0.000000000               0.000000000               0.000000000               0.000318694               0.006332162               0.000384807              -0.000672008               0.002334702               0.001662694               0.000000000               0.000000000               0.000000000               0.000000000               0.000193199               0.005903502               0.000347902              -0.000665486               0.002189643               0.001524157               0.000000000               0.000000000               0.000000000               0.000000000               0.000097185               0.005455061               0.000297437              -0.000645437               0.002033481               0.001388044               0.000000000               0.000000000               0.000000000               0.000000000               0.000031768               0.004971488               0.000229609              -0.000609522               0.001860320               0.001250798               0.000000000               0.000000000               0.000000000               0.000000000               0.000003823               0.004437513               0.000132323              -0.000553254               0.001663574               0.001110320               0.000000000               0.000000000               0.000000000               0.000000000              -0.000041632               0.004038342               0.000082769              -0.000520404               0.001519568               0.000999165               0.000000000               0.000000000               0.000000000               0.000000000               0.002416484               0.021381282              -0.002953926              -0.001766476               0.007715848               0.005949372               0.000000000               0.000000000               0.000000000               0.000000000               0.001966898               0.016977675              -0.001474584              -0.001384620               0.006120708               0.004736089               0.000000000               0.000000000               0.000000000               0.000000000               0.002175252               0.013571622              -0.000016495              -0.000880731               0.004817406               0.003936675               0.000000000               0.000000000               0.000000000               0.000000000               0.001899097               0.011634009               0.000575977              -0.000742088               0.004125327               0.003383239               0.000000000               0.000000000               0.000000000               0.000000000               0.001530738               0.010386443               0.000806798              -0.000724277               0.003703539               0.002979262               0.000000000               0.000000000               0.000000000               0.000000000               0.001178243               0.009496178               0.000875296              -0.000745179               0.003413754               0.002668575               0.000000000               0.000000000               0.000000000               0.000000000               0.000871533               0.008805211               0.000874217              -0.000773825               0.003192983               0.002419158               0.000000000               0.000000000               0.000000000               0.000000000               0.000624291               0.008235662               0.000843549              -0.000795347               0.003010309               0.002214962               0.000000000               0.000000000               0.000000000               0.000000000               0.000433949               0.007739919               0.000794607              -0.000804757               0.002848200               0.002043442               0.000000000               0.000000000               0.000000000               0.000000000               0.000277446               0.007284202               0.000737301              -0.000806481               0.002696870               0.001890389               0.000000000               0.000000000               0.000000000               0.000000000               0.000149689               0.006852820               0.000684087              -0.000800467               0.002551073               0.001750606               0.000000000               0.000000000               0.000000000               0.000000000               0.000053866               0.006434739               0.000631668              -0.000784141               0.002406272               0.001622131               0.000000000               0.000000000               0.000000000               0.000000000              -0.000013833               0.006020635               0.000565415              -0.000757765               0.002259447               0.001501682               0.000000000               0.000000000               0.000000000               0.000000000              -0.000051031               0.005603902               0.000476682              -0.000719623               0.002107823               0.001388200               0.000000000               0.000000000               0.000000000               0.000000000              -0.000059414               0.005177275               0.000357935              -0.000669438               0.001948887               0.001279449               0.000000000               0.000000000               0.000000000               0.000000000              -0.000040862               0.004741374               0.000199042              -0.000607994               0.001783107               0.001175113               0.000000000               0.000000000               0.000000000               0.000000000              -0.000056235               0.004440274               0.000121350              -0.000576121               0.001672117               0.001095996               0.000000000               0.000000000               0.000000000               0.000000000               0.002618086               0.019337777              -0.003934419              -0.001435439               0.006924340               0.005488902               0.000000000               0.000000000               0.000000000               0.000000000               0.001709781               0.015683286              -0.001969448              -0.001319240               0.005667456               0.004348216               0.000000000               0.000000000               0.000000000               0.000000000               0.001434562               0.013028373              -0.000063462              -0.001090583               0.004706275               0.003615692               0.000000000               0.000000000               0.000000000               0.000000000               0.001013494               0.011445508               0.000668076              -0.001050626               0.004165340               0.003114714               0.000000000               0.000000000               0.000000000               0.000000000               0.000643925               0.010365296               0.000934408              -0.001054188               0.003806460               0.002752272               0.000000000               0.000000000               0.000000000               0.000000000               0.000353399               0.009549836               0.001003964              -0.001061203               0.003536981               0.002475778               0.000000000               0.000000000               0.000000000               0.000000000               0.000138938               0.008888694               0.000993552              -0.001058983               0.003315863               0.002256880               0.000000000               0.000000000               0.000000000               0.000000000              -0.000013339               0.008320809               0.000951030              -0.001045101               0.003121942               0.002076841               0.000000000               0.000000000               0.000000000               0.000000000              -0.000117046               0.007814978               0.000888871              -0.001020762               0.002945221               0.001924458               0.000000000               0.000000000               0.000000000               0.000000000              -0.000188393               0.007350782               0.000820327              -0.000989493               0.002780067               0.001790574               0.000000000               0.000000000               0.000000000               0.000000000              -0.000231952               0.006918757               0.000756851              -0.000951824               0.002623504               0.001671680               0.000000000               0.000000000               0.000000000               0.000000000              -0.000245292               0.006509716               0.000693423              -0.000905697               0.002471783               0.001566086               0.000000000               0.000000000               0.000000000               0.000000000              -0.000230807               0.006118720               0.000615512              -0.000851391               0.002323350               0.001471959               0.000000000               0.000000000               0.000000000               0.000000000              -0.000194714               0.005743807               0.000510045              -0.000790992               0.002178247               0.001387255               0.000000000               0.000000000               0.000000000               0.000000000              -0.000139571               0.005388964               0.000372198              -0.000725958               0.002038289               0.001312331               0.000000000               0.000000000               0.000000000               0.000000000              -0.000073692               0.005070589               0.000202120              -0.000661456               0.001910665               0.001249209               0.000000000               0.000000000               0.000000000               0.000000000              -0.000061282               0.004875831               0.000120777              -0.000632458               0.001836080               0.001203622               0.000000000               0.000000000               0.000000000               0.000000000               0.002687621               0.016821199              -0.004442499              -0.001094793               0.005971940               0.004877148               0.000000000               0.000000000               0.000000000               0.000000000               0.001297800               0.014114994              -0.002259516              -0.001277697               0.005130850               0.003853152               0.000000000               0.000000000               0.000000000               0.000000000               0.000513034               0.012351571              -0.000174310              -0.001351555               0.004567668               0.003216112               0.000000000               0.000000000               0.000000000               0.000000000              -0.000008455               0.011155328               0.000575916              -0.001397583               0.004184266               0.002786683               0.000000000               0.000000000               0.000000000               0.000000000              -0.000328158               0.010245943               0.000832313              -0.001403799               0.003883213               0.002479414               0.000000000               0.000000000               0.000000000               0.000000000              -0.000511886               0.009504582               0.000892875              -0.001380027               0.003628171               0.002248144               0.000000000               0.000000000               0.000000000               0.000000000              -0.000606158               0.008867839               0.000875456              -0.001335786               0.003401179               0.002065393               0.000000000               0.000000000               0.000000000               0.000000000              -0.000646810               0.008297453               0.000831749              -0.001279732               0.003192367               0.001912635               0.000000000               0.000000000               0.000000000               0.000000000              -0.000645072               0.007782418               0.000775916              -0.001214701               0.002999014               0.001784313               0.000000000               0.000000000               0.000000000               0.000000000              -0.000612981               0.007314611               0.000716341              -0.001144192               0.002819576               0.001675385               0.000000000               0.000000000               0.000000000               0.000000000              -0.000556386               0.006887135               0.000659772              -0.001069534               0.002652200               0.001582666               0.000000000               0.000000000               0.000000000               0.000000000              -0.000475970               0.006490291               0.000599945              -0.000989773               0.002493333               0.001503560               0.000000000               0.000000000               0.000000000               0.000000000              -0.000377790               0.006120594               0.000525171              -0.000906743               0.002342425               0.001435682               0.000000000               0.000000000               0.000000000               0.000000000              -0.000271019               0.005784715               0.000424358              -0.000824719               0.002203125               0.001378406               0.000000000               0.000000000               0.000000000               0.000000000              -0.000165942               0.005497882               0.000298061              -0.000749462               0.002082430               0.001332968               0.000000000               0.000000000               0.000000000               0.000000000              -0.000077029               0.005279464               0.000154831              -0.000688817               0.001989409               0.001300592               0.000000000               0.000000000               0.000000000               0.000000000              -0.000050184               0.005169581               0.000087235              -0.000665015               0.001944848               0.001279833               0.000000000               0.000000000               0.000000000               0.000000000               0.002496244               0.014099665              -0.004484854              -0.000826369               0.004975297               0.004148928               0.000000000               0.000000000               0.000000000               0.000000000               0.000726225               0.012449140              -0.002369871              -0.001283807               0.004577607               0.003293800               0.000000000               0.000000000               0.000000000               0.000000000              -0.000478951               0.011604942              -0.000368208              -0.001630220               0.004411682               0.002781462               0.000000000               0.000000000               0.000000000               0.000000000              -0.001006889               0.010771349               0.000309781              -0.001723997               0.004165079               0.002441082               0.000000000               0.000000000               0.000000000               0.000000000              -0.001214801               0.010009533               0.000533582              -0.001706738               0.003905390               0.002198653               0.000000000               0.000000000               0.000000000               0.000000000              -0.001261691               0.009322993               0.000589489              -0.001638504               0.003653801               0.002015297               0.000000000               0.000000000               0.000000000               0.000000000              -0.001219983               0.008699761               0.000582740              -0.001544960               0.003414878               0.001869918               0.000000000               0.000000000               0.000000000               0.000000000              -0.001131155               0.008134060               0.000559914              -0.001440937               0.003191639               0.001750702               0.000000000               0.000000000               0.000000000               0.000000000              -0.001017370               0.007622690               0.000531962              -0.001334347               0.002985653               0.001651307               0.000000000               0.000000000               0.000000000               0.000000000              -0.000887632               0.007165304               0.000499480              -0.001228522               0.002797918               0.001569396               0.000000000               0.000000000               0.000000000               0.000000000              -0.000743668               0.006751883               0.000462356              -0.001122858               0.002624891               0.001502033               0.000000000               0.000000000               0.000000000               0.000000000              -0.000586839               0.006370307               0.000415447              -0.001016350               0.002462198               0.001445847               0.000000000               0.000000000               0.000000000               0.000000000              -0.000424820               0.006022758               0.000355172              -0.000912150               0.002311616               0.001399466               0.000000000               0.000000000               0.000000000               0.000000000              -0.000274446               0.005724721               0.000275510              -0.000818505               0.002181056               0.001362551               0.000000000               0.000000000               0.000000000               0.000000000              -0.000149864               0.005493494               0.000181584              -0.000742884               0.002078774               0.001335890               0.000000000               0.000000000               0.000000000               0.000000000              -0.000061961               0.005339270               0.000088318              -0.000690642               0.002009953               0.001319311               0.000000000               0.000000000               0.000000000               0.000000000              -0.000035756               0.005272501               0.000047807              -0.000672470               0.001981639               0.001309170               0.000000000               0.000000000               0.000000000               0.000000000               0.001976684               0.011393724              -0.004135378              -0.000682961               0.004025523               0.003342561               0.000000000               0.000000000               0.000000000               0.000000000               0.000022237               0.010811988              -0.002349412              -0.001343158               0.004051679               0.002708521               0.000000000               0.000000000               0.000000000               0.000000000              -0.001433122               0.010822687              -0.000653250              -0.001890252               0.004237610               0.002347358               0.000000000               0.000000000               0.000000000               0.000000000              -0.001861387               0.010289614              -0.000092540              -0.001984217               0.004091243               0.002107026               0.000000000               0.000000000               0.000000000               0.000000000              -0.001906037               0.009644538               0.000106986              -0.001920326               0.003854923               0.001934596               0.000000000               0.000000000               0.000000000               0.000000000              -0.001795814               0.009006865               0.000179742              -0.001799284               0.003602020               0.001802736               0.000000000               0.000000000               0.000000000               0.000000000              -0.001616043               0.008408986               0.000206934              -0.001657135               0.003355346               0.001698210               0.000000000               0.000000000               0.000000000               0.000000000              -0.001407764               0.007862999               0.000223535              -0.001510783               0.003124568               0.001613785               0.000000000               0.000000000               0.000000000               0.000000000              -0.001191379               0.007372530               0.000235520              -0.001368330               0.002913595               0.001545265               0.000000000               0.000000000               0.000000000               0.000000000              -0.000976469               0.006932698               0.000239132              -0.001232760               0.002721796               0.001489036               0.000000000               0.000000000               0.000000000               0.000000000              -0.000764319               0.006532698               0.000228661              -0.001103204               0.002545279               0.001442075               0.000000000               0.000000000               0.000000000               0.000000000              -0.000559762               0.006165218               0.000203071              -0.000980561               0.002381906               0.001401345               0.000000000               0.000000000               0.000000000               0.000000000              -0.000374266               0.005844935               0.000167274              -0.000870964               0.002238614               0.001367649               0.000000000               0.000000000               0.000000000               0.000000000              -0.000221881               0.005588160               0.000121482              -0.000781723               0.002123276               0.001341552               0.000000000               0.000000000               0.000000000               0.000000000              -0.000109564               0.005402890               0.000070638              -0.000716446               0.002039761               0.001323315               0.000000000               0.000000000               0.000000000               0.000000000              -0.000039751               0.005281858               0.000028838              -0.000675137               0.001985647               0.001310510               0.000000000               0.000000000               0.000000000               0.000000000              -0.000023612               0.005225200               0.000016248              -0.000662003               0.001962384               0.001300381               0.000000000               0.000000000               0.000000000               0.000000000               0.001158916               0.008871237              -0.003496439              -0.000674313               0.003181819               0.002507506               0.000000000               0.000000000               0.000000000               0.000000000              -0.000765528               0.009295512              -0.002249481              -0.001449010               0.003581476               0.002132466               0.000000000               0.000000000               0.000000000               0.000000000              -0.002246598               0.010009632              -0.001021852              -0.002093673               0.004034401               0.001940728               0.000000000               0.000000000               0.000000000               0.000000000              -0.002487492               0.009702968              -0.000568308              -0.002145675               0.003949515               0.001803840               0.000000000               0.000000000               0.000000000               0.000000000              -0.002345978               0.009160122              -0.000360368              -0.002024752               0.003728261               0.001703509               0.000000000               0.000000000               0.000000000               0.000000000              -0.002082935               0.008582379              -0.000244451              -0.001853894               0.003478729               0.001624836               0.000000000               0.000000000               0.000000000               0.000000000              -0.001780222               0.008031905              -0.000167853              -0.001671567               0.003234464               0.001562897               0.000000000               0.000000000               0.000000000               0.000000000              -0.001477282               0.007525024              -0.000105548              -0.001494605               0.003006518               0.001511913               0.000000000               0.000000000               0.000000000               0.000000000              -0.001185949               0.007059694              -0.000050964              -0.001327189               0.002795604               0.001468415               0.000000000               0.000000000               0.000000000               0.000000000              -0.000909783               0.006632948              -0.000007556              -0.001170284               0.002601055               0.001430771               0.000000000               0.000000000               0.000000000               0.000000000              -0.000656512               0.006241748               0.000016100              -0.001026408               0.002422698               0.001396290               0.000000000               0.000000000               0.000000000               0.000000000              -0.000437729               0.005898692               0.000020083              -0.000901483               0.002266705               0.001365223               0.000000000               0.000000000               0.000000000               0.000000000              -0.000262442               0.005619455               0.000017384              -0.000800846               0.002140082               0.001339236               0.000000000               0.000000000               0.000000000               0.000000000              -0.000136890               0.005408371               0.000010716              -0.000727378               0.002045232               0.001317854               0.000000000               0.000000000               0.000000000               0.000000000              -0.000058137               0.005260714               0.000001082              -0.000679389               0.001980017               0.001300628               0.000000000               0.000000000               0.000000000               0.000000000              -0.000018975               0.005162208              -0.000004055              -0.000652390               0.001938182               0.001285792               0.000000000               0.000000000               0.000000000               0.000000000              -0.000016221               0.005112009               0.000000210              -0.000645082               0.001919013               0.001273931               0.000000000               0.000000000               0.000000000               0.000000000               0.000164095               0.006725607              -0.002690700              -0.000779165               0.002501568               0.001722402               0.000000000               0.000000000               0.000000000               0.000000000              -0.001529523               0.007936874              -0.002125000              -0.001565678               0.003167490               0.001601813               0.000000000               0.000000000               0.000000000               0.000000000              -0.002868474               0.009203800              -0.001459703              -0.002226147               0.003809952               0.001583804               0.000000000               0.000000000               0.000000000               0.000000000              -0.002905298               0.009137058              -0.001073828              -0.002231614               0.003789527               0.001557913               0.000000000               0.000000000               0.000000000               0.000000000              -0.002608006               0.008730492              -0.000831019              -0.002069309               0.003599904               0.001530596               0.000000000               0.000000000               0.000000000               0.000000000              -0.002225104               0.008240184              -0.000657642              -0.001864432               0.003368178               0.001503745               0.000000000               0.000000000               0.000000000               0.000000000              -0.001830247               0.007751397              -0.000524204              -0.001655263               0.003135527               0.001480264               0.000000000               0.000000000               0.000000000               0.000000000              -0.001457579               0.007287815              -0.000419249              -0.001457565               0.002915102               0.001457537               0.000000000               0.000000000               0.000000000               0.000000000              -0.001112061               0.006852351              -0.000328755              -0.001273564               0.002708615               0.001435052               0.000000000               0.000000000               0.000000000               0.000000000              -0.000796755               0.006442439              -0.000246340              -0.001104085               0.002515487               0.001411401               0.000000000               0.000000000               0.000000000               0.000000000              -0.000526781               0.006062499              -0.000178951              -0.000955353               0.002339264               0.001383911               0.000000000               0.000000000               0.000000000               0.000000000              -0.000311581               0.005738494              -0.000131062              -0.000834153               0.002190863               0.001356711               0.000000000               0.000000000               0.000000000               0.000000000              -0.000156029               0.005485477              -0.000093454              -0.000744194               0.002076539               0.001332345               0.000000000               0.000000000               0.000000000               0.000000000              -0.000062609               0.005297619              -0.000060671              -0.000685679               0.001994415               0.001308736               0.000000000               0.000000000               0.000000000               0.000000000              -0.000019982               0.005165992              -0.000036286              -0.000653240               0.001939727               0.001286486               0.000000000               0.000000000               0.000000000               0.000000000              -0.000014244               0.005078051              -0.000017783              -0.000640096               0.001906032               0.001265936               0.000000000               0.000000000               0.000000000               0.000000000              -0.000022364               0.005038704              -0.000007307              -0.000638223               0.001892292               0.001254069               0.000000000               0.000000000               0.000000000               0.000000000              -0.001007944               0.004722166              -0.001830723              -0.000968248               0.001896788               0.000928540               0.000000000               0.000000000               0.000000000               0.000000000              -0.002152012               0.006368688              -0.001981709              -0.001603087               0.002657237               0.001054149               0.000000000               0.000000000               0.000000000               0.000000000              -0.003211301               0.008032468              -0.001923301              -0.002208291               0.003413559               0.001205268               0.000000000               0.000000000               0.000000000               0.000000000              -0.003143991               0.008335951              -0.001617267              -0.002220985               0.003518951               0.001297965               0.000000000               0.000000000               0.000000000               0.000000000              -0.002789631               0.008185757              -0.001338008              -0.002069326               0.003418334               0.001349007               0.000000000               0.000000000               0.000000000               0.000000000              -0.002374150               0.007875908              -0.001109192              -0.001874790               0.003250206               0.001375416               0.000000000               0.000000000               0.000000000               0.000000000              -0.001951813               0.007516280              -0.000925216              -0.001671461               0.003062555               0.001391094               0.000000000               0.000000000               0.000000000               0.000000000              -0.001550117               0.007148349              -0.000777561              -0.001474834               0.002874371               0.001399537               0.000000000               0.000000000               0.000000000               0.000000000              -0.001185321               0.006786139              -0.000648286              -0.001292760               0.002692944               0.001400184               0.000000000               0.000000000               0.000000000               0.000000000              -0.000858264               0.006436388              -0.000524777              -0.001126395               0.002520906               0.001394511               0.000000000               0.000000000               0.000000000               0.000000000              -0.000576676               0.006102833              -0.000411464              -0.000979105               0.002360626               0.001381520               0.000000000               0.000000000               0.000000000               0.000000000              -0.000348845               0.005799674              -0.000314141              -0.000855774               0.002218463               0.001362689               0.000000000               0.000000000               0.000000000               0.000000000              -0.000179884               0.005541588              -0.000226576              -0.000760153               0.002100562               0.001340409               0.000000000               0.000000000               0.000000000               0.000000000              -0.000074130               0.005334509              -0.000149261              -0.000694611               0.002009689               0.001315078               0.000000000               0.000000000               0.000000000               0.000000000              -0.000026735               0.005179808              -0.000084917              -0.000657500               0.001945752               0.001288252               0.000000000               0.000000000               0.000000000               0.000000000              -0.000025414               0.005071369              -0.000033306              -0.000643450               0.001904923               0.001261473               0.000000000               0.000000000               0.000000000               0.000000000              -0.000037613               0.005028213              -0.000010097              -0.000642630               0.001890264               0.001247634               0.000000000               0.000000000               0.000000000               0.000000000              -0.002520528               0.002906570              -0.000970521              -0.001308517               0.001405018               0.000096502               0.000000000               0.000000000               0.000000000               0.000000000              -0.002849818               0.004792810              -0.001762283              -0.001667780               0.002153513               0.000485734               0.000000000               0.000000000               0.000000000               0.000000000              -0.003447055               0.006673750              -0.002287942              -0.002126860               0.002933514               0.000806654               0.000000000               0.000000000               0.000000000               0.000000000              -0.003291456               0.007330935              -0.002132912              -0.002150658               0.003160506               0.001009848               0.000000000               0.000000000               0.000000000               0.000000000              -0.002914452               0.007475990              -0.001855292              -0.002027414               0.003167776               0.001140362               0.000000000               0.000000000               0.000000000               0.000000000              -0.002490000               0.007390657              -0.001593919              -0.001857578               0.003082720               0.001225142               0.000000000               0.000000000               0.000000000               0.000000000              -0.002063718               0.007199626              -0.001373586              -0.001673844               0.002957799               0.001283955               0.000000000               0.000000000               0.000000000               0.000000000              -0.001653841               0.006963355              -0.001187072              -0.001490606               0.002817964               0.001327357               0.000000000               0.000000000               0.000000000               0.000000000              -0.001280530               0.006700345              -0.001019420              -0.001317739               0.002672672               0.001354933               0.000000000               0.000000000               0.000000000               0.000000000              -0.000941961               0.006430450              -0.000862017              -0.001157039               0.002529141               0.001372103               0.000000000               0.000000000               0.000000000               0.000000000              -0.000639244               0.006159109              -0.000712072              -0.001009603               0.002389550               0.001379947               0.000000000               0.000000000               0.000000000               0.000000000              -0.000383008               0.005893336              -0.000573546              -0.000880293               0.002257857               0.001377564               0.000000000               0.000000000               0.000000000               0.000000000              -0.000182040               0.005642472              -0.000440539              -0.000773572               0.002138662               0.001365090               0.000000000               0.000000000               0.000000000               0.000000000              -0.000042067               0.005422761              -0.000312401              -0.000693619               0.002038775               0.001345157               0.000000000               0.000000000               0.000000000               0.000000000               0.000025678               0.005239910              -0.000191471              -0.000645358               0.001961738               0.001316381               0.000000000               0.000000000               0.000000000               0.000000000               0.000027258               0.005102355              -0.000085027              -0.000627571               0.001909959               0.001282387               0.000000000               0.000000000               0.000000000               0.000000000               0.000002519               0.005040430              -0.000032662              -0.000629108               0.001889829               0.001260722               0.000000000               0.000000000               0.000000000               0.000000000              -0.004282440               0.001413634              -0.000182452              -0.001782616               0.001065410              -0.000717207               0.000000000               0.000000000               0.000000000               0.000000000              -0.003683036               0.003302750              -0.001444586              -0.001793979               0.001698897              -0.000095081               0.000000000               0.000000000               0.000000000               0.000000000              -0.003619176               0.005144251              -0.002436060              -0.002000218               0.002381472               0.000381253               0.000000000               0.000000000               0.000000000               0.000000000              -0.003291764               0.006044058              -0.002472827              -0.001989915               0.002677970               0.000688055               0.000000000               0.000000000               0.000000000               0.000000000              -0.002878260               0.006459305              -0.002254552              -0.001886757               0.002781998               0.000895242               0.000000000               0.000000000               0.000000000               0.000000000              -0.002452851               0.006614340              -0.001997336              -0.001746608               0.002786960               0.001040352               0.000000000               0.000000000               0.000000000               0.000000000              -0.002039634               0.006620065              -0.001763014              -0.001592367               0.002737455               0.001145087               0.000000000               0.000000000               0.000000000               0.000000000              -0.001642557               0.006540098              -0.001553737              -0.001433468               0.002657833               0.001224365               0.000000000               0.000000000               0.000000000               0.000000000              -0.001271788               0.006405067              -0.001361567              -0.001277551               0.002560851               0.001283300               0.000000000               0.000000000               0.000000000               0.000000000              -0.000930787               0.006240083              -0.001184547              -0.001129053               0.002456358               0.001327305               0.000000000               0.000000000               0.000000000               0.000000000              -0.000614945               0.006057811              -0.001017030              -0.000987829               0.002348526               0.001360698               0.000000000               0.000000000               0.000000000               0.000000000              -0.000328868               0.005861621              -0.000856457              -0.000856026               0.002239196               0.001383170               0.000000000               0.000000000               0.000000000               0.000000000              -0.000089686               0.005656098              -0.000692861              -0.000740643               0.002132228               0.001391585               0.000000000               0.000000000               0.000000000               0.000000000               0.000090338               0.005457480              -0.000520888              -0.000648307               0.002035244               0.001386937               0.000000000               0.000000000               0.000000000               0.000000000               0.000199145               0.005277889              -0.000342322              -0.000585055               0.001954297               0.001369242               0.000000000               0.000000000               0.000000000               0.000000000               0.000223801               0.005127074              -0.000166211              -0.000556958               0.001894660               0.001337703               0.000000000               0.000000000               0.000000000               0.000000000               0.000197727               0.005049622              -0.000075387              -0.000557054               0.001868875               0.001311822               0.000000000               0.000000000               0.000000000               0.000000000              -0.006154100               0.000317114               0.000423418              -0.002347424               0.000888173              -0.001459251               0.000000000               0.000000000               0.000000000               0.000000000              -0.004596371               0.001981163              -0.001071389              -0.001971282               0.001317472              -0.000653809               0.000000000               0.000000000               0.000000000               0.000000000              -0.003757320               0.003568777              -0.002339014              -0.001855089               0.001807942              -0.000047147               0.000000000               0.000000000               0.000000000               0.000000000              -0.003173470               0.004576982              -0.002550839              -0.001762171               0.002113034               0.000350864               0.000000000               0.000000000               0.000000000               0.000000000              -0.002685903               0.005204447              -0.002423774              -0.001657767               0.002287386               0.000629620               0.000000000               0.000000000               0.000000000               0.000000000              -0.002252146               0.005582942              -0.002205489              -0.001542420               0.002375101               0.000832681               0.000000000               0.000000000               0.000000000               0.000000000              -0.001854590               0.005788606              -0.001986415              -0.001419044               0.002402530               0.000983486               0.000000000               0.000000000               0.000000000               0.000000000              -0.001483827               0.005876312              -0.001779829              -0.001290972               0.002389074               0.001098103               0.000000000               0.000000000               0.000000000               0.000000000              -0.001127130               0.005890457              -0.001585124              -0.001158979               0.002349792               0.001190813               0.000000000               0.000000000               0.000000000               0.000000000              -0.000787183               0.005854122              -0.001405484              -0.001026957               0.002293673               0.001266716               0.000000000               0.000000000               0.000000000               0.000000000              -0.000463716               0.005781281              -0.001240250              -0.000896552               0.002225925               0.001329373               0.000000000               0.000000000               0.000000000               0.000000000              -0.000157656               0.005679124              -0.001078796              -0.000769010               0.002149359               0.001380349               0.000000000               0.000000000               0.000000000               0.000000000               0.000121259               0.005550642              -0.000905607              -0.000648357               0.002066314               0.001417957               0.000000000               0.000000000               0.000000000               0.000000000               0.000358927               0.005405696              -0.000714351              -0.000541113               0.001982252               0.001441139               0.000000000               0.000000000               0.000000000               0.000000000               0.000538781               0.005261452              -0.000499000              -0.000455638               0.001905679               0.001450042               0.000000000               0.000000000               0.000000000               0.000000000               0.000638510               0.005127373              -0.000259058              -0.000401479               0.001842934               0.001441454               0.000000000               0.000000000               0.000000000               0.000000000               0.000658067               0.005056991              -0.000132624              -0.000385348               0.001814096               0.001428749               0.000000000               0.000000000               0.000000000               0.000000000              -0.007946606              -0.000387640               0.000743103              -0.002931520               0.000847954              -0.002083566               0.000000000               0.000000000               0.000000000               0.000000000              -0.005506204               0.000913810              -0.000706014              -0.002179050               0.001030946              -0.001148104               0.000000000               0.000000000               0.000000000               0.000000000              -0.003881555               0.002109517              -0.001997737              -0.001719270               0.001276253              -0.000443017               0.000000000               0.000000000               0.000000000               0.000000000              -0.002989761               0.003108306              -0.002314205              -0.001509696               0.001539322               0.000029626               0.000000000               0.000000000               0.000000000               0.000000000              -0.002394740               0.003865280              -0.002276621              -0.001381185               0.001748808               0.000367623               0.000000000               0.000000000               0.000000000               0.000000000              -0.001933062               0.004418612              -0.002120427              -0.001277223               0.001898596               0.000621373               0.000000000               0.000000000               0.000000000               0.000000000              -0.001544126               0.004806250              -0.001939717              -0.001179827               0.001995342               0.000815515               0.000000000               0.000000000               0.000000000               0.000000000              -0.001196434               0.005058193              -0.001761701              -0.001080935               0.002046358               0.000965423               0.000000000               0.000000000               0.000000000               0.000000000              -0.000861100               0.005217445              -0.001591675              -0.000975092               0.002064161               0.001089069               0.000000000               0.000000000               0.000000000               0.000000000              -0.000528454               0.005314402              -0.001432911              -0.000862469               0.002058939               0.001196470               0.000000000               0.000000000               0.000000000               0.000000000              -0.000199282               0.005363567              -0.001286170              -0.000745175               0.002036229               0.001291054               0.000000000               0.000000000               0.000000000               0.000000000               0.000121023               0.005369860              -0.001141486              -0.000625848               0.001998551               0.001372703               0.000000000               0.000000000               0.000000000               0.000000000               0.000436597               0.005341793              -0.000985901              -0.000503999               0.001948579               0.001444580               0.000000000               0.000000000               0.000000000               0.000000000               0.000742334               0.005282779              -0.000805007              -0.000381972               0.001888232               0.001506261               0.000000000               0.000000000               0.000000000               0.000000000               0.001020544               0.005199557              -0.000586228              -0.000267240               0.001822248               0.001555008               0.000000000               0.000000000               0.000000000               0.000000000               0.001253270               0.005104470              -0.000318946              -0.000168082               0.001757500               0.001589418               0.000000000               0.000000000               0.000000000               0.000000000               0.001382213               0.005063424              -0.000177538              -0.000114598               0.001725990               0.001611393               0.000000000               0.000000000               0.000000000               0.000000000              -0.009455653              -0.000781682               0.000735740              -0.003448157               0.000888819              -0.002559338               0.000000000               0.000000000               0.000000000               0.000000000              -0.006299344               0.000141837              -0.000404031              -0.002379982               0.000840600              -0.001539381               0.000000000               0.000000000               0.000000000               0.000000000              -0.003996723               0.000929629              -0.001451946              -0.001614973               0.000848194              -0.000766779               0.000000000               0.000000000               0.000000000               0.000000000              -0.002802343               0.001846339              -0.001762339              -0.001281669               0.001042661              -0.000239008               0.000000000               0.000000000               0.000000000               0.000000000              -0.002085935               0.002658221              -0.001781244              -0.001114501               0.001257564               0.000143063               0.000000000               0.000000000               0.000000000               0.000000000              -0.001588022               0.003325431              -0.001688856              -0.001011185               0.001445527               0.000434342               0.000000000               0.000000000               0.000000000               0.000000000              -0.001199078               0.003849349              -0.001562974              -0.000930821               0.001593377               0.000662555               0.000000000               0.000000000               0.000000000               0.000000000              -0.000865524               0.004236423              -0.001434723              -0.000854123               0.001696834               0.000842711               0.000000000               0.000000000               0.000000000               0.000000000              -0.000547805               0.004522180              -0.001310262              -0.000770698               0.001764277               0.000993579               0.000000000               0.000000000               0.000000000               0.000000000              -0.000227772               0.004742549              -0.001191781              -0.000678232               0.001806911               0.001128679               0.000000000               0.000000000               0.000000000               0.000000000               0.000098891               0.004903626              -0.001081350              -0.000575868               0.001826482               0.001250613               0.000000000               0.000000000               0.000000000               0.000000000               0.000434387               0.005013509              -0.000972488              -0.000463793               0.001825751               0.001361958               0.000000000               0.000000000               0.000000000               0.000000000               0.000785171               0.005088638              -0.000856328              -0.000341640               0.001810076               0.001468435               0.000000000               0.000000000               0.000000000               0.000000000               0.001156042               0.005124847              -0.000716047              -0.000207090               0.001777295               0.001570205               0.000000000               0.000000000               0.000000000               0.000000000               0.001548729               0.005119122              -0.000535780              -0.000059117               0.001726063               0.001666946               0.000000000               0.000000000               0.000000000               0.000000000               0.001954717               0.005073958              -0.000298291               0.000098773               0.001658378               0.001757151               0.000000000               0.000000000               0.000000000               0.000000000               0.002241222               0.005070767              -0.000173631               0.000206610               0.001621369               0.001827979               0.000000000               0.000000000               0.000000000               0.000000000              -0.010465766              -0.000962487               0.000453092              -0.003804349               0.000947281              -0.002857068               0.000000000               0.000000000               0.000000000               0.000000000              -0.006844560              -0.000323708              -0.000174553              -0.002526245               0.000734174              -0.001792071               0.000000000               0.000000000               0.000000000               0.000000000              -0.004082520               0.000160034              -0.000761362              -0.001550948               0.000570323              -0.000980625               0.000000000               0.000000000               0.000000000               0.000000000              -0.002673581               0.000991699              -0.000951687              -0.001126554               0.000706079              -0.000420475               0.000000000               0.000000000               0.000000000               0.000000000              -0.001861325               0.001814765              -0.000979027              -0.000924841               0.000913195              -0.000011646               0.000000000               0.000000000               0.000000000               0.000000000              -0.001327322               0.002536503              -0.000939704              -0.000814807               0.001117094               0.000302287               0.000000000               0.000000000               0.000000000               0.000000000              -0.000928351               0.003138194              -0.000876432              -0.000740404               0.001292855               0.000552451               0.000000000               0.000000000               0.000000000               0.000000000              -0.000599652               0.003615246              -0.000810595              -0.000676774               0.001430661               0.000753887               0.000000000               0.000000000               0.000000000               0.000000000              -0.000299259               0.003988534              -0.000745971              -0.000610788               0.001533094               0.000922306               0.000000000               0.000000000               0.000000000               0.000000000               0.000005784               0.004294141              -0.000681980              -0.000534597               0.001609565               0.001074968               0.000000000               0.000000000               0.000000000               0.000000000               0.000328353               0.004542725              -0.000622568              -0.000444708               0.001662462               0.001217755               0.000000000               0.000000000               0.000000000               0.000000000               0.000674957               0.004732751              -0.000564051              -0.000338484               0.001690396               0.001351911               0.000000000               0.000000000               0.000000000               0.000000000               0.001056226               0.004880108              -0.000501075              -0.000213929               0.001697996               0.001484067               0.000000000               0.000000000               0.000000000               0.000000000               0.001483249               0.004986271              -0.000425940              -0.000067066               0.001684429               0.001617363               0.000000000               0.000000000               0.000000000               0.000000000               0.001970660               0.005041200              -0.000323341               0.000108846               0.001644101               0.001752947               0.000000000               0.000000000               0.000000000               0.000000000               0.002534712               0.005039808              -0.000179559               0.000320538               0.001573073               0.001893611               0.000000000               0.000000000               0.000000000               0.000000000               0.002973641               0.005072073              -0.000105444               0.000481101               0.001530307               0.002011408               0.000000000               0.000000000               0.000000000               0.000000000               0.000000000               0.000000000               0.000000000               0.000000000               0.000000000               0.000000000               0.000000000               0.000000000               0.000000000               0.000000000               0.000000000               0.000000000               0.000000000               0.000000000               0.000000000               0.000000000               0.000000000               0.000000000               0.000000000               0.000000000               0.000000000               0.000000000               0.000000000               0.000000000               0.000000000               0.000000000               0.000000000               0.000000000               0.000000000               0.000000000               0.000000000               0.000000000               0.000000000               0.000000000               0.000000000               0.000000000               0.000000000               0.000000000               0.000000000               0.000000000               0.000000000               0.000000000               0.000000000               0.000000000               0.000000000               0.000000000               0.000000000               0.000000000               0.000000000               0.000000000               0.000000000               0.000000000               0.000000000               0.000000000               0.000000000               0.000000000               0.000000000               0.000000000               0.000000000               0.000000000               0.000000000               0.000000000               0.000000000               0.000000000               0.000000000               0.000000000               0.000000000               0.000000000               0.000000000               0.000000000               0.000000000               0.000000000               0.000000000               0.000000000               0.000000000               0.000000000               0.000000000               0.000000000               0.000000000               0.000000000               0.000000000               0.000000000               0.000000000               0.000000000               0.000000000               0.000000000               0.000000000               0.000000000               0.000000000               0.000000000               0.000000000               0.000000000               0.000000000               0.000000000               0.000000000               0.000000000               0.000000000               0.000000000               0.000000000               0.000000000               0.000000000               0.000000000               0.000000000               0.000000000               0.000000000               0.000000000               0.000000000               0.000000000               0.000000000               0.000000000               0.000000000               0.000000000               0.000000000               0.000000000               0.000000000               0.000000000               0.000000000               0.000000000               0.000000000               0.000000000               0.000000000               0.000000000               0.000000000               0.000000000               0.000000000               0.000000000               0.000000000               0.000000000               0.000000000               0.000000000               0.000000000               0.000000000               0.000000000               0.000000000               0.000000000               0.000000000               0.000000000               0.000000000               0.000000000               0.000000000               0.000000000               0.000000000               0.000000000               0.000000000               0.000000000               0.000000000               0.000000000               0.000000000               0.000000000               0.000000000               0.000000000               0.000000000               0.000000000               0.000000000               0.000000000               0.000000000               0.000000000               0.000000000               0.000000000               0.000000000               0.000000000               0.000000000               0.000000000               0.000000000               0.000000000               0.000000000               0.000000000               0.000000000               0.000000000               0.000000000               0.000000000               0.000000000               0.000000000               0.000000000               0.000000000               0.000000000               0.000000000               0.000000000               0.000000000               0.000000000               0.000000000               0.000000000               0.000000000               0.000000000               0.000000000               0.000000000               0.000000000               0.000000000               0.000000000               0.000000000               0.000000000               0.000000000               0.000000000               0.000000000               0.000000000               0.000000000               0.000000000               0.000000000               0.000000000               0.000000000               0.000000000               0.000000000               0.000000000               0.000000000               0.000000000               0.000000000               0.000000000               0.000000000               0.000000000               0.000000000               0.000000000               0.000000000               0.000000000               0.000000000               0.000000000               0.000000000               0.000000000               0.000000000               0.000000000               0.000000000               0.000000000               0.000000000               0.000000000               0.000000000               0.000000000               0.000000000               0.000000000               0.000000000               0.000000000               0.000000000               0.000000000               0.000000000               0.000000000               0.000000000               0.000000000               0.000000000               0.000000000               0.000000000               0.000000000               0.000000000               0.000000000               0.000000000               0.000000000               0.000000000               0.000000000               0.000000000               0.000000000               0.000000000               0.000000000               0.000000000               0.000000000               0.000000000               0.000000000               0.000000000               0.000000000               0.000000000               0.000000000               0.000000000               0.000000000               0.000000000               0.000000000               0.000000000               0.000000000               0.000000000               0.000000000               0.000000000               0.000000000               0.000000000               0.000000000               0.000000000               0.000000000               0.000000000               0.000000000               0.000000000               0.000000000               0.000000000               0.000000000               0.000000000               0.000000000               0.000000000               0.000000000               0.000000000               0.000000000               0.000000000               0.000000000               0.000000000               0.000000000               0.000000000               0.000000000               0.000000000               0.000000000               0.000000000               0.000000000               0.000000000               0.000000000               0.000000000               0.000000000               0.000000000               0.000000000               0.000000000               0.000000000               0.000000000               0.000000000               0.000000000               0.000000000               0.000000000               0.000000000               0.000000000               0.000000000               0.000000000               0.000000000               0.000000000               0.000000000               0.000000000               0.000000000               0.000000000               0.000000000               0.000000000               0.000000000               0.000000000               0.000000000               0.000000000               0.000000000               0.000000000               0.000000000               0.000000000               0.000000000               0.000000000               0.000000000               0.000000000               0.000000000               0.000000000               0.000000000               0.000000000               0.000000000               0.000000000               0.000000000               0.000000000               0.000000000               0.000000000               0.002221192               0.022710651               0.001584329              -0.002005880               0.008238768               0.006232888               0.000000000               0.000000000               0.000000000               0.000000000               0.002094842               0.017830479               0.000790763              -0.001443241               0.006424514               0.004981273               0.000000000               0.000000000               0.000000000               0.000000000               0.002648468               0.013923029              -0.000000844              -0.000747201               0.004890030               0.004142829               0.000000000               0.000000000               0.000000000               0.000000000               0.002497469               0.011730506              -0.000334958              -0.000529761               0.004086717               0.003556956               0.000000000               0.000000000               0.000000000               0.000000000               0.002149809               0.010359732              -0.000471422              -0.000488787               0.003616139               0.003127352               0.000000000               0.000000000               0.000000000               0.000000000               0.001769677               0.009415388              -0.000516295              -0.000513293               0.003309529               0.002796236               0.000000000               0.000000000               0.000000000               0.000000000               0.001414728               0.008705354              -0.000519878              -0.000557645               0.003087637               0.002529992               0.000000000               0.000000000               0.000000000               0.000000000               0.001112231               0.008134821              -0.000504049              -0.000599765               0.002911501               0.002311737               0.000000000               0.000000000               0.000000000               0.000000000               0.000862014               0.007643779              -0.000476193              -0.000632215               0.002758639               0.002126424               0.000000000               0.000000000               0.000000000               0.000000000               0.000651144               0.007191179              -0.000443356              -0.000654717               0.002615275               0.001960558               0.000000000               0.000000000               0.000000000               0.000000000               0.000471699               0.006757033              -0.000413464              -0.000667740               0.002474902               0.001807162               0.000000000               0.000000000               0.000000000               0.000000000               0.000318694               0.006332162              -0.000384807              -0.000672008               0.002334702               0.001662694               0.000000000               0.000000000               0.000000000               0.000000000               0.000193199               0.005903502              -0.000347902              -0.000665486               0.002189643               0.001524157               0.000000000               0.000000000               0.000000000               0.000000000               0.000097185               0.005455061              -0.000297437              -0.000645437               0.002033481               0.001388044               0.000000000               0.000000000               0.000000000               0.000000000               0.000031768               0.004971488              -0.000229609              -0.000609522               0.001860320               0.001250798               0.000000000               0.000000000               0.000000000               0.000000000               0.000003823               0.004437513              -0.000132323              -0.000553254               0.001663574               0.001110320               0.000000000               0.000000000               0.000000000               0.000000000              -0.000041632               0.004038342              -0.000082769              -0.000520404               0.001519568               0.000999165               0.000000000               0.000000000               0.000000000               0.000000000               0.002416484               0.021381282               0.002953926              -0.001766476               0.007715848               0.005949372               0.000000000               0.000000000               0.000000000               0.000000000               0.001966898               0.016977675               0.001474584              -0.001384620               0.006120708               0.004736089               0.000000000               0.000000000               0.000000000               0.000000000               0.002175252               0.013571622               0.000016495              -0.000880731               0.004817406               0.003936675               0.000000000               0.000000000               0.000000000               0.000000000               0.001899097               0.011634009              -0.000575977              -0.000742088               0.004125327               0.003383239               0.000000000               0.000000000               0.000000000               0.000000000               0.001530738               0.010386443              -0.000806798              -0.000724277               0.003703539               0.002979262               0.000000000               0.000000000               0.000000000               0.000000000               0.001178243               0.009496178              -0.000875296              -0.000745179               0.003413754               0.002668575               0.000000000               0.000000000               0.000000000               0.000000000               0.000871533               0.008805211              -0.000874217              -0.000773825               0.003192983               0.002419158               0.000000000               0.000000000               0.000000000               0.000000000               0.000624291               0.008235662              -0.000843549              -0.000795347               0.003010309               0.002214962               0.000000000               0.000000000               0.000000000               0.000000000               0.000433949               0.007739919              -0.000794607              -0.000804757               0.002848200               0.002043442               0.000000000               0.000000000               0.000000000               0.000000000               0.000277446               0.007284202              -0.000737301              -0.000806481               0.002696870               0.001890389               0.000000000               0.000000000               0.000000000               0.000000000               0.000149689               0.006852820              -0.000684087              -0.000800467               0.002551073               0.001750606               0.000000000               0.000000000               0.000000000               0.000000000               0.000053866               0.006434739              -0.000631668              -0.000784141               0.002406272               0.001622131               0.000000000               0.000000000               0.000000000               0.000000000              -0.000013833               0.006020635              -0.000565415              -0.000757765               0.002259447               0.001501682               0.000000000               0.000000000               0.000000000               0.000000000              -0.000051031               0.005603902              -0.000476682              -0.000719623               0.002107823               0.001388200               0.000000000               0.000000000               0.000000000               0.000000000              -0.000059414               0.005177275              -0.000357935              -0.000669438               0.001948887               0.001279449               0.000000000               0.000000000               0.000000000               0.000000000              -0.000040862               0.004741374              -0.000199042              -0.000607994               0.001783107               0.001175113               0.000000000               0.000000000               0.000000000               0.000000000              -0.000056235               0.004440274              -0.000121350              -0.000576121               0.001672117               0.001095996               0.000000000               0.000000000               0.000000000               0.000000000               0.002618086               0.019337777               0.003934419              -0.001435439               0.006924340               0.005488902               0.000000000               0.000000000               0.000000000               0.000000000               0.001709781               0.015683286               0.001969448              -0.001319240               0.005667456               0.004348216               0.000000000               0.000000000               0.000000000               0.000000000               0.001434562               0.013028373               0.000063462              -0.001090583               0.004706275               0.003615692               0.000000000               0.000000000               0.000000000               0.000000000               0.001013494               0.011445508              -0.000668076              -0.001050626               0.004165340               0.003114714               0.000000000               0.000000000               0.000000000               0.000000000               0.000643925               0.010365296              -0.000934408              -0.001054188               0.003806460               0.002752272               0.000000000               0.000000000               0.000000000               0.000000000               0.000353399               0.009549836              -0.001003964              -0.001061203               0.003536981               0.002475778               0.000000000               0.000000000               0.000000000               0.000000000               0.000138938               0.008888694              -0.000993552              -0.001058983               0.003315863               0.002256880               0.000000000               0.000000000               0.000000000               0.000000000              -0.000013339               0.008320809              -0.000951030              -0.001045101               0.003121942               0.002076841               0.000000000               0.000000000               0.000000000               0.000000000              -0.000117046               0.007814978              -0.000888871              -0.001020762               0.002945221               0.001924458               0.000000000               0.000000000               0.000000000               0.000000000              -0.000188393               0.007350782              -0.000820327              -0.000989493               0.002780067               0.001790574               0.000000000               0.000000000               0.000000000               0.000000000              -0.000231952               0.006918757              -0.000756851              -0.000951824               0.002623504               0.001671680               0.000000000               0.000000000               0.000000000               0.000000000              -0.000245292               0.006509716              -0.000693423              -0.000905697               0.002471783               0.001566086               0.000000000               0.000000000               0.000000000               0.000000000              -0.000230807               0.006118720              -0.000615512              -0.000851391               0.002323350               0.001471959               0.000000000               0.000000000               0.000000000               0.000000000              -0.000194714               0.005743807              -0.000510045              -0.000790992               0.002178247               0.001387255               0.000000000               0.000000000               0.000000000               0.000000000              -0.000139571               0.005388964              -0.000372198              -0.000725958               0.002038289               0.001312331               0.000000000               0.000000000               0.000000000               0.000000000              -0.000073692               0.005070589              -0.000202120              -0.000661456               0.001910665               0.001249209               0.000000000               0.000000000               0.000000000               0.000000000              -0.000061282               0.004875831              -0.000120777              -0.000632458               0.001836080               0.001203622               0.000000000               0.000000000               0.000000000               0.000000000               0.002687621               0.016821199               0.004442499              -0.001094793               0.005971940               0.004877148               0.000000000               0.000000000               0.000000000               0.000000000               0.001297800               0.014114994               0.002259516              -0.001277697               0.005130850               0.003853152               0.000000000               0.000000000               0.000000000               0.000000000               0.000513034               0.012351571               0.000174310              -0.001351555               0.004567668               0.003216112               0.000000000               0.000000000               0.000000000               0.000000000              -0.000008455               0.011155328              -0.000575916              -0.001397583               0.004184266               0.002786683               0.000000000               0.000000000               0.000000000               0.000000000              -0.000328158               0.010245943              -0.000832313              -0.001403799               0.003883213               0.002479414               0.000000000               0.000000000               0.000000000               0.000000000              -0.000511886               0.009504582              -0.000892875              -0.001380027               0.003628171               0.002248144               0.000000000               0.000000000               0.000000000               0.000000000              -0.000606158               0.008867839              -0.000875456              -0.001335786               0.003401179               0.002065393               0.000000000               0.000000000               0.000000000               0.000000000              -0.000646810               0.008297453              -0.000831749              -0.001279732               0.003192367               0.001912635               0.000000000               0.000000000               0.000000000               0.000000000              -0.000645072               0.007782418              -0.000775916              -0.001214701               0.002999014               0.001784313               0.000000000               0.000000000               0.000000000               0.000000000              -0.000612981               0.007314611              -0.000716341              -0.001144192               0.002819576               0.001675385               0.000000000               0.000000000               0.000000000               0.000000000              -0.000556386               0.006887135              -0.000659772              -0.001069534               0.002652200               0.001582666               0.000000000               0.000000000               0.000000000               0.000000000              -0.000475970               0.006490291              -0.000599945              -0.000989773               0.002493333               0.001503560               0.000000000               0.000000000               0.000000000               0.000000000              -0.000377790               0.006120594              -0.000525171              -0.000906743               0.002342425               0.001435682               0.000000000               0.000000000               0.000000000               0.000000000              -0.000271019               0.005784715              -0.000424358              -0.000824719               0.002203125               0.001378406               0.000000000               0.000000000               0.000000000               0.000000000              -0.000165942               0.005497882              -0.000298061              -0.000749462               0.002082430               0.001332968               0.000000000               0.000000000               0.000000000               0.000000000              -0.000077029               0.005279464              -0.000154831              -0.000688817               0.001989409               0.001300592               0.000000000               0.000000000               0.000000000               0.000000000              -0.000050184               0.005169581              -0.000087235              -0.000665015               0.001944848               0.001279833               0.000000000               0.000000000               0.000000000               0.000000000               0.002496244               0.014099665               0.004484854              -0.000826369               0.004975297               0.004148928               0.000000000               0.000000000               0.000000000               0.000000000               0.000726225               0.012449140               0.002369871              -0.001283807               0.004577607               0.003293800               0.000000000               0.000000000               0.000000000               0.000000000              -0.000478951               0.011604942               0.000368208              -0.001630220               0.004411682               0.002781462               0.000000000               0.000000000               0.000000000               0.000000000              -0.001006889               0.010771349              -0.000309781              -0.001723997               0.004165079               0.002441082               0.000000000               0.000000000               0.000000000               0.000000000              -0.001214801               0.010009533              -0.000533582              -0.001706738               0.003905390               0.002198653               0.000000000               0.000000000               0.000000000               0.000000000              -0.001261691               0.009322993              -0.000589489              -0.001638504               0.003653801               0.002015297               0.000000000               0.000000000               0.000000000               0.000000000              -0.001219983               0.008699761              -0.000582740              -0.001544960               0.003414878               0.001869918               0.000000000               0.000000000               0.000000000               0.000000000              -0.001131155               0.008134060              -0.000559914              -0.001440937               0.003191639               0.001750702               0.000000000               0.000000000               0.000000000               0.000000000              -0.001017370               0.007622690              -0.000531962              -0.001334347               0.002985653               0.001651307               0.000000000               0.000000000               0.000000000               0.000000000              -0.000887632               0.007165304              -0.000499480              -0.001228522               0.002797918               0.001569396               0.000000000               0.000000000               0.000000000               0.000000000              -0.000743668               0.006751883              -0.000462356              -0.001122858               0.002624891               0.001502033               0.000000000               0.000000000               0.000000000               0.000000000              -0.000586839               0.006370307              -0.000415447              -0.001016350               0.002462198               0.001445847               0.000000000               0.000000000               0.000000000               0.000000000              -0.000424820               0.006022758              -0.000355172              -0.000912150               0.002311616               0.001399466               0.000000000               0.000000000               0.000000000               0.000000000              -0.000274446               0.005724721              -0.000275510              -0.000818505               0.002181056               0.001362551               0.000000000               0.000000000               0.000000000               0.000000000              -0.000149864               0.005493494              -0.000181584              -0.000742884               0.002078774               0.001335890               0.000000000               0.000000000               0.000000000               0.000000000              -0.000061961               0.005339270              -0.000088318              -0.000690642               0.002009953               0.001319311               0.000000000               0.000000000               0.000000000               0.000000000              -0.000035756               0.005272501              -0.000047807              -0.000672470               0.001981639               0.001309170               0.000000000               0.000000000               0.000000000               0.000000000               0.001976684               0.011393724               0.004135378              -0.000682961               0.004025523               0.003342561               0.000000000               0.000000000               0.000000000               0.000000000               0.000022237               0.010811988               0.002349412              -0.001343158               0.004051679               0.002708521               0.000000000               0.000000000               0.000000000               0.000000000              -0.001433122               0.010822687               0.000653250              -0.001890252               0.004237610               0.002347358               0.000000000               0.000000000               0.000000000               0.000000000              -0.001861387               0.010289614               0.000092540              -0.001984217               0.004091243               0.002107026               0.000000000               0.000000000               0.000000000               0.000000000              -0.001906037               0.009644538              -0.000106986              -0.001920326               0.003854923               0.001934596               0.000000000               0.000000000               0.000000000               0.000000000              -0.001795814               0.009006865              -0.000179742              -0.001799284               0.003602020               0.001802736               0.000000000               0.000000000               0.000000000               0.000000000              -0.001616043               0.008408986              -0.000206934              -0.001657135               0.003355346               0.001698210               0.000000000               0.000000000               0.000000000               0.000000000              -0.001407764               0.007862999              -0.000223535              -0.001510783               0.003124568               0.001613785               0.000000000               0.000000000               0.000000000               0.000000000              -0.001191379               0.007372530              -0.000235520              -0.001368330               0.002913595               0.001545265               0.000000000               0.000000000               0.000000000               0.000000000              -0.000976469               0.006932698              -0.000239132              -0.001232760               0.002721796               0.001489036               0.000000000               0.000000000               0.000000000               0.000000000              -0.000764319               0.006532698              -0.000228661              -0.001103204               0.002545279               0.001442075               0.000000000               0.000000000               0.000000000               0.000000000              -0.000559762               0.006165218              -0.000203071              -0.000980561               0.002381906               0.001401345               0.000000000               0.000000000               0.000000000               0.000000000              -0.000374266               0.005844935              -0.000167274              -0.000870964               0.002238614               0.001367649               0.000000000               0.000000000               0.000000000               0.000000000              -0.000221881               0.005588160              -0.000121482              -0.000781723               0.002123276               0.001341552               0.000000000               0.000000000               0.000000000               0.000000000              -0.000109564               0.005402890              -0.000070638              -0.000716446               0.002039761               0.001323315               0.000000000               0.000000000               0.000000000               0.000000000              -0.000039751               0.005281858              -0.000028838              -0.000675137               0.001985647               0.001310510               0.000000000               0.000000000               0.000000000               0.000000000              -0.000023612               0.005225200              -0.000016248              -0.000662003               0.001962384               0.001300381               0.000000000               0.000000000               0.000000000               0.000000000               0.001158916               0.008871237               0.003496439              -0.000674313               0.003181819               0.002507506               0.000000000               0.000000000               0.000000000               0.000000000              -0.000765528               0.009295512               0.002249481              -0.001449010               0.003581476               0.002132466               0.000000000               0.000000000               0.000000000               0.000000000              -0.002246598               0.010009632               0.001021852              -0.002093673               0.004034401               0.001940728               0.000000000               0.000000000               0.000000000               0.000000000              -0.002487492               0.009702968               0.000568308              -0.002145675               0.003949515               0.001803840               0.000000000               0.000000000               0.000000000               0.000000000              -0.002345978               0.009160122               0.000360368              -0.002024752               0.003728261               0.001703509               0.000000000               0.000000000               0.000000000               0.000000000              -0.002082935               0.008582379               0.000244451              -0.001853894               0.003478729               0.001624836               0.000000000               0.000000000               0.000000000               0.000000000              -0.001780222               0.008031905               0.000167853              -0.001671567               0.003234464               0.001562897               0.000000000               0.000000000               0.000000000               0.000000000              -0.001477282               0.007525024               0.000105548              -0.001494605               0.003006518               0.001511913               0.000000000               0.000000000               0.000000000               0.000000000              -0.001185949               0.007059694               0.000050964              -0.001327189               0.002795604               0.001468415               0.000000000               0.000000000               0.000000000               0.000000000              -0.000909783               0.006632948               0.000007556              -0.001170284               0.002601055               0.001430771               0.000000000               0.000000000               0.000000000               0.000000000              -0.000656512               0.006241748              -0.000016100              -0.001026408               0.002422698               0.001396290               0.000000000               0.000000000               0.000000000               0.000000000              -0.000437729               0.005898692              -0.000020083              -0.000901483               0.002266705               0.001365223               0.000000000               0.000000000               0.000000000               0.000000000              -0.000262442               0.005619455              -0.000017384              -0.000800846               0.002140082               0.001339236               0.000000000               0.000000000               0.000000000               0.000000000              -0.000136890               0.005408371              -0.000010716              -0.000727378               0.002045232               0.001317854               0.000000000               0.000000000               0.000000000               0.000000000              -0.000058137               0.005260714              -0.000001082              -0.000679389               0.001980017               0.001300628               0.000000000               0.000000000               0.000000000               0.000000000              -0.000018975               0.005162208               0.000004055              -0.000652390               0.001938182               0.001285792               0.000000000               0.000000000               0.000000000               0.000000000              -0.000016221               0.005112009              -0.000000210              -0.000645082               0.001919013               0.001273931               0.000000000               0.000000000               0.000000000               0.000000000               0.000164095               0.006725607               0.002690700              -0.000779165               0.002501568               0.001722402               0.000000000               0.000000000               0.000000000               0.000000000              -0.001529523               0.007936874               0.002125000              -0.001565678               0.003167490               0.001601813               0.000000000               0.000000000               0.000000000               0.000000000              -0.002868474               0.009203800               0.001459703              -0.002226147               0.003809952               0.001583804               0.000000000               0.000000000               0.000000000               0.000000000              -0.002905298               0.009137058               0.001073828              -0.002231614               0.003789527               0.001557913               0.000000000               0.000000000               0.000000000               0.000000000              -0.002608006               0.008730492               0.000831019              -0.002069309               0.003599904               0.001530596               0.000000000               0.000000000               0.000000000               0.000000000              -0.002225104               0.008240184               0.000657642              -0.001864432               0.003368178               0.001503745               0.000000000               0.000000000               0.000000000               0.000000000              -0.001830247               0.007751397               0.000524204              -0.001655263               0.003135527               0.001480264               0.000000000               0.000000000               0.000000000               0.000000000              -0.001457579               0.007287815               0.000419249              -0.001457565               0.002915102               0.001457537               0.000000000               0.000000000               0.000000000               0.000000000              -0.001112061               0.006852351               0.000328755              -0.001273564               0.002708615               0.001435052               0.000000000               0.000000000               0.000000000               0.000000000              -0.000796755               0.006442439               0.000246340              -0.001104085               0.002515487               0.001411401               0.000000000               0.000000000               0.000000000               0.000000000              -0.000526781               0.006062499               0.000178951              -0.000955353               0.002339264               0.001383911               0.000000000               0.000000000               0.000000000               0.000000000              -0.000311581               0.005738494               0.000131062              -0.000834153               0.002190863               0.001356711               0.000000000               0.000000000               0.000000000               0.000000000              -0.000156029               0.005485477               0.000093454              -0.000744194               0.002076539               0.001332345               0.000000000               0.000000000               0.000000000               0.000000000              -0.000062609               0.005297619               0.000060671              -0.000685679               0.001994415               0.001308736               0.000000000               0.000000000               0.000000000               0.000000000              -0.000019982               0.005165992               0.000036286              -0.000653240               0.001939727               0.001286486               0.000000000               0.000000000               0.000000000               0.000000000              -0.000014244               0.005078051               0.000017783              -0.000640096               0.001906032               0.001265936               0.000000000               0.000000000               0.000000000               0.000000000              -0.000022364               0.005038704               0.000007307              -0.000638223               0.001892292               0.001254069               0.000000000               0.000000000               0.000000000               0.000000000              -0.001007944               0.004722166               0.001830723              -0.000968248               0.001896788               0.000928540               0.000000000               0.000000000               0.000000000               0.000000000              -0.002152012               0.006368688               0.001981709              -0.001603087               0.002657237               0.001054149               0.000000000               0.000000000               0.000000000               0.000000000              -0.003211301               0.008032468               0.001923301              -0.002208291               0.003413559               0.001205268               0.000000000               0.000000000               0.000000000               0.000000000              -0.003143991               0.008335951               0.001617267              -0.002220985               0.003518951               0.001297965               0.000000000               0.000000000               0.000000000               0.000000000              -0.002789631               0.008185757               0.001338008              -0.002069326               0.003418334               0.001349007               0.000000000               0.000000000               0.000000000               0.000000000              -0.002374150               0.007875908               0.001109192              -0.001874790               0.003250206               0.001375416               0.000000000               0.000000000               0.000000000               0.000000000              -0.001951813               0.007516280               0.000925216              -0.001671461               0.003062555               0.001391094               0.000000000               0.000000000               0.000000000               0.000000000              -0.001550117               0.007148349               0.000777561              -0.001474834               0.002874371               0.001399537               0.000000000               0.000000000               0.000000000               0.000000000              -0.001185321               0.006786139               0.000648286              -0.001292760               0.002692944               0.001400184               0.000000000               0.000000000               0.000000000               0.000000000              -0.000858264               0.006436388               0.000524777              -0.001126395               0.002520906               0.001394511               0.000000000               0.000000000               0.000000000               0.000000000              -0.000576676               0.006102833               0.000411464              -0.000979105               0.002360626               0.001381520               0.000000000               0.000000000               0.000000000               0.000000000              -0.000348845               0.005799674               0.000314141              -0.000855774               0.002218463               0.001362689               0.000000000               0.000000000               0.000000000               0.000000000              -0.000179884               0.005541588               0.000226576              -0.000760153               0.002100562               0.001340409               0.000000000               0.000000000               0.000000000               0.000000000              -0.000074130               0.005334509               0.000149261              -0.000694611               0.002009689               0.001315078               0.000000000               0.000000000               0.000000000               0.000000000              -0.000026735               0.005179808               0.000084917              -0.000657500               0.001945752               0.001288252               0.000000000               0.000000000               0.000000000               0.000000000              -0.000025414               0.005071369               0.000033306              -0.000643450               0.001904923               0.001261473               0.000000000               0.000000000               0.000000000               0.000000000              -0.000037613               0.005028213               0.000010097              -0.000642630               0.001890264               0.001247634               0.000000000               0.000000000               0.000000000               0.000000000              -0.002520528               0.002906570               0.000970521              -0.001308517               0.001405018               0.000096502               0.000000000               0.000000000               0.000000000               0.000000000              -0.002849818               0.004792810               0.001762283              -0.001667780               0.002153513               0.000485734               0.000000000               0.000000000               0.000000000               0.000000000              -0.003447055               0.006673750               0.002287942              -0.002126860               0.002933514               0.000806654               0.000000000               0.000000000               0.000000000               0.000000000              -0.003291456               0.007330935               0.002132912              -0.002150658               0.003160506               0.001009848               0.000000000               0.000000000               0.000000000               0.000000000              -0.002914452               0.007475990               0.001855292              -0.002027414               0.003167776               0.001140362               0.000000000               0.000000000               0.000000000               0.000000000              -0.002490000               0.007390657               0.001593919              -0.001857578               0.003082720               0.001225142               0.000000000               0.000000000               0.000000000               0.000000000              -0.002063718               0.007199626               0.001373586              -0.001673844               0.002957799               0.001283955               0.000000000               0.000000000               0.000000000               0.000000000              -0.001653841               0.006963355               0.001187072              -0.001490606               0.002817964               0.001327357               0.000000000               0.000000000               0.000000000               0.000000000              -0.001280530               0.006700345               0.001019420              -0.001317739               0.002672672               0.001354933               0.000000000               0.000000000               0.000000000               0.000000000              -0.000941961               0.006430450               0.000862017              -0.001157039               0.002529141               0.001372103               0.000000000               0.000000000               0.000000000               0.000000000              -0.000639244               0.006159109               0.000712072              -0.001009603               0.002389550               0.001379947               0.000000000               0.000000000               0.000000000               0.000000000              -0.000383008               0.005893336               0.000573546              -0.000880293               0.002257857               0.001377564               0.000000000               0.000000000               0.000000000               0.000000000              -0.000182040               0.005642472               0.000440539              -0.000773572               0.002138662               0.001365090               0.000000000               0.000000000               0.000000000               0.000000000              -0.000042067               0.005422761               0.000312401              -0.000693619               0.002038775               0.001345157               0.000000000               0.000000000               0.000000000               0.000000000               0.000025678               0.005239910               0.000191471              -0.000645358               0.001961738               0.001316381               0.000000000               0.000000000               0.000000000               0.000000000               0.000027258               0.005102355               0.000085027              -0.000627571               0.001909959               0.001282387               0.000000000               0.000000000               0.000000000               0.000000000               0.000002519               0.005040430               0.000032662              -0.000629108               0.001889829               0.001260722               0.000000000               0.000000000               0.000000000               0.000000000              -0.004282440               0.001413634               0.000182452              -0.001782616               0.001065410              -0.000717207               0.000000000               0.000000000               0.000000000               0.000000000              -0.003683036               0.003302750               0.001444586              -0.001793979               0.001698897              -0.000095081               0.000000000               0.000000000               0.000000000               0.000000000              -0.003619176               0.005144251               0.002436060              -0.002000218               0.002381472               0.000381253               0.000000000               0.000000000               0.000000000               0.000000000              -0.003291764               0.006044058               0.002472827              -0.001989915               0.002677970               0.000688055               0.000000000               0.000000000               0.000000000               0.000000000              -0.002878260               0.006459305               0.002254552              -0.001886757               0.002781998               0.000895242               0.000000000               0.000000000               0.000000000               0.000000000              -0.002452851               0.006614340               0.001997336              -0.001746608               0.002786960               0.001040352               0.000000000               0.000000000               0.000000000               0.000000000              -0.002039634               0.006620065               0.001763014              -0.001592367               0.002737455               0.001145087               0.000000000               0.000000000               0.000000000               0.000000000              -0.001642557               0.006540098               0.001553737              -0.001433468               0.002657833               0.001224365               0.000000000               0.000000000               0.000000000               0.000000000              -0.001271788               0.006405067               0.001361567              -0.001277551               0.002560851               0.001283300               0.000000000               0.000000000               0.000000000               0.000000000              -0.000930787               0.006240083               0.001184547              -0.001129053               0.002456358               0.001327305               0.000000000               0.000000000               0.000000000               0.000000000              -0.000614945               0.006057811               0.001017030              -0.000987829               0.002348526               0.001360698               0.000000000               0.000000000               0.000000000               0.000000000              -0.000328868               0.005861621               0.000856457              -0.000856026               0.002239196               0.001383170               0.000000000               0.000000000               0.000000000               0.000000000              -0.000089686               0.005656098               0.000692861              -0.000740643               0.002132228               0.001391585               0.000000000               0.000000000               0.000000000               0.000000000               0.000090338               0.005457480               0.000520888              -0.000648307               0.002035244               0.001386937               0.000000000               0.000000000               0.000000000               0.000000000               0.000199145               0.005277889               0.000342322              -0.000585055               0.001954297               0.001369242               0.000000000               0.000000000               0.000000000               0.000000000               0.000223801               0.005127074               0.000166211              -0.000556958               0.001894660               0.001337703               0.000000000               0.000000000               0.000000000               0.000000000               0.000197727               0.005049622               0.000075387              -0.000557054               0.001868875               0.001311822               0.000000000               0.000000000               0.000000000               0.000000000              -0.006154100               0.000317114              -0.000423418              -0.002347424               0.000888173              -0.001459251               0.000000000               0.000000000               0.000000000               0.000000000              -0.004596371               0.001981163               0.001071389              -0.001971282               0.001317472              -0.000653809               0.000000000               0.000000000               0.000000000               0.000000000              -0.003757320               0.003568777               0.002339014              -0.001855089               0.001807942              -0.000047147               0.000000000               0.000000000               0.000000000               0.000000000              -0.003173470               0.004576982               0.002550839              -0.001762171               0.002113034               0.000350864               0.000000000               0.000000000               0.000000000               0.000000000              -0.002685903               0.005204447               0.002423774              -0.001657767               0.002287386               0.000629620               0.000000000               0.000000000               0.000000000               0.000000000              -0.002252146               0.005582942               0.002205489              -0.001542420               0.002375101               0.000832681               0.000000000               0.000000000               0.000000000               0.000000000              -0.001854590               0.005788606               0.001986415              -0.001419044               0.002402530               0.000983486               0.000000000               0.000000000               0.000000000               0.000000000              -0.001483827               0.005876312               0.001779829              -0.001290972               0.002389074               0.001098103               0.000000000               0.000000000               0.000000000               0.000000000              -0.001127130               0.005890457               0.001585124              -0.001158979               0.002349792               0.001190813               0.000000000               0.000000000               0.000000000               0.000000000              -0.000787183               0.005854122               0.001405484              -0.001026957               0.002293673               0.001266716               0.000000000               0.000000000               0.000000000               0.000000000              -0.000463716               0.005781281               0.001240250              -0.000896552               0.002225925               0.001329373               0.000000000               0.000000000               0.000000000               0.000000000              -0.000157656               0.005679124               0.001078796              -0.000769010               0.002149359               0.001380349               0.000000000               0.000000000               0.000000000               0.000000000               0.000121259               0.005550642               0.000905607              -0.000648357               0.002066314               0.001417957               0.000000000               0.000000000               0.000000000               0.000000000               0.000358927               0.005405696               0.000714351              -0.000541113               0.001982252               0.001441139               0.000000000               0.000000000               0.000000000               0.000000000               0.000538781               0.005261452               0.000499000              -0.000455638               0.001905679               0.001450042               0.000000000               0.000000000               0.000000000               0.000000000               0.000638510               0.005127373               0.000259058              -0.000401479               0.001842934               0.001441454               0.000000000               0.000000000               0.000000000               0.000000000               0.000658067               0.005056991               0.000132624              -0.000385348               0.001814096               0.001428749               0.000000000               0.000000000               0.000000000               0.000000000              -0.007946606              -0.000387640              -0.000743103              -0.002931520               0.000847954              -0.002083566               0.000000000               0.000000000               0.000000000               0.000000000              -0.005506204               0.000913810               0.000706014              -0.002179050               0.001030946              -0.001148104               0.000000000               0.000000000               0.000000000               0.000000000              -0.003881555               0.002109517               0.001997737              -0.001719270               0.001276253              -0.000443017               0.000000000               0.000000000               0.000000000               0.000000000              -0.002989761               0.003108306               0.002314205              -0.001509696               0.001539322               0.000029626               0.000000000               0.000000000               0.000000000               0.000000000              -0.002394740               0.003865280               0.002276621              -0.001381185               0.001748808               0.000367623               0.000000000               0.000000000               0.000000000               0.000000000              -0.001933062               0.004418612               0.002120427              -0.001277223               0.001898596               0.000621373               0.000000000               0.000000000               0.000000000               0.000000000              -0.001544126               0.004806250               0.001939717              -0.001179827               0.001995342               0.000815515               0.000000000               0.000000000               0.000000000               0.000000000              -0.001196434               0.005058193               0.001761701              -0.001080935               0.002046358               0.000965423               0.000000000               0.000000000               0.000000000               0.000000000              -0.000861100               0.005217445               0.001591675              -0.000975092               0.002064161               0.001089069               0.000000000               0.000000000               0.000000000               0.000000000              -0.000528454               0.005314402               0.001432911              -0.000862469               0.002058939               0.001196470               0.000000000               0.000000000               0.000000000               0.000000000              -0.000199282               0.005363567               0.001286170              -0.000745175               0.002036229               0.001291054               0.000000000               0.000000000               0.000000000               0.000000000               0.000121023               0.005369860               0.001141486              -0.000625848               0.001998551               0.001372703               0.000000000               0.000000000               0.000000000               0.000000000               0.000436597               0.005341793               0.000985901              -0.000503999               0.001948579               0.001444580               0.000000000               0.000000000               0.000000000               0.000000000               0.000742334               0.005282779               0.000805007              -0.000381972               0.001888232               0.001506261               0.000000000               0.000000000               0.000000000               0.000000000               0.001020544               0.005199557               0.000586228              -0.000267240               0.001822248               0.001555008               0.000000000               0.000000000               0.000000000               0.000000000               0.001253270               0.005104470               0.000318946              -0.000168082               0.001757500               0.001589418               0.000000000               0.000000000               0.000000000               0.000000000               0.001382213               0.005063424               0.000177538              -0.000114598               0.001725990               0.001611393               0.000000000               0.000000000               0.000000000               0.000000000              -0.009455653              -0.000781682              -0.000735740              -0.003448157               0.000888819              -0.002559338               0.000000000               0.000000000               0.000000000               0.000000000              -0.006299344               0.000141837               0.000404031              -0.002379982               0.000840600              -0.001539381               0.000000000               0.000000000               0.000000000               0.000000000              -0.003996723               0.000929629               0.001451946              -0.001614973               0.000848194              -0.000766779               0.000000000               0.000000000               0.000000000               0.000000000              -0.002802343               0.001846339               0.001762339              -0.001281669               0.001042661              -0.000239008               0.000000000               0.000000000               0.000000000               0.000000000              -0.002085935               0.002658221               0.001781244              -0.001114501               0.001257564               0.000143063               0.000000000               0.000000000               0.000000000               0.000000000              -0.001588022               0.003325431               0.001688856              -0.001011185               0.001445527               0.000434342               0.000000000               0.000000000               0.000000000               0.000000000              -0.001199078               0.003849349               0.001562974              -0.000930821               0.001593377               0.000662555               0.000000000               0.000000000               0.000000000               0.000000000              -0.000865524               0.004236423               0.001434723              -0.000854123               0.001696834               0.000842711               0.000000000               0.000000000               0.000000000               0.000000000              -0.000547805               0.004522180               0.001310262              -0.000770698               0.001764277               0.000993579               0.000000000               0.000000000               0.000000000               0.000000000              -0.000227772               0.004742549               0.001191781              -0.000678232               0.001806911               0.001128679               0.000000000               0.000000000               0.000000000               0.000000000               0.000098891               0.004903626               0.001081350              -0.000575868               0.001826482               0.001250613               0.000000000               0.000000000               0.000000000               0.000000000               0.000434387               0.005013509               0.000972488              -0.000463793               0.001825751               0.001361958               0.000000000               0.000000000               0.000000000               0.000000000               0.000785171               0.005088638               0.000856328              -0.000341640               0.001810076               0.001468435               0.000000000               0.000000000               0.000000000               0.000000000               0.001156042               0.005124847               0.000716047              -0.000207090               0.001777295               0.001570205               0.000000000               0.000000000               0.000000000               0.000000000               0.001548729               0.005119122               0.000535780              -0.000059117               0.001726063               0.001666946               0.000000000               0.000000000               0.000000000               0.000000000               0.001954717               0.005073958               0.000298291               0.000098773               0.001658378               0.001757151               0.000000000               0.000000000               0.000000000               0.000000000               0.002241222               0.005070767               0.000173631               0.000206610               0.001621369               0.001827979               0.000000000               0.000000000               0.000000000               0.000000000              -0.010465766              -0.000962487              -0.000453092              -0.003804349               0.000947281              -0.002857068               0.000000000               0.000000000               0.000000000               0.000000000              -0.006844560              -0.000323708               0.000174553              -0.002526245               0.000734174              -0.001792071               0.000000000               0.000000000               0.000000000               0.000000000              -0.004082520               0.000160034               0.000761362              -0.001550948               0.000570323              -0.000980625               0.000000000               0.000000000               0.000000000               0.000000000              -0.002673581               0.000991699               0.000951687              -0.001126554               0.000706079              -0.000420475               0.000000000               0.000000000               0.000000000               0.000000000              -0.001861325               0.001814765               0.000979027              -0.000924841               0.000913195              -0.000011646               0.000000000               0.000000000               0.000000000               0.000000000              -0.001327322               0.002536503               0.000939704              -0.000814807               0.001117094               0.000302287               0.000000000               0.000000000               0.000000000               0.000000000              -0.000928351               0.003138194               0.000876432              -0.000740404               0.001292855               0.000552451               0.000000000               0.000000000               0.000000000               0.000000000              -0.000599652               0.003615246               0.000810595              -0.000676774               0.001430661               0.000753887               0.000000000               0.000000000               0.000000000               0.000000000              -0.000299259               0.003988534               0.000745971              -0.000610788               0.001533094               0.000922306               0.000000000               0.000000000               0.000000000               0.000000000               0.000005784               0.004294141               0.000681980              -0.000534597               0.001609565               0.001074968               0.000000000               0.000000000               0.000000000               0.000000000               0.000328353               0.004542725               0.000622568              -0.000444708               0.001662462               0.001217755               0.000000000               0.000000000               0.000000000               0.000000000               0.000674957               0.004732751               0.000564051              -0.000338484               0.001690396               0.001351911               0.000000000               0.000000000               0.000000000               0.000000000               0.001056226               0.004880108               0.000501075              -0.000213929               0.001697996               0.001484067               0.000000000               0.000000000               0.000000000               0.000000000               0.001483249               0.004986271               0.000425940              -0.000067066               0.001684429               0.001617363               0.000000000               0.000000000               0.000000000               0.000000000               0.001970660               0.005041200               0.000323341               0.000108846               0.001644101               0.001752947               0.000000000               0.000000000               0.000000000               0.000000000               0.002534712               0.005039808               0.000179559               0.000320538               0.001573073               0.001893611               0.000000000               0.000000000               0.000000000               0.000000000               0.002973641               0.005072073               0.000105444               0.000481101               0.001530307               0.002011408               0.000000000               0.000000000               0.000000000               0.000000000               0.000000000               0.000000000               0.000000000               0.000000000               0.000000000               0.000000000               0.000000000               0.000000000               0.000000000               0.000000000               0.000000000               0.000000000               0.000000000               0.000000000               0.000000000               0.000000000               0.000000000               0.000000000               0.000000000               0.000000000               0.000000000               0.000000000               0.000000000               0.000000000               0.000000000               0.000000000               0.000000000               0.000000000               0.000000000               0.000000000               0.000000000               0.000000000               0.000000000               0.000000000               0.000000000               0.000000000               0.000000000               0.000000000               0.000000000               0.000000000               0.000000000               0.000000000               0.000000000               0.000000000               0.000000000               0.000000000               0.000000000               0.000000000               0.000000000               0.000000000               0.000000000               0.000000000               0.000000000               0.000000000               0.000000000               0.000000000               0.000000000               0.000000000               0.000000000               0.000000000               0.000000000               0.000000000               0.000000000               0.000000000               0.000000000               0.000000000               0.000000000               0.000000000               0.000000000               0.000000000               0.000000000               0.000000000               0.000000000               0.000000000               0.000000000               0.000000000               0.000000000               0.000000000               0.000000000               0.000000000               0.000000000               0.000000000               0.000000000               0.000000000               0.000000000               0.000000000               0.000000000               0.000000000               0.000000000               0.000000000               0.000000000               0.000000000               0.000000000               0.000000000               0.000000000               0.000000000               0.000000000               0.000000000               0.000000000               0.000000000               0.000000000               0.000000000               0.000000000               0.000000000               0.000000000               0.000000000               0.000000000               0.000000000               0.000000000               0.000000000               0.000000000               0.000000000               0.000000000               0.000000000               0.000000000               0.000000000               0.000000000               0.000000000               0.000000000               0.000000000               0.000000000               0.000000000               0.000000000               0.000000000               0.000000000               0.000000000               0.000000000               0.000000000               0.000000000               0.000000000               0.000000000               0.000000000               0.000000000               0.000000000               0.000000000               0.000000000               0.000000000               0.000000000               0.000000000               0.000000000               0.000000000               0.000000000               0.000000000               0.000000000               0.000000000               0.000000000               0.000000000               0.000000000               0.000000000               0.000000000               0.000000000               0.000000000               0.000000000               0.000000000               0.000000000               0.000000000               0.000000000               0.000000000               0.000000000               0.000000000               0.000000000               0.000000000               0.000000000               0.000000000               0.000000000               0.000000000               0.000000000               0.000000000               0.000000000               0.000000000 </DataArray>
</PointData>
</Piece>
</UnstructuredGrid> </VTKFile>
